150:2797
0 5
0 7
0 19
0 20
0 24
0 27
0 34
0 37
0 39
0 45
0 46
0 53
0 61
0 68
0 89
0 91
0 94
0 97
0 104
0 105
0 110
0 111
0 115
0 118
0 119
0 120
0 130
0 133
0 136
0 139
0 144
0 148
1 5
1 6
1 15
1 25
1 27
1 30
1 32
1 34
1 48
1 56
1 67
1 72
1 78
1 81
1 90
1 91
1 101
1 104
1 111
1 113
1 114
1 118
1 119
1 122
1 127
1 132
1 133
1 136
2 6
2 7
2 10
2 12
2 22
2 24
2 26
2 27
2 32
2 34
2 36
2 37
2 38
2 42
2 43
2 44
2 48
2 49
2 51
2 52
2 57
2 59
2 61
2 66
2 67
2 72
2 73
2 76
2 82
2 86
2 89
2 93
2 103
2 104
2 112
2 117
2 122
2 124
2 127
2 129
2 130
2 135
2 136
2 143
2 146
2 149
3 8
3 9
3 15
3 16
3 21
3 22
3 24
3 25
3 28
3 38
3 43
3 44
3 45
3 48
3 51
3 54
3 55
3 56
3 57
3 64
3 68
3 72
3 74
3 82
3 84
3 88
3 95
3 106
3 116
3 117
3 119
3 121
3 124
3 129
3 136
3 137
3 140
3 143
4 6
4 9
4 12
4 20
4 22
4 26
4 27
4 36
4 38
4 43
4 44
4 45
4 54
4 56
4 59
4 60
4 61
4 65
4 68
4 75
4 77
4 82
4 83
4 84
4 90
4 91
4 93
4 98
4 105
4 107
4 108
4 110
4 111
4 112
4 114
4 115
4 121
4 131
4 137
4 139
4 143
4 144
4 146
4 148
5 7
5 14
5 15
5 17
5 21
5 24
5 29
5 31
5 35
5 36
5 38
5 42
5 55
5 56
5 62
5 64
5 72
5 78
5 80
5 91
5 93
5 95
5 97
5 100
5 102
5 104
5 107
5 109
5 111
5 114
5 117
5 118
5 120
5 124
5 125
5 135
5 138
5 144
5 145
5 146
5 147
6 9
6 10
6 11
6 18
6 24
6 30
6 33
6 34
6 42
6 46
6 49
6 53
6 54
6 55
6 57
6 62
6 63
6 65
6 68
6 72
6 73
6 74
6 79
6 82
6 85
6 91
6 93
6 97
6 110
6 113
6 114
6 125
6 128
6 133
6 140
6 142
6 143
6 146
6 148
6 149
7 9
7 11
7 16
7 18
7 22
7 32
7 43
7 44
7 46
7 47
7 49
7 52
7 54
7 59
7 60
7 65
7 73
7 81
7 83
7 84
7 87
7 94
7 110
7 117
7 119
7 120
7 122
7 125
7 126
7 129
7 138
7 139
7 144
7 147
8 10
8 14
8 17
8 20
8 22
8 26
8 30
8 32
8 47
8 50
8 51
8 61
8 64
8 65
8 66
8 67
8 69
8 70
8 71
8 83
8 90
8 91
8 92
8 93
8 95
8 96
8 97
8 98
8 104
8 105
8 109
8 111
8 115
8 117
8 121
8 123
8 125
8 127
8 128
8 129
8 132
8 139
8 140
9 10
9 12
9 13
9 16
9 23
9 29
9 32
9 33
9 35
9 36
9 38
9 42
9 43
9 44
9 45
9 46
9 47
9 49
9 50
9 57
9 61
9 69
9 78
9 80
9 84
9 89
9 90
9 100
9 103
9 111
9 112
9 114
9 115
9 123
9 139
9 144
9 146
10 15
10 16
10 21
10 25
10 26
10 35
10 36
10 39
10 44
10 51
10 55
10 58
10 59
10 68
10 72
10 73
10 76
10 79
10 82
10 83
10 85
10 91
10 95
10 101
10 106
10 116
10 117
10 118
10 120
10 126
10 129
10 131
10 137
10 138
10 141
11 14
11 17
11 29
11 40
11 47
11 54
11 55
11 66
11 83
11 85
11 88
11 93
11 94
11 100
11 102
11 107
11 108
11 110
11 121
11 125
11 127
11 128
11 138
11 146
11 149
12 17
12 22
12 24
12 25
12 30
12 40
12 66
12 77
12 79
12 82
12 86
12 89
12 102
12 108
12 110
12 121
12 125
12 128
12 134
12 135
12 142
12 144
12 146
12 149
13 15
13 16
13 23
13 24
13 26
13 30
13 32
13 35
13 39
13 40
13 41
13 42
13 43
13 45
13 46
13 53
13 56
13 57
13 58
13 60
13 65
13 66
13 67
13 73
13 74
13 80
13 84
13 85
13 92
13 93
13 98
13 100
13 102
13 103
13 109
13 111
13 113
13 116
13 122
13 129
13 148
14 15
14 16
14 23
14 25
14 31
14 32
14 37
14 43
14 49
14 51
14 55
14 61
14 64
14 65
14 69
14 71
14 73
14 82
14 94
14 95
14 97
14 99
14 110
14 116
14 117
14 119
14 121
14 128
14 133
14 137
14 139
14 140
14 142
14 143
14 147
14 148
15 16
15 18
15 25
15 26
15 29
15 34
15 35
15 41
15 50
15 52
15 55
15 58
15 59
15 65
15 68
15 71
15 77
15 83
15 84
15 86
15 107
15 108
15 112
15 116
15 120
15 122
15 123
15 128
15 134
15 137
15 144
15 147
15 148
15 149
16 20
16 21
16 23
16 24
16 29
16 30
16 33
16 37
16 41
16 45
16 52
16 53
16 54
16 55
16 59
16 64
16 66
16 71
16 72
16 76
16 81
16 83
16 86
16 89
16 92
16 98
16 107
16 108
16 111
16 112
16 122
16 134
16 135
16 137
17 18
17 19
17 20
17 22
17 24
17 25
17 26
17 27
17 29
17 31
17 32
17 37
17 38
17 50
17 55
17 57
17 62
17 63
17 64
17 69
17 78
17 81
17 82
17 84
17 85
17 86
17 91
17 93
17 98
17 99
17 102
17 106
17 113
17 116
17 122
17 123
17 133
17 136
17 141
17 144
17 146
17 148
18 19
18 24
18 28
18 32
18 36
18 42
18 43
18 48
18 53
18 59
18 61
18 62
18 67
18 68
18 81
18 84
18 86
18 97
18 99
18 102
18 104
18 108
18 111
18 114
18 116
18 117
18 123
18 126
18 130
18 131
18 135
18 140
18 141
18 148
19 27
19 32
19 34
19 35
19 42
19 44
19 50
19 52
19 61
19 62
19 64
19 65
19 68
19 80
19 84
19 85
19 87
19 94
19 97
19 99
19 100
19 104
19 106
19 108
19 109
19 113
19 115
19 118
19 119
19 120
19 125
19 130
19 131
19 134
19 135
19 136
19 137
19 141
19 143
19 144
19 146
20 24
20 29
20 36
20 42
20 46
20 47
20 48
20 50
20 51
20 52
20 58
20 61
20 63
20 73
20 78
20 79
20 80
20 81
20 83
20 85
20 92
20 97
20 99
20 101
20 102
20 111
20 112
20 120
20 129
20 136
20 138
20 147
21 22
21 23
21 29
21 32
21 45
21 46
21 54
21 56
21 58
21 65
21 71
21 74
21 82
21 83
21 90
21 95
21 96
21 100
21 110
21 113
21 116
21 118
21 122
21 126
21 127
21 128
21 131
22 25
22 34
22 37
22 50
22 52
22 54
22 58
22 62
22 69
22 71
22 77
22 89
22 91
22 98
22 99
22 107
22 108
22 117
22 125
22 130
22 131
22 138
22 143
22 147
23 24
23 44
23 45
23 46
23 47
23 51
23 56
23 70
23 72
23 75
23 84
23 92
23 93
23 94
23 95
23 99
23 100
23 101
23 113
23 117
23 119
23 125
23 126
23 130
23 132
23 137
23 138
23 141
23 144
23 148
24 25
24 27
24 29
24 32
24 34
24 51
24 54
24 55
24 60
24 65
24 70
24 71
24 72
24 75
24 79
24 83
24 86
24 87
24 92
24 95
24 100
24 104
24 110
24 115
24 116
24 123
24 124
24 127
24 133
24 146
24 147
24 148
25 34
25 36
25 39
25 45
25 46
25 52
25 55
25 57
25 62
25 63
25 67
25 70
25 76
25 89
25 95
25 97
25 101
25 102
25 104
25 105
25 110
25 125
25 126
25 130
25 131
25 133
25 140
25 141
25 144
25 145
25 146
25 147
25 148
26 27
26 31
26 33
26 42
26 43
26 44
26 49
26 51
26 63
26 65
26 66
26 67
26 71
26 73
26 84
26 95
26 96
26 110
26 111
26 112
26 113
26 116
26 117
26 118
26 119
26 123
26 125
26 129
26 130
26 132
26 134
26 140
26 142
26 148
27 43
27 45
27 48
27 53
27 54
27 57
27 63
27 64
27 65
27 66
27 71
27 72
27 91
27 92
27 98
27 100
27 102
27 104
27 106
27 115
27 117
27 119
27 137
27 142
27 143
27 145
27 147
28 29
28 32
28 36
28 39
28 44
28 53
28 58
28 59
28 60
28 76
28 93
28 99
28 100
28 102
28 108
28 111
28 113
28 117
28 118
28 120
28 126
28 130
28 131
28 134
28 135
28 141
28 146
29 31
29 32
29 41
29 42
29 43
29 47
29 48
29 57
29 58
29 70
29 72
29 79
29 86
29 92
29 96
29 97
29 107
29 112
29 122
29 131
29 132
29 133
29 134
29 135
29 144
29 148
30 37
30 44
30 47
30 49
30 50
30 52
30 60
30 63
30 65
30 68
30 71
30 72
30 76
30 77
30 82
30 83
30 87
30 92
30 96
30 100
30 103
30 127
30 130
30 132
30 133
30 136
30 137
30 138
30 149
31 35
31 36
31 38
31 41
31 43
31 44
31 48
31 55
31 56
31 61
31 64
31 65
31 66
31 71
31 74
31 75
31 80
31 88
31 89
31 92
31 94
31 95
31 100
31 109
31 116
31 119
31 120
31 124
31 137
31 142
32 34
32 37
32 40
32 47
32 49
32 53
32 64
32 67
32 68
32 71
32 73
32 79
32 82
32 86
32 88
32 90
32 97
32 101
32 104
32 110
32 111
32 127
32 130
32 137
32 139
32 141
32 145
32 149
33 51
33 53
33 62
33 68
33 75
33 79
33 82
33 83
33 89
33 91
33 96
33 99
33 102
33 112
33 120
33 126
33 131
33 134
33 139
33 140
34 36
34 40
34 45
34 47
34 50
34 51
34 53
34 55
34 60
34 62
34 68
34 80
34 84
34 89
34 90
34 95
34 98
34 99
34 105
34 111
34 113
34 117
34 118
34 121
34 131
34 141
34 145
34 147
34 149
35 37
35 38
35 44
35 48
35 50
35 51
35 54
35 65
35 76
35 79
35 80
35 85
35 94
35 96
35 97
35 98
35 99
35 101
35 102
35 108
35 117
35 122
35 125
35 131
35 132
35 141
35 142
35 147
35 148
36 37
36 38
36 41
36 53
36 55
36 60
36 67
36 68
36 70
36 74
36 100
36 111
36 117
36 122
36 126
36 137
36 148
37 41
37 42
37 45
37 46
37 48
37 51
37 54
37 55
37 58
37 78
37 80
37 84
37 86
37 92
37 94
37 97
37 101
37 105
37 116
37 117
37 126
37 130
37 137
37 140
37 148
38 39
38 45
38 51
38 55
38 63
38 65
38 68
38 72
38 78
38 79
38 80
38 82
38 85
38 93
38 94
38 99
38 105
38 114
38 118
38 122
38 123
38 124
38 126
38 134
38 139
38 141
38 146
39 44
39 45
39 48
39 49
39 51
39 65
39 74
39 75
39 88
39 92
39 95
39 97
39 100
39 104
39 105
39 110
39 112
39 113
39 119
39 121
39 127
39 134
39 139
39 141
39 146
39 148
40 45
40 48
40 56
40 74
40 81
40 86
40 89
40 93
40 111
40 120
40 122
40 130
40 131
40 134
40 140
40 147
40 148
41 50
41 53
41 56
41 60
41 66
41 68
41 76
41 79
41 81
41 82
41 84
41 93
41 101
41 106
41 114
41 116
41 117
41 123
41 134
41 137
41 144
41 145
41 148
42 46
42 51
42 52
42 56
42 59
42 60
42 64
42 66
42 67
42 69
42 74
42 83
42 86
42 87
42 91
42 93
42 98
42 107
42 108
42 110
42 112
42 114
42 124
42 132
42 133
42 134
42 139
42 148
43 48
43 52
43 59
43 60
43 64
43 65
43 70
43 71
43 75
43 79
43 81
43 83
43 85
43 92
43 97
43 98
43 99
43 101
43 102
43 109
43 113
43 114
43 127
43 128
43 129
43 131
43 133
43 139
43 143
43 146
43 149
44 46
44 50
44 55
44 59
44 64
44 67
44 69
44 75
44 78
44 81
44 85
44 88
44 91
44 94
44 95
44 96
44 98
44 99
44 103
44 110
44 117
44 128
44 129
44 136
44 137
44 141
44 144
44 145
44 147
44 148
45 53
45 62
45 66
45 69
45 70
45 73
45 78
45 86
45 92
45 93
45 95
45 108
45 109
45 112
45 116
45 120
45 121
45 123
45 125
45 127
45 132
45 135
45 141
45 144
45 146
45 148
46 47
46 54
46 59
46 68
46 72
46 75
46 78
46 80
46 83
46 94
46 98
46 100
46 103
46 104
46 105
46 110
46 117
46 118
46 119
46 124
46 125
46 128
46 130
46 131
46 133
46 134
46 135
46 137
46 140
46 142
46 146
47 51
47 61
47 62
47 68
47 70
47 71
47 72
47 76
47 79
47 81
47 85
47 86
47 88
47 91
47 97
47 99
47 101
47 102
47 105
47 108
47 136
47 138
47 141
47 143
47 147
48 51
48 53
48 67
48 72
48 74
48 76
48 93
48 94
48 97
48 106
48 113
48 114
48 118
48 119
48 120
48 127
48 130
48 131
48 132
48 135
48 144
48 146
48 147
48 148
49 51
49 52
49 53
49 57
49 58
49 59
49 60
49 64
49 68
49 69
49 79
49 86
49 88
49 89
49 93
49 94
49 97
49 101
49 109
49 111
49 113
49 114
49 115
49 118
49 120
49 123
49 126
49 128
49 135
49 138
49 146
50 51
50 54
50 63
50 67
50 68
50 69
50 85
50 87
50 94
50 100
50 107
50 114
50 120
50 124
50 133
50 135
50 138
50 140
51 64
51 65
51 76
51 79
51 85
51 88
51 95
51 99
51 101
51 108
51 110
51 112
51 113
51 116
51 126
51 127
51 128
51 129
51 135
51 136
51 139
51 141
51 142
51 144
51 145
51 146
52 54
52 57
52 64
52 65
52 67
52 68
52 74
52 78
52 82
52 87
52 88
52 95
52 96
52 98
52 100
52 105
52 111
52 122
52 124
52 129
52 146
53 56
53 61
53 68
53 71
53 83
53 87
53 92
53 98
53 106
53 120
53 121
53 123
53 134
53 142
54 58
54 60
54 64
54 85
54 86
54 88
54 91
54 92
54 96
54 97
54 100
54 105
54 109
54 124
54 129
54 131
54 147
54 148
55 58
55 60
55 63
55 64
55 65
55 66
55 68
55 71
55 84
55 86
55 100
55 102
55 103
55 112
55 114
55 115
55 118
55 124
55 128
55 135
55 143
55 145
55 149
56 61
56 62
56 64
56 89
56 90
56 94
56 103
56 104
56 106
56 107
56 110
56 111
56 112
56 115
56 119
56 123
56 124
56 128
56 134
56 135
56 136
56 139
57 67
57 70
57 72
57 74
57 84
57 86
57 88
57 99
57 100
57 107
57 109
57 113
57 118
57 119
57 128
57 131
57 135
57 136
57 137
57 138
57 143
58 60
58 63
58 64
58 67
58 69
58 70
58 76
58 77
58 81
58 85
58 96
58 97
58 101
58 102
58 103
58 114
58 120
58 121
58 124
58 125
58 126
58 127
58 130
58 132
58 136
58 137
58 138
58 140
58 146
58 147
59 61
59 68
59 74
59 79
59 81
59 86
59 87
59 91
59 96
59 100
59 104
59 107
59 128
59 130
59 133
59 139
59 140
59 142
59 143
59 148
60 62
60 63
60 64
60 68
60 72
60 77
60 91
60 92
60 93
60 95
60 97
60 100
60 101
60 103
60 108
60 111
60 117
60 123
60 124
60 127
60 128
60 140
60 148
60 149
61 62
61 72
61 73
61 78
61 79
61 80
61 84
61 88
61 94
61 97
61 99
61 103
61 106
61 107
61 110
61 114
61 116
61 120
61 123
61 130
61 132
61 137
61 140
61 144
61 148
62 63
62 65
62 68
62 72
62 75
62 83
62 91
62 97
62 112
62 114
62 116
62 118
62 122
62 124
62 126
62 127
62 135
62 137
62 143
62 146
63 69
63 70
63 78
63 80
63 83
63 84
63 89
63 92
63 95
63 100
63 101
63 102
63 103
63 111
63 114
63 115
63 118
63 119
63 120
63 124
63 125
63 133
63 136
63 138
63 147
63 149
64 67
64 69
64 78
64 81
64 82
64 83
64 86
64 88
64 91
64 93
64 97
64 108
64 109
64 111
64 112
64 117
64 118
64 125
64 128
64 129
64 130
64 141
64 142
64 143
64 145
65 73
65 77
65 78
65 79
65 80
65 83
65 89
65 90
65 93
65 100
65 108
65 111
65 115
65 117
65 120
65 121
65 126
65 130
65 132
65 134
65 138
65 142
65 145
65 146
66 68
66 70
66 72
66 78
66 81
66 85
66 87
66 91
66 98
66 105
66 107
66 108
66 109
66 113
66 114
66 118
66 123
66 125
66 127
66 141
66 148
67 68
67 69
67 70
67 71
67 84
67 90
67 97
67 106
67 120
67 131
67 132
67 133
67 148
68 71
68 72
68 74
68 78
68 83
68 86
68 89
68 92
68 93
68 97
68 100
68 101
68 115
68 119
68 122
68 126
68 127
68 129
68 137
68 138
68 145
68 146
69 77
69 80
69 84
69 89
69 95
69 102
69 105
69 108
69 112
69 114
69 116
69 117
69 121
69 131
69 134
69 138
69 141
69 145
70 72
70 83
70 84
70 89
70 93
70 105
70 108
70 110
70 116
70 124
70 125
70 126
70 131
70 134
70 135
70 136
70 137
70 139
70 142
71 72
71 74
71 75
71 79
71 83
71 86
71 89
71 93
71 95
71 111
71 115
71 116
71 119
71 127
71 130
71 139
71 140
71 141
71 144
71 147
71 149
72 73
72 74
72 77
72 82
72 89
72 91
72 92
72 97
72 108
72 110
72 119
72 130
72 132
72 133
72 136
72 147
73 76
73 78
73 91
73 93
73 103
73 111
73 112
73 115
73 127
73 132
73 133
73 135
73 136
73 137
73 143
74 80
74 83
74 86
74 91
74 105
74 110
74 112
74 113
74 117
74 123
74 125
74 135
74 138
74 143
74 146
75 78
75 81
75 85
75 97
75 101
75 106
75 107
75 111
75 112
75 119
75 127
75 128
75 130
75 131
75 133
75 135
75 136
75 141
75 143
75 147
75 149
76 83
76 90
76 93
76 96
76 102
76 104
76 108
76 111
76 114
76 118
76 122
76 126
76 131
76 142
76 143
76 145
76 148
77 79
77 80
77 81
77 85
77 93
77 100
77 111
77 117
77 122
77 123
77 133
77 137
77 142
77 144
78 79
78 84
78 85
78 89
78 91
78 102
78 110
78 111
78 112
78 114
78 120
78 121
78 124
78 125
78 127
78 132
78 134
78 136
78 141
78 142
78 143
78 147
79 98
79 104
79 105
79 107
79 108
79 112
79 113
79 116
79 118
79 121
79 126
79 127
79 138
79 143
79 144
79 145
79 146
79 147
80 81
80 82
80 83
80 84
80 85
80 87
80 89
80 92
80 94
80 97
80 103
80 107
80 110
80 115
80 130
80 132
80 133
80 137
80 138
80 139
80 141
80 142
80 147
80 148
81 84
81 86
81 97
81 98
81 100
81 102
81 111
81 113
81 116
81 117
81 127
81 129
81 133
81 137
81 139
81 147
81 148
81 149
82 89
82 90
82 91
82 94
82 96
82 100
82 104
82 105
82 107
82 108
82 109
82 111
82 115
82 116
82 117
82 122
82 126
82 137
82 147
82 149
83 93
83 94
83 98
83 108
83 113
83 119
83 122
83 125
83 130
83 131
83 132
83 133
83 136
83 146
83 148
84 86
84 88
84 89
84 92
84 97
84 99
84 105
84 106
84 114
84 123
84 124
84 125
84 128
84 131
84 133
84 138
84 140
84 141
84 144
84 146
84 147
85 94
85 102
85 105
85 107
85 108
85 109
85 111
85 115
85 116
85 117
85 118
85 125
85 129
85 132
85 142
85 143
85 144
85 148
85 149
86 88
86 90
86 93
86 100
86 112
86 113
86 118
86 119
86 122
86 129
86 131
86 137
86 139
86 146
86 147
86 148
87 92
87 97
87 101
87 111
87 113
87 114
87 116
87 121
87 124
87 126
87 127
87 135
87 139
87 148
87 149
88 89
88 95
88 98
88 101
88 107
88 113
88 115
88 118
88 124
88 125
88 128
88 131
88 134
88 136
88 141
89 90
89 91
89 93
89 97
89 101
89 107
89 109
89 110
89 121
89 122
89 132
90 91
90 92
90 94
90 96
90 99
90 104
90 108
90 113
90 114
90 115
90 117
90 128
90 130
90 135
90 144
90 148
91 93
91 96
91 102
91 103
91 106
91 119
91 124
91 130
91 141
91 142
92 93
92 96
92 97
92 103
92 104
92 111
92 112
92 113
92 115
92 117
92 123
92 127
92 128
92 132
92 133
92 145
92 147
92 149
93 94
93 97
93 99
93 100
93 110
93 112
93 119
93 120
93 126
93 133
93 135
93 136
93 137
93 143
93 146
93 147
93 149
94 98
94 99
94 102
94 110
94 116
94 117
94 120
94 122
94 125
94 131
94 141
95 96
95 108
95 109
95 112
95 114
95 115
95 120
95 126
95 133
95 135
95 149
96 102
96 106
96 116
96 122
96 125
96 132
96 137
97 98
97 101
97 107
97 109
97 115
97 116
97 117
97 121
97 122
97 126
97 130
97 135
97 138
97 142
97 146
98 107
98 108
98 109
98 111
98 115
98 117
98 139
98 143
98 148
99 100
99 108
99 109
99 114
99 117
99 118
99 123
99 127
99 130
99 143
99 145
99 146
100 106
100 110
100 114
100 118
100 123
100 128
100 132
100 142
100 145
100 146
101 105
101 106
101 107
101 109
101 111
101 114
101 115
101 116
101 119
101 123
101 135
101 140
101 142
101 143
101 145
101 146
102 104
102 109
102 113
102 121
102 125
102 127
102 128
102 130
102 134
102 140
102 142
102 145
103 108
103 110
103 111
103 115
103 116
103 117
103 118
103 121
103 129
103 132
103 134
103 148
104 106
104 107
104 113
104 114
104 120
104 122
104 132
104 133
104 135
104 136
104 137
104 141
104 144
105 113
105 117
105 118
105 119
105 123
105 124
105 127
105 128
105 129
105 137
105 141
105 144
105 145
106 111
106 114
106 117
106 126
106 128
106 129
106 130
106 135
106 142
107 114
107 116
107 119
107 121
107 122
107 128
107 132
107 133
107 136
107 139
108 110
108 111
108 112
108 113
108 120
108 122
108 131
108 133
108 135
108 141
109 110
109 112
109 114
109 115
109 116
109 123
109 125
109 129
109 131
109 138
109 141
109 142
109 143
109 145
109 149
110 116
110 119
110 122
110 127
110 133
110 138
110 139
110 140
110 143
110 146
111 113
111 114
111 117
111 121
111 122
111 130
111 131
111 135
111 138
111 140
111 141
111 145
111 146
111 149
112 113
112 117
112 121
112 122
112 126
112 128
112 130
112 131
112 136
112 137
112 143
112 146
113 119
113 122
113 129
113 132
113 134
113 139
113 143
113 144
113 148
113 149
114 117
114 121
114 129
114 131
114 137
114 139
114 145
114 146
114 147
114 149
115 116
115 118
115 119
115 124
115 126
115 129
115 130
115 134
115 137
115 138
115 139
115 140
115 142
116 119
116 123
116 125
116 127
116 135
116 138
117 119
117 120
117 122
117 129
117 130
117 135
117 137
117 139
117 142
117 145
117 146
118 121
118 129
118 130
118 132
118 135
119 121
119 122
119 123
119 126
119 127
119 129
119 131
119 142
120 138
120 141
120 145
120 146
120 148
121 124
121 126
121 127
121 130
121 131
121 133
121 136
121 137
121 141
121 143
121 146
121 149
122 124
122 128
122 136
122 139
122 140
122 144
122 147
122 148
123 125
123 128
123 129
123 132
123 133
123 135
123 140
123 142
123 145
124 128
124 131
124 132
124 133
124 135
124 138
124 142
124 145
124 148
125 129
125 135
125 139
125 148
126 128
126 129
126 130
126 134
126 137
126 139
126 144
127 130
127 132
127 133
127 137
127 138
127 139
127 144
127 146
128 133
128 136
128 137
128 144
128 147
129 132
129 136
129 138
129 143
129 145
129 147
130 131
130 141
130 144
131 136
131 139
131 141
131 143
131 145
131 146
131 148
131 149
132 135
132 144
132 148
133 140
133 142
133 145
133 147
134 136
134 138
134 140
134 149
135 136
135 140
135 144
135 145
136 140
136 145
136 146
137 146
138 140
138 142
138 148
139 144
139 146
140 141
140 146
140 148
140 149
141 147
141 149
142 144
142 145
143 145
143 146
143 148
144 147
147 149
148 149
