150:2834
0 2
0 6
0 11
0 12
0 14
0 16
0 17
0 21
0 25
0 30
0 35
0 41
0 42
0 43
0 49
0 54
0 56
0 60
0 61
0 62
0 63
0 68
0 70
0 72
0 76
0 78
0 83
0 85
0 87
0 92
0 97
0 101
0 102
0 103
0 104
0 107
0 108
0 111
0 112
0 115
0 123
0 124
0 128
0 129
0 131
0 134
0 136
0 138
0 146
1 5
1 6
1 7
1 8
1 10
1 12
1 19
1 20
1 27
1 28
1 31
1 32
1 33
1 36
1 41
1 49
1 60
1 62
1 74
1 76
1 77
1 81
1 82
1 83
1 84
1 85
1 89
1 97
1 102
1 103
1 104
1 107
1 113
1 115
1 117
1 124
1 126
1 132
1 134
1 137
1 143
1 146
1 148
2 3
2 5
2 11
2 15
2 18
2 25
2 26
2 33
2 38
2 46
2 52
2 54
2 62
2 75
2 79
2 80
2 81
2 89
2 91
2 93
2 98
2 108
2 110
2 124
2 129
2 133
2 134
2 137
3 10
3 13
3 15
3 19
3 21
3 23
3 24
3 27
3 29
3 30
3 31
3 37
3 39
3 41
3 46
3 49
3 51
3 52
3 54
3 55
3 58
3 66
3 67
3 72
3 74
3 75
3 76
3 79
3 83
3 85
3 87
3 90
3 91
3 93
3 101
3 105
3 111
3 118
3 119
3 125
3 134
3 135
3 136
3 139
3 144
3 148
4 8
4 10
4 11
4 26
4 32
4 33
4 43
4 46
4 47
4 49
4 55
4 56
4 57
4 58
4 59
4 62
4 66
4 71
4 73
4 74
4 82
4 85
4 87
4 89
4 90
4 92
4 93
4 99
4 101
4 103
4 107
4 120
4 124
4 125
4 128
4 129
4 132
4 134
4 135
4 137
4 139
5 16
5 17
5 18
5 21
5 28
5 31
5 32
5 44
5 46
5 48
5 57
5 59
5 61
5 62
5 68
5 69
5 71
5 73
5 78
5 84
5 86
5 92
5 94
5 99
5 100
5 105
5 116
5 119
5 120
5 122
5 141
5 144
5 145
5 147
5 149
6 11
6 24
6 27
6 33
6 37
6 38
6 42
6 46
6 47
6 61
6 66
6 73
6 77
6 78
6 83
6 85
6 103
6 107
6 109
6 111
6 112
6 115
6 118
6 121
6 129
6 148
7 10
7 13
7 20
7 24
7 25
7 28
7 30
7 31
7 32
7 38
7 44
7 55
7 59
7 62
7 65
7 66
7 68
7 70
7 71
7 72
7 87
7 92
7 94
7 97
7 102
7 104
7 110
7 113
7 118
7 119
7 125
7 127
7 135
7 139
7 144
7 145
8 12
8 13
8 20
8 25
8 32
8 35
8 55
8 56
8 57
8 59
8 63
8 71
8 72
8 74
8 77
8 79
8 82
8 83
8 85
8 89
8 94
8 102
8 109
8 112
8 113
8 124
8 128
8 131
8 132
8 134
8 136
8 142
8 143
9 12
9 15
9 16
9 17
9 21
9 24
9 31
9 35
9 38
9 39
9 41
9 45
9 51
9 54
9 62
9 66
9 69
9 72
9 76
9 77
9 83
9 84
9 85
9 86
9 89
9 90
9 95
9 97
9 101
9 102
9 104
9 106
9 107
9 109
9 113
9 117
9 118
9 123
9 124
9 136
9 148
10 11
10 15
10 18
10 20
10 23
10 26
10 41
10 45
10 49
10 56
10 57
10 74
10 75
10 82
10 84
10 88
10 91
10 93
10 100
10 103
10 114
10 118
10 119
11 14
11 18
11 21
11 28
11 30
11 34
11 36
11 38
11 41
11 42
11 44
11 52
11 59
11 63
11 64
11 70
11 71
11 78
11 84
11 85
11 90
11 92
11 93
11 100
11 106
11 108
11 123
11 124
11 126
11 127
11 132
11 145
11 146
12 13
12 23
12 24
12 30
12 31
12 39
12 43
12 46
12 48
12 51
12 52
12 55
12 62
12 65
12 68
12 70
12 75
12 79
12 83
12 84
12 88
12 89
12 91
12 99
12 100
12 103
12 104
12 107
12 113
12 114
12 121
12 125
12 128
12 129
12 136
12 139
12 144
13 15
13 17
13 19
13 23
13 24
13 25
13 27
13 28
13 30
13 37
13 38
13 41
13 43
13 50
13 63
13 66
13 69
13 71
13 81
13 85
13 87
13 95
13 99
13 100
13 103
13 107
13 114
13 116
13 120
13 122
13 123
13 124
13 126
13 130
13 132
13 140
13 147
14 24
14 29
14 30
14 34
14 37
14 45
14 46
14 49
14 54
14 56
14 58
14 60
14 63
14 67
14 69
14 70
14 73
14 78
14 80
14 82
14 84
14 89
14 91
14 97
14 100
14 111
14 113
14 117
14 118
14 122
14 127
14 134
14 135
15 17
15 18
15 19
15 20
15 22
15 25
15 35
15 39
15 41
15 42
15 44
15 51
15 53
15 54
15 55
15 58
15 59
15 64
15 65
15 69
15 71
15 73
15 74
15 76
15 86
15 87
15 93
15 96
15 97
15 106
15 111
15 115
15 118
15 121
15 123
15 127
15 131
15 132
15 136
15 138
15 142
15 143
15 148
16 20
16 27
16 28
16 30
16 36
16 45
16 51
16 58
16 60
16 62
16 66
16 67
16 72
16 90
16 95
16 96
16 98
16 104
16 122
16 123
16 128
16 130
16 139
16 140
16 141
16 143
16 148
17 19
17 23
17 27
17 30
17 34
17 36
17 41
17 48
17 57
17 62
17 65
17 67
17 69
17 70
17 72
17 73
17 83
17 86
17 93
17 94
17 97
17 99
17 106
17 113
17 118
17 119
17 127
17 128
17 130
17 133
17 142
17 149
18 20
18 25
18 28
18 46
18 49
18 56
18 63
18 66
18 71
18 74
18 77
18 79
18 80
18 81
18 82
18 87
18 93
18 94
18 95
18 102
18 104
18 106
18 107
18 108
18 109
18 111
18 112
18 114
18 126
18 128
18 132
18 135
18 136
18 137
18 139
18 142
18 149
19 22
19 24
19 26
19 27
19 28
19 30
19 31
19 36
19 42
19 48
19 60
19 66
19 73
19 74
19 78
19 81
19 82
19 83
19 86
19 89
19 90
19 91
19 98
19 101
19 102
19 104
19 105
19 113
19 130
19 134
19 138
19 139
19 144
19 147
19 149
20 21
20 27
20 29
20 30
20 31
20 32
20 33
20 39
20 45
20 52
20 55
20 57
20 58
20 62
20 63
20 65
20 67
20 68
20 76
20 80
20 84
20 85
20 93
20 98
20 101
20 103
20 105
20 110
20 115
20 117
20 125
20 126
20 127
20 133
20 134
20 135
20 136
20 137
20 141
20 143
20 145
20 148
21 24
21 26
21 28
21 32
21 35
21 37
21 39
21 51
21 55
21 60
21 72
21 73
21 76
21 78
21 85
21 88
21 90
21 92
21 94
21 96
21 98
21 101
21 102
21 105
21 106
21 113
21 116
21 117
21 118
21 121
21 125
21 131
21 134
21 138
21 141
21 143
21 146
22 25
22 27
22 29
22 34
22 35
22 37
22 39
22 40
22 47
22 48
22 49
22 55
22 58
22 63
22 64
22 79
22 81
22 82
22 88
22 90
22 92
22 98
22 102
22 105
22 111
22 112
22 115
22 117
22 119
22 120
22 125
22 126
22 130
22 131
22 132
22 133
22 139
22 142
22 147
23 24
23 35
23 36
23 37
23 42
23 43
23 52
23 54
23 56
23 58
23 64
23 65
23 69
23 71
23 76
23 78
23 86
23 89
23 90
23 92
23 95
23 96
23 97
23 100
23 103
23 104
23 118
23 121
23 122
23 124
23 127
23 130
23 131
23 135
23 136
23 141
23 148
24 32
24 34
24 35
24 40
24 42
24 45
24 63
24 65
24 67
24 69
24 73
24 84
24 86
24 89
24 101
24 104
24 105
24 108
24 110
24 111
24 114
24 122
24 128
24 135
24 137
24 141
24 142
25 29
25 30
25 32
25 36
25 47
25 52
25 54
25 55
25 58
25 59
25 68
25 71
25 72
25 73
25 76
25 79
25 85
25 88
25 91
25 100
25 109
25 115
25 116
25 118
25 121
25 126
25 127
25 128
25 131
25 133
25 136
25 149
26 31
26 43
26 46
26 53
26 54
26 55
26 61
26 64
26 66
26 67
26 68
26 73
26 75
26 80
26 81
26 85
26 86
26 88
26 93
26 96
26 97
26 98
26 104
26 106
26 107
26 115
26 118
26 119
26 123
26 124
26 129
26 130
26 146
27 28
27 35
27 36
27 37
27 40
27 41
27 42
27 44
27 52
27 53
27 55
27 56
27 57
27 59
27 62
27 63
27 68
27 69
27 72
27 78
27 80
27 85
27 87
27 91
27 101
27 104
27 105
27 106
27 125
27 129
27 132
27 133
27 138
27 139
27 141
27 144
27 148
28 31
28 34
28 35
28 36
28 37
28 44
28 45
28 48
28 50
28 51
28 52
28 57
28 61
28 62
28 64
28 66
28 67
28 69
28 72
28 74
28 75
28 76
28 77
28 79
28 80
28 91
28 94
28 96
28 98
28 100
28 104
28 105
28 108
28 112
28 121
28 122
28 123
28 131
28 145
28 146
28 149
29 30
29 35
29 38
29 39
29 40
29 44
29 46
29 47
29 55
29 59
29 63
29 70
29 81
29 83
29 87
29 92
29 93
29 101
29 103
29 106
29 109
29 111
29 113
29 114
29 117
29 120
29 123
29 124
29 126
29 139
29 140
29 142
29 146
30 45
30 54
30 59
30 62
30 78
30 79
30 81
30 82
30 87
30 88
30 89
30 91
30 96
30 99
30 109
30 110
30 114
30 115
30 116
30 119
30 124
30 128
30 129
30 133
30 134
30 135
30 139
30 145
30 148
31 40
31 41
31 49
31 56
31 59
31 60
31 62
31 64
31 68
31 72
31 73
31 79
31 83
31 90
31 93
31 94
31 95
31 97
31 103
31 108
31 109
31 112
31 113
31 120
31 130
31 140
31 144
31 145
31 146
31 147
32 37
32 47
32 60
32 61
32 62
32 63
32 64
32 66
32 76
32 80
32 81
32 84
32 88
32 98
32 101
32 106
32 110
32 115
32 122
32 125
32 127
32 129
32 130
32 138
32 142
32 144
32 148
33 39
33 49
33 54
33 66
33 67
33 68
33 71
33 72
33 73
33 74
33 75
33 78
33 86
33 93
33 96
33 105
33 115
33 116
33 127
33 131
33 139
33 143
34 39
34 42
34 52
34 58
34 61
34 62
34 70
34 77
34 79
34 81
34 89
34 90
34 94
34 95
34 100
34 103
34 109
34 111
34 123
34 128
34 129
34 134
34 137
34 140
34 148
35 36
35 52
35 53
35 58
35 61
35 66
35 68
35 74
35 75
35 78
35 81
35 87
35 92
35 94
35 97
35 98
35 99
35 109
35 117
35 123
35 126
35 131
35 134
35 137
35 139
35 141
35 147
36 41
36 45
36 50
36 54
36 59
36 62
36 64
36 65
36 68
36 69
36 71
36 77
36 79
36 82
36 83
36 84
36 85
36 86
36 87
36 93
36 94
36 96
36 103
36 109
36 116
36 122
36 124
36 126
36 127
36 131
36 138
36 140
36 141
36 142
36 147
36 148
37 38
37 39
37 43
37 47
37 48
37 49
37 50
37 53
37 59
37 63
37 66
37 68
37 71
37 73
37 75
37 76
37 77
37 85
37 86
37 90
37 98
37 103
37 104
37 107
37 109
37 115
37 120
37 127
37 134
37 135
37 136
37 138
37 139
37 140
37 141
37 143
37 148
37 149
38 40
38 46
38 56
38 62
38 65
38 75
38 78
38 94
38 100
38 101
38 112
38 113
38 117
38 123
38 124
38 125
38 128
38 131
38 137
38 139
39 51
39 53
39 57
39 60
39 61
39 64
39 65
39 66
39 68
39 69
39 77
39 100
39 102
39 112
39 118
39 122
39 124
39 125
39 130
39 138
39 140
39 141
39 148
40 45
40 55
40 58
40 62
40 63
40 65
40 66
40 67
40 68
40 73
40 76
40 81
40 84
40 87
40 89
40 90
40 100
40 102
40 104
40 106
40 107
40 111
40 113
40 114
40 115
40 116
40 119
40 120
40 122
40 125
40 126
40 131
40 133
40 141
40 144
40 145
40 149
41 42
41 47
41 50
41 54
41 57
41 59
41 71
41 75
41 76
41 83
41 85
41 87
41 92
41 104
41 105
41 113
41 117
41 119
41 123
41 125
41 127
41 130
41 132
42 44
42 55
42 63
42 70
42 72
42 73
42 74
42 92
42 93
42 104
42 105
42 106
42 107
42 113
42 115
42 118
42 124
42 126
42 127
42 133
42 137
42 141
42 142
42 146
42 149
43 54
43 56
43 58
43 62
43 68
43 75
43 77
43 82
43 85
43 87
43 90
43 92
43 94
43 95
43 96
43 99
43 106
43 110
43 114
43 115
43 116
43 118
43 120
43 121
43 122
43 125
43 128
43 134
43 136
43 139
43 142
43 143
43 147
44 49
44 50
44 60
44 73
44 77
44 88
44 89
44 93
44 95
44 108
44 111
44 115
44 118
44 120
44 121
44 125
44 135
44 136
44 137
44 142
44 143
44 146
44 148
45 53
45 67
45 69
45 74
45 77
45 79
45 83
45 84
45 88
45 89
45 96
45 97
45 99
45 100
45 105
45 106
45 110
45 120
45 128
45 136
45 137
45 138
45 146
46 49
46 50
46 56
46 60
46 70
46 72
46 79
46 80
46 81
46 82
46 83
46 88
46 94
46 97
46 102
46 105
46 106
46 107
46 110
46 114
46 119
46 130
46 136
46 138
46 139
46 143
46 147
47 51
47 55
47 56
47 59
47 67
47 69
47 73
47 75
47 78
47 80
47 82
47 84
47 85
47 90
47 93
47 103
47 110
47 112
47 113
47 117
47 121
47 126
47 132
47 134
47 137
47 138
47 144
48 56
48 58
48 63
48 65
48 67
48 68
48 86
48 87
48 88
48 92
48 98
48 99
48 100
48 106
48 107
48 115
48 125
48 131
48 134
48 145
49 52
49 54
49 55
49 56
49 59
49 60
49 61
49 62
49 67
49 71
49 72
49 75
49 79
49 86
49 88
49 94
49 102
49 103
49 105
49 111
49 115
49 117
49 118
49 122
49 126
49 131
49 132
49 137
49 140
50 57
50 62
50 63
50 64
50 65
50 66
50 68
50 69
50 77
50 78
50 83
50 93
50 95
50 105
50 109
50 113
50 126
50 129
50 133
50 134
50 137
50 139
51 53
51 55
51 59
51 66
51 70
51 79
51 83
51 87
51 88
51 94
51 97
51 100
51 104
51 107
51 112
51 113
51 126
51 129
51 130
51 131
51 132
51 134
51 135
51 136
51 139
52 53
52 61
52 67
52 69
52 74
52 79
52 90
52 97
52 105
52 106
52 110
52 111
52 119
52 134
52 145
52 147
53 59
53 60
53 63
53 70
53 76
53 77
53 84
53 90
53 94
53 95
53 96
53 101
53 111
53 114
53 116
53 128
53 130
53 133
53 138
53 146
54 57
54 61
54 62
54 66
54 68
54 73
54 81
54 82
54 87
54 92
54 95
54 96
54 112
54 115
54 116
54 122
54 131
54 134
54 137
54 138
54 145
54 148
55 59
55 65
55 69
55 81
55 83
55 93
55 94
55 97
55 102
55 103
55 107
55 111
55 113
55 114
55 118
55 119
55 120
55 123
55 125
55 128
55 137
55 139
55 145
55 148
56 57
56 61
56 68
56 71
56 72
56 74
56 87
56 88
56 98
56 101
56 111
56 116
56 117
56 122
56 127
56 128
56 140
56 143
56 146
56 148
57 60
57 66
57 67
57 71
57 74
57 75
57 80
57 81
57 91
57 96
57 97
57 100
57 111
57 121
57 132
57 136
57 142
57 147
57 148
57 149
58 59
58 62
58 66
58 74
58 76
58 77
58 79
58 80
58 84
58 88
58 102
58 105
58 106
58 116
58 119
58 120
58 121
58 122
58 123
58 126
58 129
58 132
59 66
59 77
59 78
59 80
59 86
59 87
59 98
59 105
59 107
59 108
59 110
59 114
59 115
59 117
59 120
59 128
59 132
59 133
59 138
59 142
59 145
60 61
60 71
60 73
60 78
60 80
60 92
60 96
60 98
60 100
60 104
60 105
60 107
60 119
60 122
60 132
60 141
60 143
60 148
61 62
61 63
61 65
61 70
61 74
61 91
61 92
61 93
61 102
61 110
61 116
61 120
61 121
61 125
62 71
62 76
62 78
62 79
62 84
62 85
62 89
62 95
62 100
62 106
62 108
62 109
62 122
62 128
62 131
62 139
62 140
63 65
63 70
63 72
63 75
63 81
63 84
63 85
63 88
63 91
63 95
63 96
63 97
63 100
63 103
63 108
63 112
63 114
63 120
63 125
63 126
63 129
63 130
63 134
63 137
63 140
63 148
64 67
64 69
64 75
64 77
64 83
64 84
64 88
64 92
64 101
64 103
64 105
64 116
64 118
64 126
64 127
64 135
64 138
64 139
64 143
64 146
65 71
65 72
65 74
65 77
65 78
65 79
65 80
65 85
65 88
65 92
65 94
65 95
65 97
65 101
65 104
65 105
65 111
65 114
65 116
65 119
65 122
65 139
65 140
65 142
65 145
65 146
65 147
66 67
66 80
66 86
66 90
66 96
66 100
66 109
66 119
66 122
66 134
66 136
66 140
66 141
66 142
66 143
66 147
66 148
67 70
67 72
67 73
67 75
67 79
67 80
67 84
67 86
67 89
67 102
67 108
67 109
67 124
67 132
67 137
67 146
67 149
68 72
68 80
68 81
68 89
68 91
68 94
68 98
68 107
68 112
68 117
68 119
68 133
68 141
68 147
69 74
69 75
69 80
69 83
69 91
69 95
69 103
69 105
69 111
69 115
69 116
69 117
69 124
69 127
69 128
69 130
69 131
69 138
69 146
70 73
70 84
70 90
70 91
70 93
70 94
70 100
70 103
70 107
70 108
70 113
70 115
70 116
70 123
70 128
70 131
70 134
70 137
70 138
71 73
71 74
71 76
71 84
71 91
71 101
71 105
71 112
71 127
71 130
71 134
71 137
71 142
71 146
71 149
72 86
72 87
72 88
72 90
72 92
72 95
72 96
72 97
72 103
72 105
72 109
72 114
72 120
72 122
72 128
72 132
72 135
72 139
72 146
73 76
73 82
73 83
73 90
73 92
73 93
73 94
73 95
73 102
73 106
73 107
73 108
73 113
73 117
73 118
73 122
73 124
73 128
73 129
73 130
73 133
73 140
73 142
73 147
73 148
73 149
74 75
74 83
74 85
74 89
74 94
74 98
74 99
74 100
74 105
74 107
74 109
74 111
74 113
74 119
74 126
74 132
74 135
74 136
74 139
74 141
74 143
74 144
74 147
74 149
75 78
75 88
75 96
75 97
75 98
75 99
75 101
75 108
75 113
75 117
75 127
75 128
75 130
75 135
75 140
75 146
76 77
76 78
76 87
76 90
76 91
76 93
76 103
76 109
76 111
76 113
76 116
76 118
76 120
76 125
76 126
76 127
76 131
76 139
76 140
76 141
76 146
77 81
77 85
77 96
77 97
77 107
77 121
77 123
77 127
77 131
77 134
77 135
77 139
77 141
77 143
78 79
78 87
78 91
78 97
78 100
78 104
78 112
78 117
78 118
78 120
78 121
78 126
78 128
78 130
78 136
78 143
78 144
78 145
78 146
79 84
79 85
79 87
79 93
79 98
79 101
79 104
79 109
79 115
79 116
79 119
79 125
79 129
79 134
79 136
79 137
79 141
79 142
79 145
79 147
79 148
80 90
80 93
80 94
80 100
80 103
80 104
80 106
80 107
80 108
80 114
80 118
80 127
80 129
80 130
80 132
80 136
80 142
80 145
80 146
81 86
81 87
81 95
81 96
81 102
81 104
81 106
81 110
81 112
81 116
81 118
81 121
81 128
81 129
81 130
81 134
81 136
81 138
81 147
82 85
82 93
82 95
82 99
82 102
82 103
82 106
82 109
82 112
82 120
82 128
82 129
82 131
82 132
82 137
82 139
82 140
82 141
82 146
83 84
83 85
83 90
83 92
83 104
83 110
83 117
83 120
83 130
83 133
83 135
83 136
83 137
83 141
84 91
84 96
84 101
84 108
84 110
84 113
84 116
84 120
84 121
84 130
84 131
84 137
84 148
85 86
85 87
85 92
85 96
85 102
85 103
85 108
85 109
85 110
85 114
85 122
85 125
85 127
85 129
85 132
85 135
85 137
85 141
85 144
85 145
85 148
86 93
86 95
86 99
86 108
86 117
86 122
86 125
86 129
86 130
86 135
86 148
87 93
87 101
87 102
87 105
87 108
87 111
87 119
87 122
87 124
87 126
87 137
87 143
87 144
87 146
87 149
88 89
88 90
88 93
88 96
88 103
88 105
88 107
88 108
88 110
88 113
88 114
88 118
88 119
88 120
88 122
88 125
88 127
88 130
88 141
88 142
89 92
89 95
89 98
89 104
89 110
89 115
89 117
89 118
89 119
89 120
89 121
89 122
89 124
89 126
89 128
89 132
89 133
89 135
89 136
89 141
89 146
89 148
90 91
90 97
90 101
90 103
90 104
90 105
90 106
90 112
90 123
90 126
90 129
90 130
90 133
90 144
90 147
91 95
91 97
91 101
91 103
91 104
91 105
91 108
91 111
91 114
91 115
91 118
91 121
91 122
91 123
91 133
91 141
91 146
91 147
92 93
92 94
92 96
92 105
92 108
92 111
92 112
92 116
92 123
92 124
92 129
92 130
92 138
92 139
93 95
93 100
93 101
93 102
93 103
93 104
93 105
93 106
93 107
93 109
93 121
93 122
93 124
93 134
93 144
94 96
94 97
94 102
94 103
94 104
94 108
94 111
94 112
94 114
94 123
94 129
94 136
94 141
94 148
95 99
95 102
95 104
95 107
95 108
95 109
95 111
95 114
95 116
95 125
95 132
95 133
95 142
96 99
96 101
96 103
96 104
96 110
96 112
96 121
96 123
96 135
96 137
96 141
96 142
96 146
97 98
97 105
97 106
97 111
97 112
97 114
97 115
97 118
97 119
97 120
97 123
97 128
97 130
97 133
97 136
97 137
97 146
97 147
98 99
98 100
98 101
98 102
98 104
98 108
98 110
98 111
98 114
98 117
98 118
98 123
98 124
98 128
98 132
98 133
98 138
98 139
98 143
98 144
98 146
98 147
99 103
99 105
99 106
99 112
99 113
99 115
99 121
99 124
99 127
99 130
99 132
99 142
99 143
100 103
100 115
100 120
100 121
100 122
100 123
100 134
100 135
100 140
100 149
101 103
101 108
101 110
101 112
101 118
101 125
101 127
101 128
101 135
101 136
101 137
101 141
101 142
101 143
101 145
101 148
101 149
102 104
102 110
102 111
102 116
102 118
102 119
102 133
102 134
102 137
102 143
102 145
102 146
102 149
103 105
103 107
103 117
103 134
103 135
103 138
103 142
103 143
104 112
104 121
104 122
104 127
104 128
104 139
104 142
104 145
105 106
105 108
105 111
105 112
105 118
105 125
105 132
105 135
105 136
105 137
105 138
105 140
105 142
106 110
106 117
106 120
106 122
106 123
106 124
106 125
106 130
106 145
106 146
107 118
107 119
107 121
107 129
107 130
107 139
107 140
108 109
108 134
108 139
108 147
109 119
109 127
109 130
109 132
109 138
109 141
109 142
109 143
109 146
109 149
110 115
110 119
110 121
110 123
110 126
110 127
110 130
110 141
110 143
111 116
111 118
111 121
111 122
111 124
111 132
111 139
111 148
112 116
112 122
112 126
112 128
112 135
112 138
112 144
112 149
113 118
113 122
113 124
113 126
113 129
113 131
113 133
113 134
114 115
114 119
114 122
114 142
114 143
115 117
115 120
115 125
115 127
115 128
115 130
115 134
115 136
115 138
116 143
116 147
117 121
117 145
118 121
118 126
118 128
118 133
118 139
118 141
118 145
118 146
118 148
119 121
119 123
119 132
119 143
119 145
119 146
120 124
120 125
120 137
120 141
120 144
120 145
120 146
120 148
121 124
121 126
121 127
121 139
121 141
121 142
121 144
121 145
122 129
122 132
122 140
122 142
122 144
122 146
122 147
122 149
123 129
123 130
123 131
123 133
123 135
123 138
123 141
123 143
123 144
123 148
124 127
124 129
124 131
124 134
124 136
124 137
124 145
124 146
124 147
125 130
125 134
125 135
125 140
125 146
126 128
126 133
126 135
126 137
126 138
126 143
127 128
127 129
127 131
127 132
127 136
127 138
127 140
127 141
127 144
128 129
128 130
128 131
128 134
128 139
128 146
129 130
129 131
129 138
129 142
129 146
129 149
130 131
130 132
130 134
130 135
130 145
130 148
130 149
131 138
131 144
132 134
132 137
132 144
132 145
132 146
132 147
132 149
133 143
133 144
133 146
134 137
134 138
134 139
134 148
135 143
135 146
135 148
136 141
136 148
136 149
137 143
137 147
138 141
138 146
138 148
139 141
139 144
139 146
140 145
140 147
141 142
142 145
142 146
142 147
142 148
143 146
143 147
144 146
144 147
144 149
145 147
145 149
146 147
147 148
