150:2747
0 26
0 36
0 41
0 44
0 47
0 49
0 53
0 57
0 71
0 72
0 76
0 98
0 103
0 105
0 106
0 110
0 111
0 113
0 118
0 125
0 126
0 128
0 129
0 130
0 133
0 135
0 137
0 140
0 142
0 143
0 145
1 2
1 5
1 12
1 22
1 25
1 27
1 39
1 40
1 42
1 52
1 55
1 67
1 70
1 76
1 78
1 81
1 82
1 87
1 90
1 95
1 101
1 102
1 108
1 117
1 119
1 120
1 126
1 127
1 134
1 135
1 136
1 138
1 142
2 12
2 13
2 15
2 16
2 30
2 36
2 38
2 39
2 41
2 42
2 43
2 46
2 49
2 59
2 61
2 66
2 67
2 74
2 75
2 77
2 78
2 79
2 80
2 83
2 84
2 97
2 108
2 109
2 112
2 118
2 120
2 123
2 124
2 130
2 135
2 137
2 138
2 141
3 6
3 10
3 19
3 25
3 26
3 33
3 34
3 41
3 47
3 50
3 53
3 57
3 58
3 60
3 62
3 65
3 67
3 68
3 71
3 72
3 74
3 77
3 78
3 81
3 89
3 91
3 93
3 98
3 102
3 103
3 104
3 105
3 106
3 110
3 113
3 117
3 122
3 135
3 138
3 142
3 143
3 146
4 6
4 11
4 15
4 17
4 22
4 28
4 33
4 35
4 50
4 54
4 63
4 66
4 68
4 71
4 73
4 78
4 79
4 85
4 88
4 91
4 98
4 105
4 106
4 109
4 111
4 112
4 113
4 114
4 116
4 134
4 136
4 137
4 138
4 140
4 148
5 10
5 11
5 13
5 15
5 16
5 24
5 26
5 29
5 33
5 34
5 35
5 40
5 44
5 45
5 47
5 55
5 61
5 62
5 64
5 66
5 73
5 75
5 81
5 83
5 86
5 89
5 94
5 95
5 99
5 105
5 113
5 118
5 119
5 133
5 134
5 147
5 148
6 7
6 8
6 9
6 11
6 12
6 16
6 19
6 30
6 34
6 35
6 39
6 43
6 44
6 46
6 49
6 50
6 55
6 60
6 62
6 63
6 65
6 66
6 85
6 87
6 93
6 98
6 111
6 121
6 122
6 123
6 124
6 132
6 136
6 137
6 139
6 140
7 12
7 17
7 27
7 28
7 36
7 41
7 49
7 58
7 59
7 60
7 68
7 71
7 74
7 77
7 80
7 81
7 82
7 84
7 97
7 98
7 99
7 103
7 105
7 112
7 115
7 122
7 125
7 128
7 131
7 134
7 136
7 145
8 12
8 14
8 16
8 18
8 20
8 23
8 28
8 29
8 37
8 39
8 42
8 44
8 47
8 52
8 53
8 59
8 64
8 68
8 70
8 72
8 73
8 76
8 83
8 84
8 86
8 87
8 88
8 92
8 94
8 96
8 100
8 103
8 105
8 110
8 114
8 115
8 118
8 125
8 134
8 137
8 138
8 142
8 144
8 146
9 13
9 26
9 28
9 38
9 40
9 43
9 49
9 50
9 51
9 59
9 82
9 83
9 90
9 93
9 98
9 102
9 111
9 114
9 120
9 123
9 124
9 130
9 136
9 141
9 143
9 146
9 147
9 148
10 14
10 15
10 16
10 18
10 21
10 23
10 33
10 34
10 35
10 38
10 43
10 45
10 49
10 56
10 74
10 75
10 78
10 91
10 94
10 98
10 99
10 100
10 102
10 105
10 106
10 108
10 109
10 112
10 114
10 115
10 118
10 119
10 120
10 135
10 145
10 147
10 148
11 12
11 22
11 23
11 26
11 28
11 35
11 42
11 47
11 48
11 55
11 64
11 73
11 75
11 79
11 80
11 81
11 84
11 94
11 102
11 111
11 112
11 117
11 118
11 120
11 125
11 128
11 134
11 136
11 139
11 144
12 13
12 14
12 17
12 22
12 28
12 30
12 36
12 41
12 43
12 51
12 74
12 80
12 85
12 88
12 97
12 100
12 101
12 104
12 113
12 117
12 127
12 130
12 133
12 138
12 141
12 142
12 147
13 15
13 16
13 18
13 21
13 22
13 27
13 31
13 32
13 41
13 42
13 44
13 47
13 48
13 49
13 51
13 62
13 63
13 64
13 65
13 68
13 73
13 76
13 77
13 83
13 87
13 104
13 105
13 119
13 123
13 124
13 125
13 128
13 131
13 132
13 136
13 138
14 17
14 20
14 22
14 23
14 24
14 32
14 34
14 45
14 53
14 55
14 56
14 61
14 67
14 73
14 80
14 81
14 82
14 84
14 85
14 91
14 95
14 98
14 107
14 110
14 112
14 113
14 120
14 122
14 124
14 125
14 131
14 135
14 137
14 143
14 149
15 16
15 20
15 21
15 22
15 38
15 43
15 44
15 45
15 50
15 51
15 54
15 59
15 61
15 68
15 69
15 73
15 83
15 94
15 100
15 104
15 109
15 116
15 118
15 124
15 127
15 129
15 139
15 140
15 149
16 21
16 28
16 30
16 34
16 37
16 43
16 47
16 48
16 49
16 54
16 58
16 60
16 63
16 72
16 73
16 74
16 76
16 77
16 79
16 81
16 82
16 85
16 89
16 94
16 96
16 100
16 109
16 110
16 118
16 121
16 122
16 129
16 131
16 134
16 135
16 136
16 142
16 143
16 145
16 146
16 147
17 25
17 28
17 33
17 34
17 35
17 45
17 46
17 50
17 51
17 53
17 54
17 59
17 65
17 71
17 78
17 79
17 82
17 84
17 91
17 94
17 95
17 96
17 105
17 114
17 115
17 118
17 120
17 124
17 132
17 134
17 138
17 140
17 143
17 145
18 29
18 37
18 45
18 46
18 47
18 53
18 56
18 57
18 61
18 62
18 68
18 70
18 82
18 87
18 89
18 90
18 97
18 98
18 99
18 102
18 109
18 110
18 113
18 116
18 119
18 123
18 126
18 130
18 131
19 25
19 29
19 34
19 35
19 38
19 43
19 48
19 50
19 58
19 59
19 63
19 71
19 72
19 85
19 100
19 101
19 104
19 105
19 109
19 112
19 113
19 115
19 117
19 126
19 129
19 130
19 135
19 139
19 142
19 146
19 149
20 24
20 25
20 26
20 30
20 31
20 35
20 36
20 38
20 42
20 48
20 52
20 54
20 56
20 65
20 67
20 74
20 75
20 79
20 80
20 83
20 87
20 92
20 94
20 96
20 97
20 99
20 106
20 114
20 119
20 121
20 130
20 131
20 138
20 142
20 144
21 29
21 41
21 43
21 47
21 53
21 54
21 57
21 60
21 61
21 62
21 74
21 84
21 87
21 97
21 99
21 102
21 103
21 106
21 111
21 124
21 127
21 129
21 130
21 133
21 137
21 139
21 145
22 26
22 32
22 36
22 37
22 38
22 43
22 48
22 52
22 57
22 63
22 66
22 69
22 73
22 75
22 79
22 80
22 84
22 85
22 87
22 99
22 100
22 102
22 109
22 114
22 118
22 121
22 123
22 124
22 125
22 138
22 139
22 143
22 144
23 27
23 32
23 35
23 37
23 38
23 40
23 56
23 63
23 84
23 92
23 96
23 98
23 102
23 105
23 108
23 110
23 111
23 113
23 115
23 117
23 121
23 125
23 126
23 130
23 132
23 135
23 145
24 29
24 31
24 36
24 51
24 54
24 63
24 67
24 74
24 77
24 82
24 83
24 88
24 96
24 112
24 124
24 130
24 133
24 140
24 148
24 149
25 26
25 32
25 42
25 44
25 48
25 55
25 56
25 60
25 64
25 65
25 66
25 71
25 75
25 88
25 90
25 91
25 92
25 93
25 97
25 100
25 118
25 120
25 123
25 124
25 125
25 126
25 135
25 136
25 144
26 30
26 32
26 34
26 38
26 41
26 43
26 45
26 47
26 49
26 54
26 66
26 72
26 77
26 83
26 84
26 86
26 88
26 89
26 92
26 102
26 104
26 108
26 112
26 116
26 118
26 119
26 122
26 126
26 133
26 134
26 138
26 146
27 33
27 39
27 44
27 46
27 47
27 48
27 50
27 53
27 55
27 62
27 66
27 68
27 70
27 73
27 88
27 89
27 90
27 91
27 92
27 93
27 100
27 106
27 124
27 140
27 146
28 41
28 48
28 49
28 53
28 55
28 56
28 60
28 62
28 70
28 75
28 79
28 80
28 82
28 84
28 99
28 100
28 105
28 109
28 115
28 117
28 120
28 123
28 129
28 135
28 136
28 140
28 144
28 148
28 149
29 32
29 36
29 44
29 45
29 49
29 58
29 59
29 62
29 64
29 65
29 67
29 69
29 75
29 76
29 81
29 82
29 83
29 103
29 105
29 107
29 109
29 110
29 111
29 117
29 119
29 126
29 127
29 130
29 146
30 37
30 44
30 47
30 50
30 52
30 53
30 54
30 58
30 59
30 63
30 72
30 75
30 82
30 91
30 92
30 95
30 104
30 106
30 109
30 113
30 116
30 117
30 118
30 121
30 122
30 125
30 129
30 134
30 142
30 143
30 145
30 147
30 148
31 32
31 35
31 38
31 40
31 42
31 43
31 45
31 49
31 51
31 52
31 55
31 66
31 77
31 78
31 80
31 84
31 87
31 88
31 97
31 99
31 105
31 110
31 114
31 115
31 116
31 117
31 121
31 124
31 125
31 129
31 132
31 144
32 39
32 52
32 53
32 55
32 56
32 59
32 72
32 79
32 83
32 84
32 85
32 88
32 91
32 98
32 99
32 108
32 110
32 112
32 114
32 135
32 143
32 145
32 148
33 34
33 35
33 40
33 43
33 44
33 55
33 59
33 60
33 62
33 70
33 77
33 78
33 82
33 87
33 93
33 101
33 110
33 111
33 113
33 115
33 118
33 119
33 120
33 126
33 127
33 128
33 129
33 140
33 141
33 142
33 143
33 144
33 145
33 148
34 47
34 48
34 54
34 57
34 58
34 63
34 66
34 71
34 75
34 78
34 92
34 98
34 101
34 103
34 104
34 107
34 117
34 123
34 124
34 127
34 130
34 132
34 134
34 136
34 140
34 144
34 148
35 36
35 37
35 38
35 42
35 46
35 55
35 58
35 59
35 60
35 65
35 67
35 69
35 70
35 72
35 79
35 80
35 81
35 83
35 87
35 89
35 97
35 98
35 99
35 103
35 109
35 111
35 114
35 115
35 118
35 122
35 145
36 42
36 44
36 45
36 49
36 53
36 54
36 61
36 63
36 68
36 73
36 77
36 82
36 84
36 85
36 86
36 91
36 94
36 106
36 107
36 114
36 115
36 126
36 127
36 129
36 139
36 140
36 143
36 149
37 41
37 57
37 66
37 75
37 78
37 79
37 89
37 90
37 92
37 94
37 95
37 101
37 107
37 110
37 117
37 123
37 129
37 133
37 137
37 138
37 147
38 40
38 50
38 53
38 55
38 56
38 63
38 74
38 84
38 86
38 87
38 89
38 91
38 95
38 98
38 107
38 113
38 122
38 123
38 124
38 126
38 132
38 143
39 40
39 47
39 49
39 53
39 55
39 60
39 65
39 66
39 82
39 84
39 90
39 92
39 97
39 99
39 104
39 113
39 116
39 118
39 119
39 120
39 124
39 126
39 127
39 132
39 133
39 135
39 139
39 149
40 42
40 47
40 48
40 54
40 55
40 56
40 57
40 58
40 60
40 61
40 65
40 67
40 71
40 72
40 73
40 78
40 79
40 86
40 89
40 93
40 94
40 97
40 110
40 115
40 128
40 132
40 139
41 44
41 47
41 51
41 54
41 58
41 66
41 70
41 77
41 78
41 81
41 82
41 85
41 86
41 87
41 88
41 90
41 96
41 103
41 106
41 107
41 108
41 109
41 114
41 119
41 123
41 124
41 130
41 133
41 138
41 144
41 145
41 146
42 59
42 61
42 62
42 69
42 73
42 80
42 83
42 84
42 94
42 101
42 103
42 104
42 106
42 111
42 113
42 114
42 126
42 127
42 131
42 134
42 138
42 149
43 44
43 45
43 46
43 51
43 64
43 68
43 73
43 74
43 76
43 82
43 85
43 88
43 96
43 100
43 108
43 110
43 111
43 114
43 116
43 124
43 133
43 139
43 140
43 143
43 147
43 148
44 53
44 59
44 62
44 65
44 66
44 67
44 73
44 78
44 79
44 80
44 94
44 95
44 100
44 112
44 117
44 118
44 119
44 128
44 130
44 136
44 140
45 51
45 55
45 56
45 61
45 65
45 70
45 73
45 78
45 85
45 86
45 89
45 90
45 93
45 100
45 110
45 112
45 113
45 115
45 125
45 127
45 128
45 131
45 135
45 137
45 139
45 142
45 143
45 144
45 149
46 49
46 50
46 51
46 61
46 64
46 65
46 66
46 80
46 87
46 89
46 91
46 92
46 94
46 102
46 103
46 104
46 105
46 130
46 134
46 135
46 138
46 141
47 49
47 59
47 67
47 69
47 70
47 74
47 76
47 78
47 84
47 85
47 87
47 88
47 95
47 96
47 98
47 104
47 114
47 118
47 119
47 122
47 123
47 126
47 127
47 136
47 138
47 145
47 148
47 149
48 60
48 69
48 77
48 79
48 80
48 81
48 84
48 94
48 103
48 105
48 106
48 107
48 110
48 112
48 125
48 127
48 129
48 134
48 142
48 145
48 147
48 148
48 149
49 50
49 51
49 59
49 65
49 68
49 73
49 79
49 81
49 83
49 95
49 109
49 116
49 118
49 120
49 122
49 125
49 126
49 131
49 135
49 137
49 140
49 142
49 143
49 148
50 52
50 56
50 57
50 59
50 60
50 62
50 65
50 67
50 70
50 71
50 74
50 79
50 84
50 88
50 97
50 101
50 113
50 115
50 117
50 118
50 122
50 125
50 126
50 133
50 137
50 140
50 141
50 145
51 52
51 53
51 55
51 59
51 60
51 63
51 64
51 66
51 75
51 78
51 79
51 82
51 86
51 88
51 94
51 96
51 97
51 98
51 99
51 102
51 103
51 105
51 106
51 109
51 119
51 124
51 125
51 139
51 144
52 56
52 63
52 65
52 84
52 85
52 86
52 88
52 90
52 92
52 93
52 96
52 102
52 105
52 107
52 113
52 118
52 120
52 121
52 122
52 123
52 124
52 125
52 134
52 135
52 137
52 143
52 148
52 149
53 64
53 69
53 73
53 79
53 81
53 90
53 98
53 111
53 114
53 116
53 120
53 129
53 130
53 138
53 140
53 141
53 144
54 60
54 68
54 78
54 83
54 91
54 92
54 94
54 106
54 108
54 109
54 116
54 118
54 120
54 122
54 127
54 128
54 136
54 146
55 56
55 62
55 65
55 66
55 68
55 77
55 78
55 88
55 89
55 103
55 105
55 110
55 120
55 126
55 130
55 134
55 139
56 61
56 63
56 67
56 73
56 74
56 75
56 78
56 80
56 84
56 96
56 108
56 113
56 117
56 126
56 129
56 130
56 132
56 135
56 137
56 139
56 145
56 147
56 149
57 61
57 65
57 66
57 67
57 72
57 76
57 87
57 88
57 95
57 96
57 97
57 100
57 107
57 118
57 125
57 128
57 132
57 141
57 144
57 145
57 147
57 149
58 62
58 65
58 66
58 67
58 69
58 77
58 84
58 86
58 91
58 93
58 106
58 108
58 117
58 124
58 125
58 127
58 132
58 135
58 139
58 140
58 141
58 148
59 64
59 68
59 71
59 76
59 78
59 80
59 83
59 96
59 105
59 107
59 108
59 112
59 124
59 125
59 127
59 129
59 136
59 137
59 143
59 146
59 148
59 149
60 61
60 64
60 65
60 67
60 68
60 71
60 80
60 85
60 89
60 93
60 94
60 95
60 100
60 109
60 110
60 118
60 120
60 122
60 131
60 138
61 64
61 65
61 83
61 84
61 85
61 86
61 87
61 90
61 100
61 102
61 106
61 110
61 121
61 126
61 128
61 131
61 134
61 139
61 144
61 145
61 148
62 65
62 68
62 71
62 72
62 75
62 79
62 81
62 83
62 87
62 95
62 98
62 102
62 106
62 107
62 110
62 112
62 114
62 119
62 121
62 126
62 127
62 136
62 137
62 140
62 142
62 148
63 64
63 66
63 72
63 76
63 78
63 79
63 80
63 82
63 88
63 98
63 102
63 103
63 109
63 114
63 115
63 116
63 117
63 122
63 123
63 127
63 128
63 130
63 132
63 147
64 66
64 77
64 83
64 86
64 104
64 106
64 115
64 125
64 126
64 127
64 128
64 132
64 133
64 135
64 137
64 143
64 144
64 145
64 148
65 69
65 73
65 79
65 80
65 89
65 99
65 101
65 104
65 105
65 107
65 114
65 121
65 123
65 126
65 127
65 129
65 133
65 138
65 140
65 142
65 145
65 148
66 68
66 70
66 78
66 83
66 84
66 85
66 86
66 88
66 89
66 93
66 98
66 101
66 103
66 108
66 111
66 123
66 125
66 127
66 135
66 138
66 139
66 145
66 149
67 71
67 78
67 82
67 83
67 85
67 90
67 92
67 97
67 98
67 101
67 105
67 106
67 116
67 124
67 131
67 135
67 145
67 148
68 73
68 74
68 77
68 79
68 80
68 83
68 88
68 89
68 93
68 95
68 99
68 102
68 106
68 111
68 114
68 119
68 124
68 126
68 127
68 129
68 130
68 131
68 134
68 137
68 140
68 146
68 147
69 72
69 76
69 82
69 84
69 88
69 90
69 94
69 95
69 96
69 97
69 105
69 106
69 107
69 122
69 124
69 126
69 128
69 135
69 137
69 138
70 74
70 77
70 78
70 84
70 96
70 105
70 111
70 112
70 122
70 127
70 128
70 133
70 141
70 147
70 148
71 72
71 74
71 76
71 78
71 80
71 86
71 88
71 97
71 101
71 106
71 107
71 108
71 122
71 128
71 129
71 133
71 134
71 136
71 138
71 144
71 145
72 74
72 79
72 81
72 82
72 83
72 94
72 107
72 108
72 112
72 121
72 129
72 131
72 137
72 142
73 82
73 83
73 85
73 88
73 92
73 93
73 98
73 100
73 102
73 106
73 107
73 109
73 111
73 112
73 114
73 128
73 130
73 134
73 138
73 139
73 141
73 147
74 77
74 78
74 84
74 87
74 97
74 99
74 100
74 102
74 110
74 111
74 112
74 113
74 116
74 119
74 126
74 129
74 135
74 139
74 140
74 145
75 78
75 79
75 83
75 85
75 95
75 96
75 102
75 103
75 104
75 108
75 115
75 120
75 121
75 123
75 128
75 131
75 142
75 146
75 148
76 87
76 93
76 96
76 98
76 101
76 109
76 113
76 114
76 126
76 127
76 128
76 129
76 132
76 143
76 145
76 146
76 147
77 86
77 90
77 95
77 103
77 109
77 110
77 114
77 131
77 142
77 143
77 146
78 82
78 85
78 87
78 90
78 94
78 96
78 101
78 108
78 111
78 115
78 121
78 128
78 129
78 130
78 131
78 139
78 141
78 144
78 146
79 82
79 92
79 97
79 99
79 116
79 124
79 127
79 130
79 138
79 139
79 146
79 147
79 148
79 149
80 81
80 82
80 84
80 96
80 101
80 107
80 112
80 117
80 118
80 120
80 121
80 123
80 128
80 129
80 131
80 133
80 138
80 141
80 142
80 143
80 147
80 148
81 83
81 85
81 86
81 89
81 91
81 92
81 94
81 102
81 105
81 110
81 111
81 112
81 114
81 121
81 122
81 126
81 129
81 142
81 146
81 149
82 89
82 90
82 98
82 104
82 107
82 109
82 112
82 115
82 124
82 126
82 130
82 132
82 136
82 138
82 141
83 95
83 101
83 108
83 109
83 110
83 119
83 120
83 122
83 123
83 127
83 131
83 132
83 134
83 135
83 138
83 139
83 145
84 85
84 88
84 89
84 91
84 95
84 99
84 100
84 103
84 104
84 105
84 106
84 107
84 111
84 112
84 115
84 118
84 120
84 128
84 130
84 135
84 139
84 140
84 144
84 145
84 149
85 86
85 88
85 89
85 90
85 96
85 97
85 104
85 105
85 106
85 109
85 111
85 113
85 115
85 122
85 124
85 125
85 129
85 143
85 144
85 146
85 149
86 90
86 93
86 96
86 103
86 104
86 108
86 109
86 110
86 115
86 119
86 120
86 121
86 128
86 129
86 135
86 143
86 146
86 148
86 149
87 91
87 95
87 96
87 98
87 101
87 107
87 108
87 116
87 122
87 130
87 131
87 140
88 90
88 92
88 101
88 102
88 103
88 106
88 107
88 113
88 118
88 120
88 123
88 124
88 130
88 133
88 136
88 138
88 144
88 146
89 91
89 93
89 100
89 105
89 109
89 113
89 116
89 117
89 119
89 120
89 122
89 125
89 132
89 134
89 136
89 138
89 142
89 143
90 99
90 100
90 110
90 113
90 123
90 125
90 127
90 130
90 131
90 134
90 141
91 95
91 100
91 101
91 104
91 105
91 107
91 109
91 110
91 119
91 124
91 125
91 127
91 132
91 134
91 135
91 136
91 141
91 144
91 147
92 97
92 104
92 107
92 112
92 118
92 121
92 122
92 126
92 131
92 134
92 138
92 147
92 148
92 149
93 95
93 109
93 113
93 118
93 119
93 122
93 126
93 129
93 139
93 141
93 143
93 145
93 147
94 97
94 112
94 113
94 115
94 122
94 123
94 124
94 128
94 133
94 136
94 142
94 143
95 100
95 102
95 103
95 121
95 122
95 124
95 126
95 127
95 135
95 136
95 138
95 141
95 146
95 147
95 149
96 100
96 105
96 108
96 113
96 114
96 115
96 116
96 118
96 119
96 127
96 129
96 139
96 142
96 144
96 145
97 103
97 104
97 108
97 109
97 110
97 112
97 113
97 114
97 115
97 124
97 125
97 126
97 128
97 130
97 135
97 141
97 142
97 143
97 145
97 148
98 103
98 104
98 106
98 107
98 109
98 111
98 112
98 119
98 120
98 132
98 133
98 134
98 138
98 141
98 143
99 101
99 105
99 116
99 119
99 122
99 124
99 134
99 135
99 144
99 146
99 147
99 149
100 106
100 110
100 119
100 121
100 124
100 130
100 132
100 135
100 137
100 138
100 141
100 143
100 144
101 106
101 109
101 110
101 111
101 112
101 114
101 116
101 123
101 125
101 132
101 139
101 148
101 149
102 103
102 109
102 116
102 118
102 121
102 127
102 128
102 137
103 106
103 107
103 108
103 110
103 112
103 125
103 126
103 127
103 129
103 147
103 149
104 108
104 112
104 113
104 121
104 124
104 128
104 134
104 148
105 107
105 108
105 111
105 119
105 122
105 127
105 128
105 131
105 135
105 138
105 140
105 143
105 145
105 146
106 110
106 115
106 117
106 119
106 121
106 122
106 124
106 129
106 130
106 136
106 144
107 108
107 114
107 115
107 117
107 124
107 125
107 128
107 135
107 141
107 142
107 146
108 114
108 134
108 138
108 143
108 144
108 147
109 122
109 126
109 130
109 132
109 134
109 143
110 112
110 115
110 122
110 123
110 128
110 133
110 139
110 143
110 145
110 147
110 148
111 114
111 115
111 120
111 130
111 141
111 145
112 115
112 116
112 119
112 126
112 130
112 133
112 144
112 146
112 149
113 120
113 122
113 127
113 128
113 131
113 149
114 123
114 125
114 126
114 129
114 148
115 121
115 128
115 130
115 132
115 133
115 135
115 138
115 147
115 148
116 118
116 126
116 128
116 129
116 143
116 144
116 148
116 149
117 121
117 130
117 133
117 136
117 138
117 139
117 141
117 145
117 146
117 147
118 119
118 121
118 124
118 125
118 126
118 129
118 134
118 145
118 148
119 120
119 122
119 123
119 127
119 128
119 132
119 136
119 148
120 130
120 132
120 135
120 138
120 139
120 141
120 146
121 124
121 131
121 135
121 138
121 148
122 123
122 125
122 127
122 129
122 131
122 134
122 135
122 137
122 139
123 124
123 128
123 131
123 132
123 137
123 140
123 142
123 146
124 129
124 135
124 137
124 138
124 141
124 145
125 128
125 130
125 135
125 146
125 148
125 149
126 129
126 132
126 135
126 148
126 149
127 133
127 134
127 138
127 140
127 143
127 145
128 129
128 130
128 136
128 142
128 143
128 144
129 130
129 131
129 133
129 137
129 141
129 143
129 149
130 137
130 140
130 142
130 145
130 146
130 147
131 135
131 149
132 133
132 135
132 136
132 137
132 143
133 149
134 139
134 140
134 141
135 138
135 141
135 147
136 139
136 142
136 146
137 140
137 143
138 141
138 144
138 145
138 147
138 149
139 146
140 141
140 144
141 142
141 146
142 143
142 145
142 147
142 148
142 149
143 147
143 149
145 146
145 147
148 149
