150:2820
0 16
0 21
0 25
0 28
0 30
0 32
0 37
0 40
0 44
0 45
0 48
0 50
0 64
0 70
0 74
0 75
0 78
0 92
0 95
0 105
0 113
0 115
0 121
0 123
0 125
0 132
0 135
0 137
0 140
1 2
1 4
1 7
1 14
1 19
1 20
1 22
1 29
1 31
1 33
1 35
1 36
1 37
1 45
1 46
1 55
1 57
1 62
1 63
1 66
1 68
1 74
1 75
1 83
1 85
1 88
1 95
1 105
1 107
1 110
1 112
1 119
1 125
1 131
1 133
1 134
1 141
1 143
1 144
1 145
1 146
1 149
2 4
2 10
2 22
2 33
2 34
2 36
2 39
2 40
2 42
2 57
2 64
2 65
2 84
2 87
2 91
2 96
2 101
2 111
2 115
2 117
2 127
2 134
2 139
2 142
2 148
3 7
3 32
3 35
3 36
3 38
3 40
3 41
3 42
3 43
3 44
3 50
3 53
3 57
3 62
3 65
3 68
3 70
3 71
3 73
3 77
3 79
3 87
3 88
3 110
3 115
3 118
3 128
3 130
3 137
3 139
3 140
3 144
3 149
4 10
4 13
4 17
4 23
4 30
4 31
4 34
4 35
4 45
4 51
4 56
4 59
4 64
4 66
4 71
4 77
4 90
4 94
4 97
4 101
4 103
4 105
4 106
4 107
4 112
4 115
4 117
4 121
4 123
4 126
4 128
4 131
4 140
4 143
4 147
5 6
5 9
5 15
5 17
5 23
5 26
5 35
5 36
5 43
5 46
5 51
5 65
5 66
5 69
5 70
5 78
5 80
5 84
5 90
5 91
5 97
5 98
5 99
5 102
5 108
5 112
5 115
5 116
5 119
5 122
5 130
5 132
5 134
5 135
5 136
5 140
5 147
6 7
6 9
6 14
6 17
6 18
6 25
6 27
6 29
6 35
6 36
6 37
6 39
6 41
6 47
6 49
6 59
6 61
6 64
6 65
6 68
6 72
6 74
6 80
6 83
6 88
6 90
6 91
6 105
6 108
6 109
6 110
6 114
6 116
6 126
6 137
6 142
6 147
6 148
7 10
7 20
7 21
7 29
7 30
7 35
7 36
7 39
7 40
7 43
7 46
7 47
7 53
7 55
7 56
7 61
7 62
7 65
7 66
7 68
7 82
7 85
7 88
7 92
7 94
7 97
7 100
7 101
7 104
7 105
7 107
7 111
7 115
7 116
7 118
7 124
7 125
7 126
7 132
7 133
7 134
7 139
7 145
7 147
7 149
8 9
8 10
8 12
8 14
8 15
8 17
8 29
8 30
8 43
8 51
8 55
8 60
8 61
8 65
8 67
8 70
8 72
8 75
8 79
8 83
8 84
8 90
8 93
8 97
8 99
8 102
8 107
8 110
8 120
8 131
8 132
8 134
8 135
8 137
8 141
8 145
9 10
9 14
9 16
9 18
9 22
9 23
9 25
9 27
9 33
9 36
9 37
9 41
9 48
9 51
9 52
9 56
9 71
9 72
9 79
9 80
9 84
9 87
9 88
9 90
9 91
9 92
9 93
9 94
9 98
9 100
9 103
9 110
9 112
9 117
9 123
9 129
9 130
9 131
9 138
9 141
9 143
9 146
9 147
10 18
10 19
10 20
10 23
10 32
10 36
10 44
10 47
10 55
10 56
10 58
10 61
10 67
10 69
10 72
10 74
10 75
10 77
10 78
10 79
10 83
10 84
10 86
10 87
10 90
10 95
10 106
10 107
10 114
10 116
10 117
10 118
10 120
10 131
10 132
10 133
10 134
10 135
10 138
10 140
10 142
10 146
10 148
11 14
11 15
11 16
11 25
11 31
11 33
11 34
11 36
11 39
11 40
11 43
11 53
11 56
11 61
11 63
11 69
11 79
11 80
11 81
11 85
11 88
11 90
11 98
11 105
11 107
11 108
11 121
11 123
11 127
11 128
11 132
11 133
11 139
12 15
12 16
12 21
12 22
12 30
12 31
12 42
12 46
12 48
12 51
12 53
12 56
12 62
12 66
12 76
12 80
12 85
12 86
12 88
12 98
12 103
12 105
12 121
12 122
12 125
12 126
12 127
12 130
12 133
12 135
12 143
12 144
12 147
12 149
13 15
13 18
13 22
13 25
13 26
13 30
13 32
13 35
13 36
13 37
13 41
13 43
13 49
13 50
13 52
13 53
13 56
13 62
13 64
13 73
13 76
13 80
13 88
13 92
13 96
13 97
13 102
13 104
13 109
13 110
13 121
13 129
13 131
13 135
13 139
13 147
14 18
14 19
14 24
14 28
14 32
14 34
14 38
14 43
14 46
14 57
14 66
14 78
14 79
14 86
14 90
14 91
14 93
14 94
14 95
14 96
14 100
14 102
14 107
14 111
14 126
14 128
14 132
14 136
14 138
14 140
14 143
14 144
14 145
15 16
15 17
15 22
15 24
15 27
15 34
15 38
15 42
15 45
15 63
15 69
15 75
15 76
15 78
15 87
15 97
15 98
15 100
15 107
15 109
15 113
15 117
15 129
15 141
15 148
15 149
16 19
16 21
16 24
16 25
16 30
16 31
16 39
16 55
16 60
16 61
16 63
16 71
16 74
16 75
16 76
16 78
16 79
16 84
16 89
16 90
16 97
16 101
16 109
16 111
16 116
16 119
16 122
16 123
16 131
16 133
16 135
16 136
16 138
16 141
16 142
16 145
16 148
17 18
17 19
17 24
17 31
17 32
17 36
17 42
17 50
17 51
17 53
17 59
17 62
17 74
17 75
17 76
17 84
17 86
17 90
17 93
17 94
17 102
17 107
17 111
17 119
17 121
17 124
17 125
17 129
17 131
17 136
17 140
17 144
18 26
18 30
18 35
18 41
18 44
18 46
18 47
18 48
18 50
18 51
18 53
18 56
18 58
18 59
18 65
18 68
18 69
18 72
18 73
18 75
18 93
18 94
18 103
18 104
18 107
18 111
18 115
18 119
18 121
18 124
18 125
18 130
18 133
18 143
19 20
19 25
19 29
19 48
19 53
19 59
19 60
19 65
19 66
19 68
19 72
19 73
19 76
19 78
19 80
19 85
19 90
19 107
19 110
19 111
19 114
19 116
19 117
19 119
19 122
19 123
19 127
19 131
19 133
19 134
19 137
19 138
19 139
19 143
20 23
20 32
20 33
20 35
20 43
20 56
20 58
20 59
20 60
20 62
20 66
20 74
20 75
20 76
20 80
20 86
20 89
20 92
20 95
20 98
20 102
20 104
20 107
20 110
20 115
20 116
20 119
20 128
20 130
20 139
20 141
20 142
20 143
20 148
21 25
21 28
21 30
21 36
21 38
21 43
21 46
21 51
21 53
21 65
21 70
21 71
21 75
21 84
21 87
21 95
21 97
21 104
21 105
21 107
21 108
21 113
21 119
21 129
21 131
21 139
21 143
21 146
22 25
22 31
22 32
22 38
22 43
22 44
22 47
22 48
22 49
22 51
22 59
22 61
22 63
22 65
22 66
22 69
22 71
22 75
22 77
22 80
22 91
22 93
22 94
22 98
22 103
22 105
22 116
22 119
22 126
22 127
22 130
22 144
22 147
22 149
23 25
23 27
23 37
23 38
23 43
23 44
23 47
23 50
23 55
23 57
23 58
23 59
23 64
23 66
23 74
23 76
23 77
23 79
23 86
23 89
23 92
23 94
23 107
23 112
23 118
23 123
23 134
23 138
23 146
23 148
24 30
24 38
24 45
24 51
24 54
24 55
24 60
24 66
24 71
24 73
24 78
24 80
24 88
24 89
24 95
24 99
24 111
24 115
24 125
24 126
24 138
25 29
25 37
25 38
25 40
25 41
25 49
25 51
25 52
25 55
25 59
25 60
25 61
25 66
25 71
25 74
25 76
25 79
25 83
25 87
25 88
25 90
25 91
25 95
25 97
25 111
25 113
25 115
25 119
25 126
25 127
25 147
25 148
26 33
26 38
26 39
26 40
26 44
26 52
26 54
26 55
26 56
26 82
26 91
26 92
26 93
26 103
26 108
26 109
26 112
26 114
26 118
26 123
26 124
26 128
26 129
26 133
26 142
27 30
27 33
27 34
27 36
27 37
27 43
27 50
27 51
27 56
27 60
27 64
27 66
27 73
27 74
27 79
27 80
27 82
27 91
27 93
27 94
27 95
27 96
27 98
27 99
27 109
27 110
27 119
27 126
27 129
27 138
27 141
27 148
28 31
28 33
28 35
28 36
28 44
28 48
28 49
28 54
28 57
28 60
28 61
28 66
28 69
28 70
28 71
28 77
28 79
28 80
28 84
28 90
28 97
28 99
28 100
28 103
28 106
28 109
28 113
28 115
28 118
28 122
28 124
28 125
28 130
28 134
28 139
28 140
28 141
28 147
29 32
29 34
29 35
29 37
29 40
29 45
29 50
29 59
29 60
29 67
29 72
29 75
29 77
29 86
29 89
29 95
29 102
29 105
29 108
29 113
29 114
29 122
29 125
29 126
29 133
29 134
29 139
30 36
30 41
30 44
30 47
30 51
30 53
30 58
30 59
30 70
30 74
30 75
30 81
30 87
30 98
30 99
30 103
30 104
30 105
30 108
30 111
30 114
30 116
30 117
30 138
30 142
30 144
30 145
31 35
31 42
31 45
31 51
31 52
31 57
31 58
31 61
31 62
31 64
31 65
31 71
31 75
31 78
31 79
31 82
31 94
31 101
31 106
31 111
31 113
31 115
31 117
31 119
31 122
31 131
31 134
31 141
31 143
31 147
32 35
32 36
32 40
32 41
32 42
32 54
32 61
32 63
32 66
32 72
32 81
32 88
32 93
32 97
32 98
32 99
32 106
32 109
32 111
32 127
32 130
32 133
32 149
33 36
33 38
33 43
33 45
33 46
33 49
33 53
33 54
33 56
33 61
33 62
33 63
33 64
33 65
33 71
33 74
33 79
33 80
33 82
33 90
33 91
33 93
33 94
33 100
33 101
33 108
33 110
33 112
33 116
33 117
33 118
33 122
33 125
33 126
33 127
33 129
33 132
33 134
33 138
33 147
34 38
34 40
34 41
34 42
34 48
34 65
34 66
34 81
34 83
34 84
34 88
34 93
34 102
34 107
34 112
34 114
34 116
34 120
34 128
34 138
34 139
34 142
34 147
34 149
35 42
35 50
35 51
35 56
35 59
35 65
35 68
35 71
35 72
35 80
35 85
35 88
35 89
35 95
35 107
35 108
35 118
35 126
35 136
35 137
35 143
35 145
35 147
35 149
36 40
36 43
36 54
36 55
36 59
36 62
36 65
36 68
36 69
36 75
36 81
36 83
36 88
36 93
36 104
36 105
36 106
36 110
36 119
36 120
36 125
36 130
36 136
36 137
36 147
37 40
37 42
37 43
37 46
37 47
37 49
37 52
37 60
37 63
37 65
37 67
37 71
37 76
37 78
37 79
37 83
37 85
37 99
37 101
37 104
37 108
37 111
37 114
37 115
37 117
37 119
37 124
37 131
37 134
37 136
37 147
38 41
38 45
38 46
38 49
38 50
38 53
38 59
38 62
38 70
38 76
38 81
38 84
38 94
38 95
38 97
38 98
38 101
38 104
38 105
38 115
38 119
38 120
38 124
38 125
38 128
38 133
38 142
38 145
38 149
39 44
39 45
39 46
39 48
39 53
39 54
39 56
39 58
39 61
39 68
39 70
39 74
39 78
39 81
39 90
39 99
39 112
39 119
39 123
39 134
39 137
39 138
39 140
39 142
39 144
40 52
40 55
40 59
40 61
40 70
40 89
40 103
40 107
40 112
40 115
40 116
40 118
40 119
40 121
40 125
40 127
40 132
40 146
41 44
41 50
41 51
41 53
41 64
41 66
41 75
41 78
41 82
41 86
41 87
41 88
41 94
41 101
41 103
41 110
41 111
41 112
41 122
41 123
41 137
41 142
41 143
41 144
41 148
42 43
42 44
42 46
42 51
42 52
42 53
42 58
42 62
42 63
42 66
42 67
42 73
42 74
42 80
42 84
42 101
42 102
42 103
42 107
42 110
42 114
42 118
42 122
42 124
42 128
42 129
42 137
42 138
42 140
42 146
43 48
43 56
43 58
43 59
43 60
43 70
43 71
43 76
43 77
43 78
43 81
43 83
43 89
43 91
43 94
43 98
43 99
43 102
43 105
43 115
43 118
43 120
43 125
43 128
43 129
43 136
44 47
44 49
44 51
44 53
44 57
44 60
44 61
44 64
44 75
44 76
44 78
44 86
44 87
44 89
44 91
44 92
44 96
44 99
44 100
44 103
44 106
44 107
44 111
44 116
44 120
44 125
44 126
44 127
44 131
44 141
44 146
44 149
45 53
45 59
45 61
45 63
45 65
45 68
45 71
45 74
45 76
45 80
45 85
45 88
45 93
45 95
45 97
45 98
45 106
45 109
45 118
45 124
45 129
45 130
45 131
45 138
45 139
45 141
45 143
45 147
46 60
46 63
46 71
46 73
46 74
46 85
46 87
46 89
46 91
46 96
46 103
46 106
46 112
46 114
46 127
46 130
46 135
46 142
46 145
47 49
47 51
47 52
47 55
47 56
47 57
47 61
47 66
47 67
47 69
47 71
47 72
47 76
47 77
47 79
47 80
47 89
47 90
47 92
47 98
47 101
47 103
47 108
47 109
47 110
47 119
47 123
47 125
47 127
47 128
47 130
47 133
47 143
47 146
47 149
48 49
48 52
48 64
48 67
48 68
48 82
48 95
48 103
48 105
48 112
48 118
48 124
48 125
48 129
48 130
48 131
48 133
48 149
49 50
49 52
49 54
49 55
49 60
49 70
49 76
49 78
49 79
49 80
49 82
49 87
49 88
49 89
49 92
49 97
49 101
49 104
49 105
49 116
49 122
49 130
49 132
49 135
49 143
49 146
49 147
50 54
50 55
50 57
50 60
50 61
50 72
50 75
50 77
50 78
50 86
50 95
50 101
50 104
50 106
50 109
50 111
50 115
50 116
50 119
50 120
50 124
50 125
50 127
50 128
50 129
50 138
51 55
51 62
51 64
51 70
51 74
51 79
51 89
51 94
51 98
51 100
51 108
51 111
51 113
51 123
51 128
51 130
51 131
51 140
51 142
51 144
51 148
51 149
52 61
52 62
52 72
52 76
52 79
52 85
52 87
52 92
52 95
52 98
52 100
52 101
52 104
52 105
52 107
52 110
52 114
52 127
52 135
52 142
52 144
52 145
52 146
53 60
53 61
53 62
53 66
53 67
53 68
53 72
53 75
53 80
53 81
53 92
53 99
53 103
53 116
53 119
53 120
53 124
53 126
53 131
53 134
53 135
53 141
53 144
54 55
54 59
54 63
54 64
54 71
54 73
54 74
54 76
54 77
54 84
54 86
54 87
54 91
54 96
54 98
54 101
54 103
54 104
54 105
54 106
54 111
54 112
54 116
54 120
54 124
54 125
54 131
54 133
54 143
54 145
54 147
54 149
55 56
55 58
55 72
55 75
55 79
55 80
55 81
55 84
55 94
55 98
55 103
55 108
55 110
55 112
55 118
55 123
55 126
55 134
55 141
55 147
55 148
55 149
56 57
56 69
56 72
56 74
56 82
56 83
56 84
56 86
56 87
56 88
56 89
56 101
56 103
56 109
56 121
56 127
56 129
56 131
56 141
56 142
56 146
56 148
57 58
57 59
57 63
57 65
57 78
57 80
57 85
57 87
57 113
57 116
57 117
57 118
57 119
57 125
57 126
57 127
57 130
57 134
57 137
57 138
57 142
57 143
57 144
57 146
57 147
58 73
58 78
58 83
58 86
58 88
58 90
58 93
58 95
58 97
58 103
58 110
58 118
58 123
58 125
58 133
58 134
58 137
59 70
59 75
59 80
59 85
59 89
59 92
59 93
59 95
59 112
59 116
59 117
59 126
59 127
59 141
59 142
59 143
59 146
60 63
60 68
60 74
60 76
60 86
60 89
60 93
60 97
60 108
60 130
60 135
60 137
60 142
61 63
61 67
61 71
61 74
61 78
61 79
61 84
61 85
61 98
61 102
61 105
61 109
61 113
61 122
61 123
61 125
61 127
61 130
61 134
61 136
61 137
61 138
61 139
61 140
62 72
62 85
62 86
62 89
62 90
62 93
62 101
62 112
62 126
62 133
62 135
62 136
62 137
62 138
62 143
62 149
63 65
63 68
63 73
63 78
63 79
63 84
63 87
63 91
63 97
63 108
63 119
63 127
63 128
63 131
63 133
63 135
63 136
63 138
63 139
63 143
63 147
64 65
64 69
64 70
64 75
64 89
64 94
64 103
64 105
64 111
64 116
64 120
64 121
64 127
64 131
64 138
65 68
65 72
65 76
65 81
65 83
65 84
65 90
65 92
65 95
65 99
65 105
65 111
65 114
65 117
65 121
65 126
65 131
65 135
65 138
65 143
66 69
66 70
66 72
66 76
66 80
66 83
66 92
66 94
66 96
66 98
66 102
66 104
66 107
66 109
66 111
66 115
66 124
66 125
66 126
66 132
66 134
66 135
66 136
66 139
66 140
66 143
66 145
67 68
67 70
67 73
67 74
67 76
67 79
67 82
67 91
67 93
67 106
67 110
67 112
67 120
67 123
67 125
67 129
67 132
67 134
67 135
67 137
67 144
68 74
68 75
68 77
68 78
68 79
68 85
68 88
68 96
68 97
68 98
68 110
68 118
68 119
68 121
68 126
68 129
68 133
68 135
68 140
68 144
68 149
69 78
69 79
69 80
69 83
69 84
69 87
69 90
69 92
69 98
69 100
69 102
69 107
69 108
69 112
69 115
69 120
69 121
69 123
69 131
69 137
69 146
69 148
70 71
70 74
70 77
70 78
70 85
70 92
70 100
70 102
70 105
70 108
70 109
70 110
70 112
70 113
70 116
70 117
70 118
70 123
70 125
70 126
70 128
70 134
70 136
70 139
70 143
70 144
70 145
70 146
70 147
71 72
71 73
71 85
71 91
71 99
71 100
71 102
71 104
71 106
71 107
71 108
71 114
71 115
71 116
71 119
71 120
71 125
71 126
71 127
71 131
71 132
71 134
71 135
71 137
72 73
72 74
72 76
72 79
72 90
72 93
72 96
72 100
72 109
72 112
72 115
72 116
72 118
72 121
72 128
72 138
72 149
73 82
73 85
73 86
73 87
73 98
73 101
73 105
73 107
73 112
73 113
73 117
73 120
73 125
73 131
73 134
73 135
73 148
74 75
74 77
74 79
74 92
74 98
74 102
74 103
74 108
74 109
74 112
74 113
74 114
74 120
74 123
74 129
74 135
74 139
74 143
74 145
75 77
75 83
75 89
75 91
75 99
75 100
75 102
75 109
75 111
75 116
75 120
75 130
75 131
75 138
75 141
75 142
75 144
76 91
76 92
76 93
76 94
76 105
76 110
76 113
76 116
76 120
76 131
76 134
76 149
77 87
77 88
77 89
77 96
77 97
77 98
77 101
77 108
77 113
77 114
77 124
77 125
77 129
77 131
77 134
77 138
77 142
77 143
77 147
77 148
77 149
78 80
78 83
78 88
78 90
78 95
78 100
78 102
78 110
78 112
78 125
78 129
78 134
78 137
78 145
78 146
79 87
79 88
79 90
79 94
79 95
79 98
79 104
79 105
79 106
79 107
79 108
79 110
79 113
79 114
79 118
79 123
79 131
79 134
79 136
79 138
79 141
79 145
79 148
79 149
80 82
80 87
80 91
80 98
80 105
80 109
80 115
80 120
80 137
80 144
80 149
81 83
81 86
81 87
81 92
81 96
81 98
81 101
81 102
81 107
81 109
81 114
81 118
81 119
81 122
81 132
81 134
81 144
81 145
81 146
81 147
81 149
82 85
82 95
82 101
82 102
82 105
82 110
82 114
82 115
82 117
82 121
82 128
82 133
82 136
82 142
82 145
82 148
83 87
83 88
83 98
83 103
83 108
83 111
83 113
83 126
83 130
83 134
83 135
83 140
83 147
83 149
84 85
84 87
84 88
84 100
84 102
84 103
84 104
84 108
84 110
84 111
84 114
84 115
84 117
84 121
84 122
84 127
84 133
84 135
84 143
84 145
85 87
85 88
85 89
85 102
85 107
85 108
85 119
85 122
85 126
85 131
85 133
85 134
85 136
85 144
85 149
86 88
86 95
86 96
86 101
86 106
86 109
86 110
86 128
86 130
86 132
86 134
86 136
86 138
86 140
86 145
86 147
86 148
87 88
87 96
87 98
87 99
87 100
87 107
87 112
87 116
87 117
87 119
87 122
87 124
87 129
87 130
87 144
87 146
88 92
88 93
88 94
88 105
88 120
88 125
88 126
88 128
88 130
88 138
88 144
88 148
88 149
89 92
89 94
89 95
89 99
89 100
89 105
89 107
89 108
89 113
89 114
89 116
89 124
89 125
89 126
89 127
89 129
89 135
89 136
89 140
89 144
89 145
90 92
90 97
90 102
90 103
90 107
90 112
90 115
90 118
90 119
90 125
90 129
90 131
90 133
90 136
90 138
90 141
90 145
90 149
91 97
91 99
91 106
91 111
91 112
91 114
91 124
91 126
91 132
91 133
91 137
91 142
91 144
91 148
92 104
92 108
92 111
92 113
92 117
92 121
92 122
92 123
92 131
92 132
92 138
92 139
92 141
92 145
92 149
93 99
93 101
93 103
93 105
93 106
93 111
93 113
93 115
93 116
93 121
93 122
93 126
93 129
93 131
93 132
93 135
93 148
94 96
94 109
94 112
94 116
94 117
94 128
94 129
94 132
94 133
94 138
94 142
94 143
94 147
95 96
95 101
95 102
95 110
95 111
95 113
95 114
95 117
95 123
95 125
95 132
95 134
95 137
95 138
95 141
95 145
96 99
96 101
96 103
96 112
96 116
96 119
96 120
96 122
96 123
96 128
96 130
96 134
96 138
96 139
96 144
97 100
97 107
97 108
97 109
97 115
97 119
97 120
97 122
97 123
97 127
97 130
97 135
97 139
98 102
98 136
98 137
98 138
98 139
98 141
98 145
98 149
99 100
99 104
99 110
99 111
99 113
99 114
99 117
99 120
99 123
99 126
99 127
99 133
99 136
99 139
99 148
99 149
100 101
100 103
100 106
100 108
100 109
100 112
100 116
100 121
100 126
100 134
100 137
100 139
100 141
100 148
101 107
101 109
101 111
101 116
101 117
101 120
101 123
101 127
101 130
101 131
101 143
101 147
102 105
102 106
102 108
102 110
102 111
102 112
102 118
102 119
102 121
102 122
102 124
102 125
102 131
102 132
102 133
102 136
102 140
102 145
102 146
102 148
102 149
103 110
103 113
103 114
103 115
103 120
103 121
103 122
103 124
103 128
103 131
103 139
103 141
103 149
104 106
104 109
104 112
104 126
104 131
104 133
104 138
104 140
104 145
104 148
105 109
105 111
105 112
105 123
105 129
105 131
105 133
105 136
105 141
105 146
105 147
105 148
106 111
106 116
106 127
106 133
106 134
106 135
106 141
107 108
107 113
107 116
107 117
107 122
107 124
107 133
107 136
107 142
107 146
107 147
108 110
108 113
108 114
108 115
108 116
108 124
108 125
108 127
108 128
108 133
108 136
108 139
108 140
108 142
108 146
109 110
109 112
109 114
109 121
109 122
109 125
109 126
109 128
109 134
109 135
109 137
109 138
109 142
109 146
110 113
110 125
110 127
110 135
110 140
110 142
110 148
111 114
111 118
111 119
111 122
111 126
111 127
111 129
111 131
111 135
111 138
111 141
111 142
111 144
111 148
112 113
112 115
112 118
112 123
112 126
112 132
112 136
112 139
112 142
112 145
112 149
113 115
113 121
113 125
113 130
113 131
113 135
113 137
113 142
113 143
113 148
114 120
114 127
114 128
114 132
114 133
114 137
114 138
114 142
114 145
115 120
115 128
115 129
115 131
115 133
115 134
115 147
115 148
116 122
116 124
116 127
116 128
116 129
116 141
116 142
116 143
116 148
117 118
117 119
117 122
117 126
117 127
117 128
117 140
117 142
117 144
117 148
118 134
118 143
118 144
118 147
118 149
119 120
119 123
119 125
119 127
119 133
119 136
119 145
119 149
120 121
120 124
120 125
120 127
120 130
120 131
120 132
120 134
120 147
120 148
120 149
121 132
121 134
121 137
121 138
121 139
121 144
121 145
121 146
121 148
122 128
122 129
122 132
122 134
122 135
122 144
122 146
122 148
123 124
123 138
123 140
123 141
123 142
123 147
124 125
124 136
124 138
124 139
124 141
124 142
124 147
124 149
125 126
125 129
125 136
125 144
125 148
125 149
126 131
126 132
126 133
126 137
126 146
126 148
127 130
127 132
127 134
127 139
127 143
127 145
127 148
128 130
128 135
128 137
128 142
129 130
129 134
129 136
129 141
129 146
129 148
129 149
130 137
130 142
130 143
130 144
130 145
130 147
131 132
131 133
131 139
131 140
131 145
132 134
132 135
132 144
132 145
132 149
133 135
133 136
133 139
133 141
133 149
134 143
134 147
135 137
135 139
135 141
135 145
135 148
136 140
136 143
136 144
136 146
136 147
136 148
136 149
137 139
137 141
137 144
137 146
137 148
138 140
138 144
139 142
139 148
140 141
140 144
141 144
141 145
141 149
142 148
143 146
143 147
145 149
