150:5567
0 2
0 3
0 4
0 6
0 13
0 14
0 15
0 18
0 19
0 20
0 21
0 22
0 23
0 26
0 28
0 29
0 33
0 35
0 36
0 39
0 40
0 42
0 44
0 46
0 47
0 49
0 51
0 52
0 56
0 57
0 61
0 64
0 69
0 71
0 72
0 73
0 74
0 75
0 76
0 77
0 78
0 79
0 80
0 81
0 82
0 83
0 84
0 87
0 88
0 90
0 91
0 93
0 96
0 97
0 98
0 99
0 100
0 101
0 102
0 103
0 104
0 106
0 110
0 111
0 112
0 113
0 115
0 116
0 117
0 118
0 122
0 123
0 128
0 129
0 130
0 131
0 132
0 134
0 135
0 136
0 139
0 140
0 145
0 147
0 149
1 5
1 6
1 7
1 8
1 11
1 13
1 15
1 16
1 18
1 19
1 22
1 23
1 24
1 26
1 28
1 29
1 30
1 32
1 33
1 34
1 40
1 41
1 44
1 49
1 50
1 53
1 56
1 57
1 59
1 60
1 62
1 63
1 66
1 67
1 68
1 71
1 73
1 74
1 75
1 78
1 79
1 84
1 85
1 86
1 87
1 88
1 90
1 91
1 92
1 95
1 98
1 99
1 101
1 104
1 105
1 109
1 110
1 115
1 116
1 117
1 118
1 122
1 123
1 124
1 126
1 128
1 129
1 130
1 134
1 135
1 136
1 138
1 140
1 146
1 149
2 4
2 6
2 9
2 11
2 12
2 15
2 16
2 17
2 19
2 21
2 22
2 24
2 25
2 27
2 28
2 29
2 30
2 32
2 33
2 35
2 38
2 39
2 40
2 41
2 43
2 45
2 46
2 48
2 49
2 51
2 53
2 55
2 57
2 58
2 60
2 61
2 66
2 67
2 71
2 73
2 74
2 75
2 77
2 79
2 80
2 86
2 88
2 89
2 92
2 95
2 96
2 98
2 103
2 104
2 107
2 108
2 109
2 110
2 111
2 114
2 116
2 118
2 119
2 120
2 122
2 123
2 124
2 127
2 128
2 129
2 130
2 132
2 136
2 138
2 139
2 140
2 141
2 142
2 143
2 147
2 148
3 6
3 7
3 8
3 10
3 13
3 15
3 18
3 21
3 22
3 25
3 26
3 32
3 36
3 37
3 38
3 40
3 41
3 44
3 47
3 48
3 49
3 52
3 53
3 55
3 57
3 58
3 59
3 61
3 62
3 64
3 65
3 66
3 67
3 70
3 71
3 72
3 73
3 74
3 76
3 81
3 82
3 87
3 89
3 91
3 93
3 95
3 96
3 97
3 98
3 101
3 102
3 104
3 106
3 109
3 111
3 114
3 115
3 117
3 121
3 123
3 124
3 125
3 126
3 129
3 131
3 132
3 135
3 136
3 138
3 139
3 140
3 142
3 143
3 146
3 148
4 5
4 7
4 8
4 10
4 11
4 12
4 14
4 15
4 17
4 18
4 19
4 20
4 21
4 22
4 24
4 25
4 28
4 32
4 38
4 39
4 42
4 44
4 45
4 46
4 51
4 52
4 53
4 54
4 55
4 58
4 59
4 60
4 64
4 65
4 67
4 68
4 69
4 70
4 71
4 72
4 83
4 84
4 87
4 89
4 90
4 91
4 93
4 95
4 98
4 100
4 101
4 103
4 105
4 106
4 107
4 109
4 110
4 112
4 113
4 117
4 120
4 121
4 122
4 123
4 125
4 128
4 129
4 130
4 132
4 133
4 136
4 141
4 142
4 143
4 145
4 149
5 7
5 8
5 9
5 10
5 14
5 16
5 19
5 20
5 21
5 28
5 29
5 30
5 32
5 33
5 36
5 37
5 38
5 39
5 40
5 42
5 44
5 46
5 48
5 49
5 51
5 52
5 56
5 57
5 59
5 62
5 63
5 65
5 69
5 72
5 75
5 76
5 79
5 81
5 83
5 86
5 95
5 97
5 99
5 100
5 101
5 104
5 106
5 108
5 110
5 112
5 113
5 115
5 117
5 118
5 122
5 123
5 125
5 128
5 129
5 130
5 132
5 135
5 139
5 140
5 141
5 145
5 146
5 147
6 7
6 9
6 13
6 15
6 21
6 22
6 24
6 25
6 28
6 29
6 32
6 33
6 35
6 36
6 37
6 40
6 41
6 42
6 43
6 47
6 48
6 50
6 52
6 54
6 56
6 57
6 58
6 59
6 61
6 62
6 63
6 67
6 68
6 70
6 71
6 72
6 74
6 76
6 77
6 78
6 79
6 81
6 83
6 84
6 85
6 87
6 90
6 91
6 95
6 96
6 99
6 102
6 104
6 106
6 107
6 110
6 112
6 113
6 116
6 118
6 120
6 122
6 123
6 126
6 127
6 128
6 129
6 133
6 135
6 136
6 138
6 139
6 140
6 142
6 143
6 147
6 148
6 149
7 8
7 9
7 12
7 14
7 16
7 18
7 19
7 22
7 23
7 24
7 26
7 27
7 28
7 30
7 31
7 32
7 33
7 35
7 36
7 39
7 45
7 46
7 49
7 51
7 53
7 54
7 56
7 57
7 58
7 60
7 61
7 63
7 70
7 71
7 73
7 75
7 77
7 79
7 80
7 81
7 90
7 91
7 92
7 93
7 94
7 98
7 100
7 103
7 107
7 108
7 109
7 112
7 113
7 114
7 119
7 122
7 129
7 131
7 133
7 134
7 138
7 139
7 141
7 143
7 146
7 148
8 9
8 11
8 12
8 13
8 14
8 16
8 17
8 18
8 19
8 20
8 21
8 23
8 25
8 28
8 29
8 33
8 34
8 35
8 36
8 37
8 40
8 41
8 45
8 47
8 51
8 52
8 56
8 57
8 60
8 61
8 64
8 65
8 66
8 67
8 68
8 69
8 72
8 74
8 78
8 81
8 83
8 84
8 85
8 89
8 90
8 92
8 97
8 101
8 102
8 103
8 104
8 108
8 115
8 116
8 117
8 120
8 121
8 124
8 126
8 128
8 129
8 131
8 136
8 141
8 142
8 144
8 146
8 148
8 149
9 10
9 13
9 16
9 17
9 18
9 19
9 20
9 22
9 24
9 26
9 27
9 28
9 29
9 32
9 33
9 36
9 42
9 45
9 48
9 50
9 51
9 55
9 56
9 57
9 59
9 61
9 66
9 68
9 69
9 70
9 71
9 72
9 73
9 76
9 77
9 79
9 80
9 81
9 82
9 83
9 84
9 87
9 89
9 90
9 91
9 93
9 94
9 95
9 97
9 99
9 102
9 104
9 108
9 110
9 114
9 116
9 117
9 119
9 120
9 125
9 126
9 127
9 128
9 131
9 133
9 136
9 137
9 139
9 140
9 141
9 144
9 147
9 148
10 13
10 14
10 15
10 17
10 18
10 21
10 25
10 27
10 31
10 34
10 35
10 42
10 43
10 50
10 51
10 54
10 55
10 57
10 58
10 62
10 63
10 65
10 67
10 68
10 71
10 73
10 74
10 75
10 78
10 81
10 82
10 83
10 90
10 97
10 98
10 102
10 105
10 106
10 107
10 109
10 110
10 111
10 112
10 116
10 122
10 125
10 130
10 133
10 134
10 137
10 138
10 139
10 140
10 141
10 142
10 146
10 149
11 14
11 15
11 16
11 17
11 18
11 19
11 22
11 23
11 25
11 26
11 27
11 28
11 31
11 32
11 36
11 41
11 42
11 43
11 46
11 48
11 49
11 50
11 51
11 52
11 53
11 54
11 57
11 58
11 60
11 61
11 66
11 67
11 68
11 69
11 70
11 71
11 75
11 80
11 82
11 83
11 86
11 87
11 94
11 97
11 99
11 100
11 101
11 104
11 105
11 106
11 110
11 111
11 114
11 117
11 122
11 123
11 124
11 125
11 129
11 133
11 137
11 138
11 140
11 141
11 142
11 148
12 14
12 17
12 20
12 24
12 25
12 27
12 29
12 30
12 32
12 36
12 37
12 42
12 43
12 46
12 47
12 48
12 49
12 51
12 53
12 56
12 57
12 62
12 64
12 66
12 67
12 69
12 71
12 72
12 74
12 75
12 78
12 80
12 82
12 88
12 89
12 91
12 95
12 96
12 99
12 103
12 104
12 106
12 109
12 110
12 111
12 112
12 116
12 119
12 121
12 122
12 123
12 124
12 126
12 132
12 136
12 138
12 139
12 141
12 143
12 144
12 149
13 15
13 16
13 17
13 19
13 20
13 21
13 22
13 25
13 28
13 29
13 33
13 34
13 36
13 37
13 38
13 40
13 42
13 45
13 47
13 48
13 49
13 50
13 51
13 53
13 59
13 61
13 62
13 66
13 67
13 69
13 70
13 72
13 82
13 83
13 85
13 86
13 91
13 92
13 94
13 97
13 99
13 100
13 101
13 105
13 108
13 109
13 110
13 111
13 112
13 113
13 116
13 117
13 118
13 119
13 120
13 121
13 122
13 124
13 125
13 129
13 130
13 131
13 132
13 134
13 135
13 136
13 137
13 140
13 142
13 143
13 144
13 147
14 17
14 18
14 19
14 24
14 26
14 27
14 29
14 30
14 31
14 32
14 34
14 35
14 36
14 38
14 41
14 42
14 45
14 47
14 48
14 49
14 52
14 53
14 54
14 58
14 59
14 60
14 61
14 64
14 65
14 66
14 69
14 70
14 71
14 72
14 73
14 76
14 84
14 86
14 87
14 90
14 91
14 92
14 94
14 95
14 96
14 97
14 98
14 101
14 102
14 103
14 104
14 105
14 106
14 107
14 109
14 113
14 117
14 121
14 123
14 124
14 127
14 133
14 135
14 137
14 143
14 144
15 23
15 24
15 25
15 27
15 28
15 34
15 36
15 37
15 38
15 41
15 42
15 44
15 46
15 48
15 49
15 54
15 59
15 60
15 63
15 65
15 67
15 68
15 71
15 73
15 75
15 80
15 82
15 83
15 86
15 87
15 94
15 95
15 96
15 98
15 99
15 103
15 106
15 107
15 112
15 115
15 116
15 118
15 122
15 123
15 126
15 127
15 130
15 131
15 136
15 141
15 142
15 143
15 146
16 17
16 18
16 20
16 22
16 28
16 29
16 30
16 33
16 34
16 36
16 38
16 40
16 41
16 44
16 46
16 49
16 53
16 54
16 57
16 58
16 59
16 61
16 64
16 65
16 67
16 69
16 70
16 72
16 73
16 76
16 77
16 79
16 80
16 83
16 84
16 85
16 87
16 88
16 89
16 90
16 94
16 95
16 97
16 98
16 99
16 102
16 106
16 107
16 109
16 110
16 111
16 115
16 117
16 118
16 120
16 121
16 125
16 129
16 130
16 131
16 132
16 136
16 137
16 140
16 142
16 146
17 19
17 20
17 22
17 23
17 24
17 26
17 31
17 33
17 35
17 37
17 38
17 40
17 42
17 44
17 45
17 47
17 53
17 55
17 56
17 57
17 59
17 61
17 62
17 63
17 65
17 67
17 68
17 69
17 73
17 74
17 76
17 79
17 80
17 82
17 83
17 89
17 90
17 92
17 93
17 97
17 101
17 103
17 104
17 106
17 110
17 113
17 116
17 118
17 120
17 121
17 122
17 123
17 124
17 127
17 129
17 132
17 137
17 139
17 141
17 142
17 144
17 145
18 22
18 24
18 26
18 28
18 31
18 32
18 35
18 36
18 38
18 39
18 40
18 41
18 43
18 48
18 49
18 52
18 53
18 54
18 55
18 57
18 58
18 62
18 65
18 66
18 68
18 71
18 72
18 73
18 76
18 77
18 79
18 81
18 84
18 85
18 86
18 88
18 89
18 90
18 93
18 94
18 95
18 96
18 98
18 100
18 102
18 103
18 105
18 111
18 112
18 113
18 114
18 117
18 121
18 123
18 124
18 126
18 127
18 128
18 129
18 130
18 131
18 133
18 134
18 136
18 139
18 140
18 141
18 144
18 145
18 149
19 24
19 25
19 30
19 31
19 32
19 36
19 37
19 38
19 39
19 42
19 44
19 45
19 46
19 48
19 49
19 53
19 55
19 57
19 63
19 64
19 65
19 68
19 70
19 71
19 72
19 73
19 75
19 76
19 79
19 83
19 84
19 86
19 87
19 89
19 90
19 92
19 94
19 96
19 99
19 103
19 106
19 107
19 109
19 111
19 113
19 114
19 115
19 117
19 118
19 119
19 120
19 121
19 123
19 130
19 131
19 134
19 135
19 138
19 140
19 141
19 142
19 143
19 144
19 147
19 149
20 23
20 24
20 31
20 32
20 33
20 37
20 38
20 39
20 40
20 43
20 46
20 50
20 52
20 55
20 56
20 58
20 60
20 62
20 63
20 64
20 65
20 66
20 67
20 69
20 70
20 73
20 74
20 76
20 80
20 81
20 82
20 85
20 86
20 88
20 94
20 95
20 96
20 97
20 100
20 101
20 102
20 104
20 105
20 106
20 107
20 108
20 110
20 111
20 113
20 115
20 117
20 120
20 121
20 122
20 123
20 131
20 132
20 133
20 135
20 137
20 139
20 140
20 142
20 145
20 147
21 22
21 24
21 25
21 27
21 30
21 31
21 33
21 36
21 45
21 46
21 47
21 49
21 51
21 54
21 55
21 59
21 60
21 61
21 62
21 64
21 65
21 67
21 68
21 69
21 73
21 79
21 82
21 83
21 84
21 85
21 87
21 88
21 92
21 93
21 94
21 96
21 99
21 100
21 105
21 106
21 107
21 108
21 110
21 111
21 112
21 113
21 114
21 115
21 116
21 121
21 122
21 123
21 125
21 126
21 127
21 130
21 134
21 137
21 138
21 139
21 140
21 141
21 145
21 148
22 24
22 26
22 28
22 29
22 30
22 31
22 37
22 39
22 42
22 44
22 46
22 47
22 49
22 50
22 54
22 61
22 64
22 65
22 66
22 67
22 68
22 70
22 71
22 72
22 74
22 76
22 77
22 78
22 81
22 83
22 85
22 88
22 91
22 95
22 98
22 99
22 100
22 101
22 106
22 107
22 110
22 111
22 112
22 114
22 115
22 121
22 125
22 128
22 129
22 130
22 132
22 133
22 134
22 135
22 143
22 147
22 148
22 149
23 24
23 25
23 26
23 27
23 32
23 35
23 37
23 38
23 42
23 43
23 46
23 52
23 53
23 55
23 61
23 62
23 64
23 68
23 69
23 70
23 72
23 74
23 78
23 79
23 80
23 83
23 86
23 88
23 89
23 91
23 92
23 94
23 95
23 97
23 98
23 99
23 100
23 101
23 102
23 103
23 104
23 107
23 108
23 109
23 114
23 116
23 117
23 118
23 119
23 120
23 122
23 125
23 126
23 128
23 131
23 132
23 133
23 135
23 136
23 137
23 142
23 143
23 144
23 146
23 147
23 148
23 149
24 26
24 28
24 29
24 30
24 32
24 33
24 35
24 36
24 37
24 38
24 42
24 45
24 47
24 48
24 54
24 59
24 60
24 62
24 63
24 64
24 65
24 66
24 69
24 70
24 71
24 72
24 73
24 76
24 77
24 78
24 79
24 82
24 83
24 86
24 87
24 88
24 91
24 93
24 94
24 96
24 98
24 100
24 101
24 103
24 104
24 105
24 107
24 109
24 110
24 112
24 115
24 116
24 117
24 118
24 121
24 126
24 131
24 132
24 136
24 137
24 143
24 144
24 145
24 148
25 26
25 28
25 29
25 30
25 32
25 34
25 35
25 37
25 40
25 41
25 44
25 45
25 47
25 51
25 54
25 55
25 56
25 59
25 60
25 63
25 64
25 65
25 70
25 73
25 74
25 75
25 76
25 79
25 87
25 88
25 92
25 93
25 95
25 101
25 105
25 107
25 108
25 109
25 114
25 116
25 118
25 119
25 121
25 124
25 127
25 128
25 129
25 130
25 136
25 137
25 139
25 140
25 141
25 146
25 147
25 149
26 28
26 29
26 31
26 32
26 34
26 35
26 36
26 37
26 38
26 39
26 40
26 41
26 42
26 47
26 48
26 50
26 54
26 55
26 56
26 57
26 61
26 63
26 64
26 65
26 66
26 67
26 68
26 69
26 73
26 74
26 76
26 79
26 83
26 84
26 87
26 90
26 93
26 96
26 99
26 101
26 102
26 103
26 105
26 108
26 113
26 114
26 115
26 116
26 117
26 120
26 121
26 122
26 123
26 126
26 127
26 128
26 131
26 133
26 134
26 137
26 138
26 139
26 142
26 143
26 145
26 148
26 149
27 29
27 32
27 36
27 37
27 39
27 40
27 44
27 45
27 46
27 51
27 53
27 55
27 57
27 60
27 61
27 63
27 65
27 67
27 69
27 71
27 73
27 76
27 77
27 78
27 79
27 80
27 82
27 85
27 86
27 88
27 90
27 92
27 93
27 94
27 95
27 97
27 98
27 100
27 101
27 103
27 105
27 106
27 110
27 114
27 115
27 116
27 118
27 122
27 124
27 125
27 126
27 127
27 128
27 129
27 132
27 134
27 137
27 141
27 144
27 146
27 149
28 29
28 31
28 34
28 35
28 37
28 38
28 41
28 44
28 45
28 48
28 49
28 50
28 54
28 55
28 57
28 59
28 60
28 63
28 64
28 67
28 69
28 71
28 73
28 74
28 81
28 82
28 84
28 87
28 89
28 90
28 91
28 92
28 94
28 95
28 96
28 98
28 99
28 101
28 103
28 104
28 109
28 110
28 112
28 113
28 115
28 116
28 118
28 120
28 126
28 127
28 129
28 130
28 131
28 134
28 137
28 139
28 143
28 146
28 148
29 30
29 34
29 35
29 38
29 44
29 49
29 50
29 53
29 54
29 55
29 57
29 59
29 60
29 61
29 65
29 66
29 68
29 69
29 71
29 75
29 78
29 80
29 81
29 84
29 85
29 87
29 89
29 90
29 92
29 93
29 95
29 98
29 100
29 101
29 102
29 103
29 105
29 107
29 112
29 113
29 114
29 115
29 117
29 119
29 120
29 121
29 122
29 123
29 124
29 125
29 126
29 127
29 128
29 129
29 130
29 133
29 134
29 135
29 136
29 138
29 139
29 141
29 142
29 145
29 146
29 149
30 32
30 35
30 37
30 39
30 41
30 42
30 44
30 47
30 52
30 58
30 60
30 61
30 62
30 66
30 67
30 68
30 70
30 71
30 72
30 76
30 79
30 81
30 84
30 85
30 86
30 87
30 88
30 89
30 90
30 91
30 92
30 94
30 98
30 101
30 102
30 104
30 105
30 107
30 108
30 109
30 111
30 112
30 113
30 116
30 117
30 118
30 119
30 120
30 121
30 122
30 126
30 128
30 129
30 130
30 131
30 133
30 135
30 137
30 138
30 141
30 142
30 143
30 147
31 32
31 33
31 36
31 39
31 40
31 43
31 48
31 51
31 53
31 55
31 58
31 59
31 60
31 61
31 62
31 63
31 65
31 66
31 68
31 70
31 71
31 74
31 75
31 80
31 82
31 83
31 84
31 90
31 91
31 93
31 94
31 95
31 96
31 97
31 98
31 102
31 103
31 104
31 107
31 108
31 111
31 114
31 117
31 121
31 124
31 125
31 126
31 127
31 128
31 129
31 130
31 131
31 134
31 135
31 136
31 137
31 138
31 139
31 140
31 141
31 142
31 146
31 149
32 33
32 34
32 43
32 46
32 50
32 53
32 54
32 56
32 57
32 64
32 65
32 68
32 70
32 72
32 75
32 76
32 77
32 79
32 80
32 81
32 83
32 85
32 88
32 90
32 92
32 93
32 95
32 99
32 100
32 101
32 102
32 103
32 107
32 108
32 110
32 111
32 116
32 117
32 120
32 121
32 122
32 124
32 128
32 129
32 130
32 132
32 133
32 137
32 138
32 141
32 143
32 147
32 148
33 36
33 37
33 40
33 44
33 45
33 47
33 49
33 50
33 51
33 52
33 56
33 59
33 62
33 64
33 66
33 67
33 70
33 71
33 72
33 84
33 85
33 86
33 88
33 89
33 90
33 96
33 100
33 103
33 106
33 107
33 109
33 113
33 114
33 118
33 122
33 125
33 126
33 127
33 128
33 129
33 131
33 133
33 135
33 136
33 142
33 144
34 37
34 38
34 39
34 40
34 41
34 42
34 43
34 45
34 46
34 47
34 49
34 53
34 54
34 56
34 59
34 61
34 62
34 69
34 70
34 72
34 73
34 74
34 75
34 76
34 78
34 79
34 84
34 86
34 87
34 90
34 93
34 94
34 96
34 97
34 98
34 100
34 103
34 104
34 105
34 107
34 109
34 110
34 113
34 115
34 116
34 118
34 121
34 122
34 124
34 126
34 127
34 129
34 134
34 135
34 136
34 137
34 138
34 140
34 142
34 144
34 145
34 148
35 38
35 39
35 40
35 42
35 43
35 51
35 52
35 53
35 55
35 58
35 60
35 61
35 62
35 63
35 65
35 67
35 70
35 72
35 74
35 79
35 80
35 81
35 82
35 83
35 85
35 86
35 93
35 94
35 95
35 97
35 98
35 103
35 104
35 106
35 107
35 109
35 112
35 114
35 117
35 119
35 120
35 122
35 123
35 126
35 131
35 137
35 140
35 142
35 143
35 145
35 147
35 149
36 37
36 39
36 40
36 42
36 46
36 47
36 49
36 50
36 56
36 58
36 59
36 60
36 61
36 64
36 66
36 73
36 75
36 80
36 81
36 85
36 86
36 87
36 88
36 89
36 90
36 92
36 93
36 98
36 99
36 100
36 101
36 102
36 105
36 106
36 114
36 115
36 116
36 117
36 118
36 119
36 120
36 121
36 125
36 130
36 131
36 132
36 133
36 136
36 137
36 141
36 146
36 148
36 149
37 38
37 39
37 42
37 44
37 50
37 55
37 56
37 58
37 59
37 60
37 62
37 65
37 67
37 72
37 75
37 76
37 77
37 78
37 79
37 81
37 84
37 88
37 91
37 92
37 95
37 96
37 98
37 100
37 101
37 102
37 103
37 104
37 112
37 113
37 114
37 115
37 120
37 121
37 122
37 130
37 131
37 133
37 134
37 135
37 136
37 137
37 138
37 141
37 142
37 144
37 145
37 146
37 149
38 39
38 40
38 48
38 49
38 50
38 52
38 53
38 57
38 58
38 60
38 61
38 62
38 63
38 67
38 68
38 69
38 71
38 73
38 75
38 81
38 82
38 84
38 85
38 86
38 87
38 88
38 89
38 91
38 93
38 94
38 95
38 96
38 97
38 99
38 103
38 104
38 107
38 109
38 111
38 113
38 116
38 117
38 118
38 119
38 120
38 121
38 122
38 124
38 125
38 127
38 128
38 129
38 132
38 135
38 138
38 139
38 142
38 149
39 43
39 45
39 47
39 48
39 49
39 50
39 51
39 52
39 57
39 59
39 62
39 67
39 69
39 71
39 73
39 75
39 78
39 80
39 82
39 84
39 86
39 87
39 89
39 91
39 93
39 96
39 97
39 98
39 101
39 102
39 103
39 104
39 106
39 107
39 108
39 109
39 112
39 114
39 115
39 117
39 118
39 119
39 123
39 125
39 126
39 127
39 128
39 129
39 130
39 131
39 133
39 134
39 136
39 142
39 143
39 144
39 145
39 148
39 149
40 41
40 42
40 44
40 45
40 46
40 47
40 49
40 51
40 52
40 53
40 55
40 57
40 60
40 62
40 63
40 64
40 66
40 67
40 68
40 69
40 72
40 78
40 79
40 80
40 81
40 85
40 86
40 87
40 88
40 89
40 90
40 93
40 97
40 98
40 105
40 109
40 111
40 113
40 114
40 115
40 117
40 122
40 124
40 126
40 128
40 130
40 132
40 133
40 134
40 135
40 137
40 139
40 148
40 149
41 42
41 43
41 44
41 45
41 46
41 48
41 49
41 51
41 54
41 59
41 61
41 66
41 67
41 68
41 69
41 71
41 77
41 78
41 79
41 82
41 84
41 85
41 86
41 89
41 90
41 91
41 94
41 96
41 98
41 103
41 104
41 105
41 108
41 110
41 112
41 114
41 119
41 121
41 122
41 123
41 124
41 127
41 128
41 129
41 131
41 132
41 133
41 138
41 142
41 143
41 146
41 147
42 44
42 45
42 47
42 53
42 54
42 60
42 62
42 67
42 69
42 70
42 71
42 74
42 79
42 80
42 83
42 84
42 85
42 89
42 90
42 91
42 93
42 94
42 95
42 96
42 98
42 100
42 101
42 103
42 104
42 105
42 106
42 112
42 113
42 118
42 119
42 120
42 121
42 125
42 128
42 130
42 131
42 132
42 133
42 135
42 136
42 137
42 139
42 140
42 144
42 145
42 146
42 148
43 45
43 51
43 52
43 53
43 54
43 56
43 57
43 58
43 68
43 69
43 70
43 74
43 75
43 76
43 77
43 80
43 82
43 83
43 85
43 86
43 87
43 91
43 93
43 95
43 98
43 99
43 100
43 106
43 107
43 110
43 111
43 112
43 113
43 114
43 115
43 117
43 122
43 123
43 128
43 131
43 133
43 135
43 136
43 137
43 139
43 140
43 142
43 147
43 149
44 45
44 46
44 47
44 49
44 53
44 58
44 59
44 62
44 63
44 64
44 65
44 66
44 67
44 68
44 72
44 75
44 81
44 82
44 86
44 87
44 88
44 89
44 92
44 94
44 95
44 96
44 97
44 99
44 101
44 102
44 103
44 105
44 107
44 109
44 112
44 115
44 117
44 122
44 123
44 128
44 129
44 131
44 132
44 134
44 138
44 140
44 141
44 144
44 145
44 147
44 148
45 46
45 47
45 52
45 53
45 57
45 60
45 61
45 64
45 65
45 67
45 68
45 69
45 74
45 78
45 79
45 83
45 84
45 85
45 86
45 88
45 90
45 91
45 92
45 93
45 94
45 96
45 98
45 99
45 100
45 101
45 103
45 104
45 105
45 108
45 109
45 111
45 112
45 113
45 114
45 115
45 116
45 119
45 120
45 122
45 123
45 125
45 127
45 128
45 129
45 130
45 132
45 140
45 143
45 144
45 145
45 146
45 147
45 148
45 149
46 49
46 50
46 51
46 54
46 56
46 57
46 58
46 61
46 64
46 66
46 67
46 71
46 72
46 73
46 77
46 78
46 83
46 85
46 87
46 89
46 90
46 91
46 92
46 93
46 94
46 96
46 97
46 99
46 100
46 104
46 105
46 107
46 108
46 111
46 113
46 116
46 117
46 119
46 122
46 123
46 127
46 128
46 132
46 134
46 137
46 138
46 143
46 144
46 145
46 147
46 149
47 51
47 52
47 53
47 56
47 57
47 60
47 61
47 63
47 66
47 67
47 70
47 71
47 72
47 73
47 75
47 77
47 78
47 82
47 83
47 84
47 87
47 88
47 89
47 93
47 94
47 97
47 100
47 102
47 103
47 105
47 107
47 110
47 111
47 112
47 115
47 118
47 119
47 121
47 122
47 126
47 128
47 130
47 132
47 133
47 134
47 138
47 141
47 143
47 146
47 148
48 51
48 52
48 53
48 57
48 59
48 60
48 61
48 62
48 63
48 66
48 67
48 69
48 70
48 71
48 74
48 78
48 80
48 83
48 84
48 92
48 93
48 94
48 95
48 97
48 98
48 99
48 104
48 107
48 109
48 113
48 115
48 116
48 117
48 120
48 121
48 125
48 126
48 127
48 128
48 131
48 132
48 134
48 137
48 139
48 140
48 144
48 145
49 52
49 55
49 56
49 60
49 61
49 62
49 64
49 65
49 66
49 68
49 69
49 70
49 71
49 72
49 73
49 75
49 80
49 85
49 86
49 88
49 91
49 92
49 93
49 94
49 96
49 98
49 100
49 103
49 104
49 106
49 107
49 108
49 111
49 112
49 113
49 115
49 117
49 119
49 121
49 122
49 123
49 124
49 126
49 127
49 129
49 130
49 135
49 140
49 141
49 142
49 143
49 145
49 146
49 148
50 53
50 54
50 55
50 56
50 58
50 60
50 61
50 62
50 63
50 65
50 67
50 68
50 69
50 70
50 72
50 74
50 75
50 77
50 78
50 79
50 81
50 84
50 85
50 86
50 87
50 91
50 94
50 95
50 96
50 98
50 101
50 104
50 106
50 116
50 117
50 123
50 124
50 125
50 128
50 129
50 131
50 133
50 134
50 135
50 136
50 140
50 141
50 142
50 144
50 145
50 146
50 147
50 148
50 149
51 55
51 57
51 58
51 60
51 62
51 64
51 65
51 66
51 72
51 73
51 75
51 77
51 78
51 80
51 81
51 85
51 86
51 87
51 88
51 89
51 90
51 91
51 93
51 94
51 97
51 99
51 105
51 106
51 107
51 120
51 121
51 122
51 125
51 126
51 128
51 129
51 130
51 133
51 137
51 138
51 141
51 142
51 145
51 146
51 148
52 53
52 54
52 56
52 58
52 59
52 60
52 61
52 62
52 63
52 64
52 65
52 68
52 69
52 70
52 73
52 74
52 75
52 76
52 80
52 81
52 84
52 90
52 92
52 93
52 95
52 96
52 103
52 109
52 111
52 112
52 115
52 118
52 120
52 124
52 127
52 128
52 130
52 131
52 132
52 135
52 136
52 137
52 139
52 141
52 142
52 143
52 144
52 147
52 149
53 54
53 55
53 61
53 63
53 64
53 66
53 67
53 68
53 69
53 71
53 73
53 74
53 75
53 76
53 80
53 83
53 85
53 86
53 87
53 89
53 96
53 98
53 101
53 107
53 108
53 112
53 114
53 115
53 118
53 120
53 121
53 122
53 123
53 125
53 127
53 128
53 129
53 135
53 138
53 143
53 145
53 146
53 147
53 148
54 65
54 66
54 70
54 72
54 73
54 74
54 75
54 77
54 79
54 80
54 84
54 85
54 88
54 89
54 98
54 99
54 101
54 107
54 108
54 109
54 111
54 114
54 116
54 117
54 118
54 120
54 122
54 126
54 127
54 129
54 135
54 142
54 144
54 145
54 146
54 147
54 148
54 149
55 57
55 64
55 68
55 69
55 70
55 71
55 72
55 73
55 75
55 78
55 80
55 83
55 86
55 87
55 96
55 97
55 101
55 103
55 105
55 107
55 109
55 111
55 112
55 113
55 114
55 116
55 117
55 118
55 121
55 123
55 126
55 132
55 133
55 134
55 136
55 138
55 139
55 147
56 57
56 58
56 59
56 62
56 65
56 67
56 70
56 73
56 83
56 84
56 85
56 87
56 90
56 91
56 92
56 93
56 94
56 95
56 97
56 98
56 99
56 100
56 102
56 103
56 104
56 105
56 108
56 109
56 112
56 116
56 118
56 121
56 122
56 123
56 126
56 129
56 131
56 134
56 135
56 138
56 139
56 141
56 144
56 145
56 148
56 149
57 58
57 60
57 61
57 63
57 65
57 66
57 67
57 69
57 72
57 74
57 75
57 76
57 77
57 80
57 82
57 86
57 87
57 88
57 89
57 90
57 92
57 94
57 95
57 97
57 98
57 99
57 100
57 101
57 102
57 106
57 109
57 111
57 112
57 113
57 114
57 115
57 117
57 118
57 120
57 121
57 127
57 128
57 130
57 131
57 132
57 136
57 139
57 140
57 143
57 144
57 147
57 148
58 59
58 60
58 61
58 69
58 72
58 73
58 75
58 76
58 79
58 82
58 84
58 85
58 87
58 88
58 89
58 91
58 92
58 93
58 94
58 97
58 98
58 99
58 102
58 103
58 105
58 106
58 108
58 109
58 110
58 113
58 114
58 115
58 117
58 119
58 120
58 122
58 124
58 127
58 129
58 130
58 131
58 133
58 135
58 137
58 140
58 142
58 146
58 149
59 60
59 61
59 62
59 63
59 64
59 65
59 67
59 69
59 70
59 71
59 73
59 78
59 82
59 83
59 85
59 88
59 89
59 90
59 94
59 98
59 100
59 105
59 106
59 109
59 110
59 111
59 112
59 113
59 115
59 119
59 120
59 121
59 122
59 123
59 124
59 127
59 129
59 131
59 136
59 138
59 139
59 140
59 142
59 143
59 145
59 149
60 62
60 63
60 64
60 66
60 67
60 70
60 71
60 72
60 83
60 84
60 85
60 86
60 88
60 89
60 90
60 91
60 92
60 93
60 94
60 95
60 96
60 98
60 100
60 101
60 104
60 110
60 111
60 112
60 113
60 114
60 117
60 118
60 121
60 122
60 123
60 125
60 127
60 129
60 130
60 133
60 134
60 135
60 137
60 139
60 140
60 141
60 143
60 144
60 147
60 149
61 62
61 65
61 69
61 71
61 73
61 74
61 75
61 76
61 80
61 81
61 86
61 88
61 90
61 92
61 94
61 97
61 98
61 101
61 102
61 103
61 104
61 107
61 108
61 110
61 111
61 112
61 113
61 115
61 116
61 117
61 119
61 121
61 122
61 125
61 127
61 129
61 132
61 133
61 136
61 139
61 140
61 141
61 144
61 145
62 63
62 64
62 65
62 66
62 67
62 69
62 70
62 71
62 75
62 79
62 80
62 82
62 84
62 87
62 89
62 90
62 95
62 97
62 98
62 99
62 101
62 102
62 103
62 104
62 105
62 111
62 116
62 117
62 119
62 121
62 123
62 128
62 132
62 133
62 137
62 139
62 140
62 144
62 145
62 146
62 147
62 148
63 64
63 65
63 66
63 67
63 69
63 70
63 71
63 72
63 73
63 76
63 77
63 78
63 80
63 82
63 83
63 84
63 85
63 86
63 90
63 91
63 93
63 95
63 98
63 99
63 100
63 101
63 102
63 104
63 107
63 108
63 109
63 111
63 112
63 114
63 116
63 117
63 120
63 122
63 123
63 126
63 128
63 129
63 130
63 131
63 133
63 137
63 138
63 140
63 143
63 147
64 67
64 73
64 75
64 76
64 77
64 79
64 80
64 82
64 83
64 85
64 86
64 88
64 89
64 94
64 103
64 105
64 106
64 107
64 108
64 112
64 113
64 114
64 115
64 116
64 117
64 119
64 120
64 121
64 122
64 123
64 125
64 126
64 131
64 135
64 136
64 137
64 139
64 142
64 143
64 144
64 146
64 147
64 149
65 68
65 69
65 71
65 72
65 73
65 74
65 76
65 78
65 79
65 80
65 82
65 83
65 84
65 85
65 88
65 89
65 90
65 91
65 92
65 94
65 95
65 96
65 101
65 103
65 104
65 105
65 106
65 107
65 108
65 110
65 113
65 116
65 117
65 119
65 120
65 123
65 126
65 127
65 129
65 130
65 131
65 133
65 134
65 138
65 139
65 140
65 145
65 146
66 67
66 69
66 70
66 73
66 76
66 78
66 82
66 83
66 84
66 88
66 90
66 91
66 92
66 98
66 99
66 100
66 101
66 103
66 105
66 106
66 107
66 110
66 111
66 113
66 114
66 118
66 119
66 121
66 125
66 127
66 129
66 130
66 131
66 133
66 136
66 138
66 140
66 142
66 144
66 145
66 146
66 148
67 68
67 71
67 72
67 74
67 75
67 80
67 82
67 83
67 86
67 87
67 89
67 91
67 92
67 93
67 94
67 95
67 96
67 98
67 99
67 100
67 101
67 103
67 104
67 109
67 110
67 111
67 113
67 116
67 117
67 118
67 120
67 122
67 126
67 127
67 128
67 129
67 134
67 136
67 137
67 138
67 142
67 144
67 147
68 69
68 73
68 75
68 76
68 77
68 80
68 82
68 83
68 84
68 85
68 90
68 91
68 93
68 95
68 96
68 103
68 110
68 111
68 112
68 114
68 116
68 117
68 119
68 120
68 124
68 125
68 126
68 127
68 128
68 131
68 132
68 134
68 135
68 136
68 138
68 140
68 141
68 142
68 143
68 145
68 146
68 147
68 148
69 71
69 74
69 77
69 78
69 80
69 82
69 83
69 84
69 89
69 92
69 94
69 95
69 96
69 97
69 98
69 100
69 103
69 104
69 105
69 106
69 107
69 108
69 110
69 114
69 116
69 118
69 123
69 124
69 126
69 127
69 128
69 129
69 130
69 133
69 134
69 136
69 139
69 140
69 141
69 142
69 143
69 144
69 149
70 71
70 72
70 76
70 78
70 79
70 80
70 81
70 82
70 83
70 84
70 87
70 90
70 91
70 93
70 97
70 98
70 100
70 102
70 103
70 113
70 114
70 115
70 116
70 117
70 119
70 121
70 122
70 123
70 124
70 128
70 129
70 130
70 131
70 133
70 135
70 136
70 137
70 138
70 139
70 140
70 142
70 143
70 144
70 145
70 148
71 74
71 75
71 77
71 78
71 79
71 82
71 83
71 84
71 85
71 88
71 89
71 91
71 93
71 95
71 103
71 105
71 106
71 112
71 113
71 116
71 117
71 118
71 120
71 123
71 125
71 126
71 127
71 129
71 132
71 133
71 135
71 136
71 138
71 142
71 144
71 147
71 148
71 149
72 73
72 74
72 75
72 76
72 77
72 78
72 81
72 84
72 85
72 86
72 87
72 89
72 90
72 91
72 92
72 94
72 98
72 100
72 101
72 106
72 111
72 112
72 116
72 117
72 118
72 121
72 126
72 129
72 130
72 134
72 135
72 138
72 144
72 147
72 148
73 75
73 78
73 79
73 80
73 84
73 85
73 86
73 91
73 93
73 94
73 99
73 102
73 103
73 104
73 107
73 108
73 109
73 110
73 112
73 118
73 119
73 122
73 124
73 129
73 130
73 131
73 133
73 135
73 136
73 137
73 138
73 140
73 141
73 142
73 143
73 144
73 145
73 146
73 148
73 149
74 76
74 77
74 80
74 82
74 84
74 87
74 89
74 90
74 92
74 93
74 95
74 96
74 98
74 99
74 100
74 107
74 108
74 110
74 111
74 112
74 115
74 118
74 120
74 122
74 124
74 125
74 127
74 128
74 130
74 131
74 132
74 133
74 136
74 138
74 139
74 140
74 142
74 145
74 146
74 148
74 149
75 78
75 84
75 85
75 86
75 88
75 89
75 90
75 91
75 92
75 93
75 94
75 95
75 96
75 97
75 98
75 99
75 101
75 103
75 105
75 106
75 107
75 108
75 111
75 116
75 118
75 121
75 122
75 124
75 128
75 130
75 131
75 134
75 135
75 136
75 138
75 141
75 143
75 145
75 147
75 149
76 77
76 78
76 79
76 80
76 83
76 88
76 90
76 91
76 92
76 94
76 95
76 96
76 97
76 99
76 103
76 107
76 108
76 110
76 111
76 116
76 117
76 118
76 121
76 128
76 129
76 130
76 131
76 132
76 133
76 134
76 140
76 144
76 145
76 146
76 149
77 80
77 82
77 84
77 88
77 89
77 92
77 93
77 95
77 96
77 97
77 98
77 99
77 102
77 104
77 107
77 108
77 110
77 115
77 116
77 117
77 121
77 124
77 125
77 130
77 131
77 132
77 133
77 135
77 136
77 140
77 142
77 146
77 148
78 82
78 83
78 84
78 86
78 90
78 91
78 92
78 93
78 94
78 95
78 96
78 104
78 107
78 108
78 112
78 114
78 115
78 117
78 118
78 119
78 120
78 121
78 123
78 124
78 125
78 127
78 128
78 129
78 132
78 137
78 143
78 144
78 148
79 80
79 82
79 84
79 85
79 86
79 87
79 90
79 91
79 94
79 97
79 98
79 101
79 102
79 103
79 105
79 107
79 110
79 111
79 117
79 119
79 120
79 123
79 128
79 129
79 132
79 133
79 135
79 138
79 139
79 140
79 141
79 142
79 145
79 146
80 85
80 89
80 90
80 98
80 100
80 101
80 102
80 103
80 104
80 105
80 106
80 113
80 116
80 118
80 124
80 126
80 127
80 132
80 133
80 134
80 138
80 145
80 146
80 147
81 83
81 84
81 86
81 89
81 90
81 92
81 95
81 96
81 98
81 102
81 104
81 105
81 106
81 107
81 109
81 110
81 111
81 112
81 113
81 114
81 116
81 120
81 121
81 123
81 124
81 126
81 128
81 129
81 130
81 132
81 133
81 136
81 137
81 138
81 140
81 142
81 145
81 148
82 83
82 85
82 86
82 88
82 90
82 94
82 96
82 99
82 102
82 103
82 105
82 106
82 107
82 109
82 110
82 111
82 112
82 113
82 115
82 116
82 117
82 119
82 120
82 122
82 124
82 125
82 126
82 128
82 131
82 132
82 134
82 139
82 140
82 141
82 144
82 145
82 146
82 147
82 149
83 84
83 85
83 86
83 88
83 89
83 94
83 95
83 98
83 99
83 100
83 102
83 107
83 109
83 110
83 111
83 112
83 113
83 116
83 117
83 120
83 121
83 123
83 124
83 131
83 132
83 135
83 136
83 137
83 138
83 139
83 140
83 142
83 143
83 146
83 147
83 148
83 149
84 85
84 86
84 87
84 88
84 89
84 91
84 92
84 94
84 98
84 100
84 101
84 106
84 110
84 111
84 114
84 115
84 117
84 118
84 124
84 125
84 127
84 128
84 130
84 133
84 134
84 135
84 138
84 140
84 144
84 146
84 149
85 92
85 93
85 94
85 96
85 105
85 107
85 108
85 111
85 114
85 117
85 119
85 120
85 123
85 128
85 129
85 134
85 135
85 137
85 138
85 143
86 92
86 93
86 96
86 99
86 100
86 102
86 103
86 106
86 108
86 109
86 110
86 111
86 112
86 115
86 118
86 120
86 124
86 127
86 129
86 130
86 131
86 134
86 135
86 136
86 139
86 140
86 141
86 146
86 147
87 89
87 90
87 91
87 93
87 96
87 97
87 99
87 103
87 106
87 113
87 114
87 116
87 118
87 120
87 122
87 123
87 124
87 126
87 128
87 129
87 133
87 134
87 135
87 137
87 141
87 143
87 145
87 148
88 89
88 90
88 91
88 94
88 97
88 98
88 101
88 102
88 103
88 104
88 106
88 109
88 111
88 112
88 119
88 122
88 123
88 124
88 126
88 127
88 133
88 134
88 136
88 138
88 140
88 142
88 143
88 144
88 145
89 92
89 93
89 94
89 97
89 98
89 99
89 101
89 105
89 106
89 112
89 113
89 114
89 115
89 116
89 119
89 120
89 122
89 123
89 124
89 126
89 128
89 130
89 131
89 134
89 135
89 139
89 140
89 141
89 143
89 146
89 147
89 148
90 92
90 97
90 100
90 102
90 103
90 104
90 105
90 110
90 112
90 113
90 115
90 116
90 117
90 118
90 125
90 126
90 128
90 132
90 133
90 136
90 137
90 143
90 147
90 149
91 101
91 105
91 109
91 110
91 113
91 114
91 115
91 117
91 118
91 126
91 127
91 129
91 130
91 134
91 138
91 139
91 141
91 142
91 144
91 145
91 146
91 149
92 93
92 94
92 95
92 98
92 99
92 101
92 102
92 103
92 104
92 106
92 109
92 111
92 112
92 114
92 115
92 117
92 120
92 125
92 131
92 132
92 134
92 135
92 136
92 137
92 138
92 141
92 143
92 146
92 148
92 149
93 95
93 96
93 97
93 100
93 101
93 102
93 104
93 110
93 111
93 113
93 114
93 118
93 121
93 122
93 126
93 127
93 132
93 133
93 134
93 136
93 138
93 139
93 140
93 142
93 144
93 145
94 95
94 96
94 99
94 103
94 104
94 107
94 108
94 109
94 110
94 111
94 112
94 114
94 116
94 118
94 122
94 125
94 128
94 129
94 130
94 132
94 134
94 136
94 138
94 140
94 141
94 142
94 143
94 144
94 145
94 146
94 147
94 148
95 98
95 101
95 103
95 104
95 107
95 109
95 114
95 115
95 118
95 122
95 125
95 126
95 130
95 134
95 137
95 141
95 142
95 145
95 146
95 148
96 99
96 101
96 102
96 103
96 104
96 105
96 106
96 108
96 110
96 111
96 112
96 117
96 118
96 123
96 128
96 129
96 131
96 132
96 133
96 134
96 135
96 136
96 138
96 139
96 140
96 141
96 142
96 143
96 144
96 145
96 147
97 99
97 101
97 102
97 103
97 104
97 105
97 108
97 111
97 114
97 116
97 117
97 119
97 120
97 121
97 122
97 123
97 124
97 125
97 126
97 127
97 128
97 129
97 130
97 131
97 134
97 136
97 139
97 142
97 144
97 145
97 146
97 147
97 148
97 149
98 99
98 104
98 105
98 108
98 110
98 113
98 114
98 116
98 117
98 118
98 119
98 120
98 121
98 123
98 124
98 125
98 126
98 127
98 129
98 130
98 134
98 135
98 136
98 137
98 141
98 142
98 143
98 144
98 145
98 146
98 148
98 149
99 100
99 101
99 102
99 105
99 106
99 108
99 114
99 116
99 118
99 119
99 121
99 122
99 125
99 126
99 127
99 128
99 133
99 135
99 136
99 137
99 138
99 139
99 141
99 143
99 144
99 145
99 148
99 149
100 102
100 103
100 107
100 108
100 109
100 110
100 116
100 119
100 121
100 122
100 123
100 127
100 128
100 129
100 130
100 131
100 132
100 134
100 138
100 139
100 141
100 143
100 147
100 148
100 149
101 102
101 103
101 108
101 110
101 112
101 113
101 114
101 115
101 118
101 120
101 121
101 127
101 128
101 129
101 131
101 135
101 138
101 141
101 143
101 144
101 145
101 147
101 148
101 149
102 103
102 104
102 108
102 109
102 111
102 112
102 116
102 121
102 122
102 123
102 124
102 129
102 131
102 134
102 135
102 137
102 140
102 141
102 144
102 145
103 105
103 106
103 107
103 108
103 110
103 112
103 113
103 114
103 115
103 119
103 122
103 124
103 126
103 128
103 131
103 132
103 135
103 136
103 137
103 138
103 139
103 140
103 142
103 143
103 146
103 147
103 149
104 107
104 108
104 109
104 110
104 115
104 119
104 120
104 121
104 122
104 124
104 128
104 129
104 132
104 133
104 136
104 138
104 142
104 143
104 144
104 147
104 148
104 149
105 106
105 112
105 113
105 115
105 116
105 118
105 120
105 121
105 124
105 125
105 129
105 131
105 133
105 134
105 138
105 139
105 140
105 141
105 143
105 144
105 146
105 147
105 149
106 109
106 110
106 112
106 113
106 115
106 118
106 119
106 120
106 121
106 123
106 125
106 129
106 134
106 135
106 140
106 142
106 145
106 148
107 108
107 110
107 111
107 113
107 114
107 116
107 118
107 120
107 125
107 129
107 132
107 133
107 137
107 141
107 142
107 144
107 146
107 147
107 148
108 109
108 111
108 114
108 115
108 116
108 117
108 121
108 122
108 123
108 126
108 130
108 132
108 133
108 137
108 142
108 143
108 144
108 146
109 111
109 113
109 116
109 119
109 120
109 122
109 126
109 127
109 128
109 132
109 133
109 139
109 140
109 142
109 144
109 145
109 146
109 147
109 148
109 149
110 111
110 112
110 114
110 116
110 118
110 120
110 122
110 123
110 125
110 126
110 127
110 128
110 136
110 137
110 138
110 139
110 140
110 142
110 144
111 113
111 114
111 116
111 119
111 122
111 123
111 125
111 126
111 136
111 138
111 139
111 141
111 146
111 149
112 113
112 114
112 116
112 118
112 121
112 122
112 124
112 128
112 131
112 132
112 134
112 139
112 142
112 144
112 146
112 147
112 148
112 149
113 115
113 117
113 118
113 119
113 120
113 121
113 123
113 124
113 128
113 131
113 132
113 133
113 137
113 144
113 146
113 147
114 116
114 117
114 119
114 121
114 123
114 124
114 125
114 127
114 128
114 129
114 130
114 134
114 135
114 138
114 141
114 143
114 149
115 117
115 118
115 120
115 121
115 122
115 123
115 126
115 127
115 131
115 134
115 137
115 141
115 143
115 144
115 145
115 146
115 147
115 148
116 119
116 120
116 122
116 124
116 125
116 126
116 128
116 129
116 130
116 134
116 138
116 141
116 142
116 143
116 144
116 146
116 149
117 119
117 122
117 123
117 124
117 127
117 128
117 130
117 131
117 132
117 133
117 134
117 135
117 136
117 143
117 145
117 146
117 147
117 149
118 119
118 123
118 124
118 125
118 126
118 127
118 128
118 130
118 131
118 136
118 138
118 140
118 144
118 147
119 122
119 124
119 125
119 128
119 129
119 130
119 131
119 132
119 133
119 135
119 138
119 139
119 140
119 141
119 142
119 146
119 147
119 149
120 124
120 130
120 135
120 136
120 137
120 138
120 142
120 144
120 147
120 148
120 149
121 123
121 125
121 126
121 127
121 129
121 130
121 132
121 134
121 137
121 138
121 139
121 140
121 145
121 147
121 148
122 125
122 126
122 127
122 128
122 129
122 132
122 134
122 137
122 138
122 139
122 140
122 143
122 144
122 145
122 146
122 147
123 125
123 126
123 127
123 130
123 133
123 134
123 136
123 137
123 140
123 141
123 142
123 143
123 146
123 149
124 125
124 127
124 128
124 129
124 130
124 131
124 132
124 133
124 134
124 135
124 137
124 139
124 141
124 144
124 146
124 147
124 149
125 126
125 130
125 131
125 132
125 133
125 134
125 137
125 140
125 143
125 148
126 128
126 129
126 133
126 134
126 137
126 138
126 139
126 140
126 142
126 143
126 144
126 147
126 148
127 128
127 129
127 130
127 132
127 133
127 136
127 138
127 139
127 141
127 142
127 143
127 144
127 146
127 147
127 148
127 149
128 129
128 130
128 134
128 142
128 143
128 144
128 145
128 147
128 148
128 149
129 130
129 132
129 133
129 134
129 137
129 139
129 143
129 147
129 148
130 132
130 133
130 134
130 135
130 136
130 137
130 139
130 143
130 146
130 147
130 149
131 132
131 133
131 135
131 139
131 140
131 141
131 143
131 145
131 146
131 147
132 135
132 136
132 137
132 140
132 141
132 143
132 144
132 145
132 147
132 149
133 135
133 136
133 138
133 139
133 140
133 141
133 145
133 146
133 147
134 135
134 140
134 143
134 144
134 146
134 147
134 148
134 149
135 136
135 138
135 139
135 141
135 142
135 143
135 144
135 146
135 149
136 137
136 141
136 144
136 147
137 140
137 144
137 146
137 147
137 149
138 139
138 142
138 144
138 146
138 148
138 149
139 147
139 149
140 141
140 147
141 144
141 145
141 146
141 147
142 144
143 144
143 147
143 149
144 145
144 146
144 147
144 148
145 146
147 148
147 149
