150:2822
0 1
0 3
0 4
0 23
0 28
0 32
0 35
0 37
0 39
0 44
0 47
0 51
0 52
0 55
0 57
0 71
0 77
0 81
0 82
0 85
0 99
0 102
0 112
0 120
0 122
0 128
0 130
0 132
0 139
0 142
0 144
0 147
1 9
1 11
1 14
1 21
1 26
1 27
1 29
1 36
1 38
1 40
1 42
1 43
1 44
1 52
1 53
1 62
1 64
1 69
1 70
1 73
1 75
1 81
1 82
1 90
1 92
1 95
1 102
1 112
1 114
1 117
1 119
1 126
1 132
1 138
1 140
1 141
1 148
2 3
2 4
2 5
2 6
2 9
2 11
2 17
2 29
2 40
2 41
2 43
2 46
2 47
2 49
2 64
2 71
2 72
2 91
2 94
2 98
2 103
2 108
2 118
2 122
2 124
2 134
2 141
2 146
2 149
3 9
3 14
3 39
3 42
3 43
3 45
3 47
3 48
3 49
3 50
3 51
3 57
3 60
3 64
3 69
3 72
3 75
3 77
3 78
3 80
3 84
3 86
3 94
3 95
3 117
3 122
3 125
3 135
3 137
3 144
3 146
3 147
4 6
4 11
4 17
4 20
4 24
4 30
4 37
4 38
4 41
4 42
4 52
4 58
4 63
4 66
4 71
4 73
4 78
4 84
4 97
4 101
4 104
4 108
4 110
4 112
4 113
4 114
4 119
4 122
4 124
4 128
4 130
4 133
4 135
4 138
4 147
5 6
5 10
5 13
5 16
5 22
5 24
5 30
5 33
5 42
5 43
5 50
5 53
5 58
5 72
5 73
5 76
5 77
5 85
5 87
5 91
5 97
5 98
5 104
5 105
5 106
5 109
5 115
5 119
5 122
5 123
5 126
5 129
5 137
5 139
5 141
5 142
5 143
5 147
6 11
6 14
6 16
6 21
6 24
6 25
6 32
6 34
6 36
6 42
6 43
6 44
6 46
6 48
6 54
6 56
6 66
6 68
6 71
6 72
6 75
6 79
6 81
6 87
6 90
6 95
6 97
6 98
6 112
6 115
6 116
6 117
6 121
6 123
6 133
6 144
6 149
7 12
7 13
7 17
7 27
7 28
7 36
7 37
7 42
7 43
7 46
7 47
7 50
7 53
7 54
7 60
7 62
7 63
7 68
7 69
7 72
7 73
7 75
7 89
7 92
7 95
7 99
7 101
7 104
7 107
7 108
7 111
7 112
7 114
7 118
7 122
7 123
7 125
7 131
7 132
7 133
7 139
7 140
7 141
7 146
8 11
8 13
8 15
8 16
8 17
8 19
8 21
8 22
8 24
8 36
8 37
8 50
8 58
8 62
8 67
8 68
8 72
8 74
8 77
8 79
8 82
8 86
8 90
8 91
8 97
8 100
8 104
8 106
8 109
8 114
8 117
8 127
8 138
8 139
8 141
8 142
8 144
8 148
9 12
9 17
9 21
9 23
9 25
9 29
9 30
9 32
9 34
9 40
9 43
9 44
9 48
9 55
9 58
9 59
9 63
9 78
9 79
9 86
9 87
9 91
9 94
9 95
9 97
9 98
9 99
9 100
9 101
9 105
9 107
9 110
9 117
9 119
9 124
9 130
9 136
9 137
9 138
9 145
9 148
10 11
10 14
10 15
10 25
10 26
10 27
10 30
10 39
10 43
10 51
10 54
10 62
10 63
10 65
10 68
10 74
10 76
10 79
10 81
10 82
10 84
10 85
10 86
10 90
10 91
10 93
10 94
10 97
10 102
10 113
10 114
10 121
10 123
10 124
10 125
10 127
10 138
10 139
10 140
10 141
10 142
10 145
10 147
10 149
11 15
11 17
11 21
11 22
11 23
11 32
11 38
11 40
11 41
11 43
11 46
11 47
11 50
11 60
11 63
11 68
11 70
11 76
11 86
11 87
11 88
11 92
11 95
11 97
11 105
11 112
11 114
11 115
11 128
11 130
11 134
11 135
11 139
11 140
11 146
12 22
12 23
12 28
12 29
12 37
12 38
12 49
12 53
12 55
12 58
12 60
12 63
12 69
12 73
12 83
12 87
12 92
12 93
12 95
12 105
12 110
12 112
12 128
12 129
12 132
12 133
12 134
12 137
12 140
12 142
13 14
13 15
13 18
13 20
13 22
13 25
13 29
13 32
13 33
13 37
13 39
13 42
13 43
13 44
13 48
13 50
13 56
13 57
13 59
13 60
13 63
13 69
13 71
13 80
13 83
13 87
13 95
13 99
13 103
13 104
13 109
13 111
13 116
13 117
13 128
13 136
13 138
13 142
13 146
14 19
14 25
14 26
14 31
14 35
14 39
14 41
14 45
14 50
14 53
14 64
14 73
14 85
14 86
14 93
14 97
14 98
14 100
14 101
14 102
14 103
14 107
14 109
14 114
14 118
14 133
14 135
14 139
14 143
14 145
14 147
15 16
15 17
15 18
15 23
15 24
15 29
15 31
15 34
15 41
15 45
15 49
15 52
15 70
15 76
15 82
15 83
15 85
15 94
15 104
15 105
15 107
15 114
15 116
15 120
15 124
15 136
15 148
16 22
16 23
16 26
16 28
16 31
16 32
16 37
16 38
16 46
16 62
16 67
16 68
16 70
16 78
16 81
16 82
16 83
16 85
16 86
16 91
16 96
16 97
16 104
16 108
16 116
16 118
16 123
16 126
16 129
16 130
16 138
16 140
16 142
16 143
16 145
16 148
16 149
17 20
17 23
17 25
17 26
17 31
17 38
17 39
17 43
17 49
17 57
17 58
17 60
17 66
17 69
17 81
17 82
17 83
17 91
17 93
17 97
17 100
17 101
17 109
17 114
17 118
17 126
17 128
17 131
17 132
17 136
17 138
17 143
17 147
18 20
18 33
18 37
18 42
18 48
18 51
18 53
18 54
18 55
18 57
18 58
18 60
18 63
18 65
18 66
18 72
18 75
18 76
18 79
18 80
18 82
18 100
18 101
18 110
18 111
18 114
18 118
18 122
18 126
18 128
18 131
18 132
18 137
18 140
19 20
19 27
19 32
19 36
19 55
19 60
19 66
19 67
19 72
19 73
19 75
19 79
19 80
19 83
19 85
19 87
19 92
19 97
19 114
19 117
19 118
19 121
19 123
19 124
19 126
19 129
19 130
19 134
19 138
19 140
19 141
19 144
19 145
19 146
20 21
20 30
20 39
20 40
20 42
20 50
20 63
20 65
20 66
20 67
20 69
20 73
20 81
20 82
20 83
20 87
20 93
20 96
20 99
20 102
20 105
20 109
20 111
20 114
20 117
20 122
20 123
20 126
20 135
20 137
20 146
20 148
20 149
21 22
21 27
21 32
21 35
21 37
21 43
21 45
21 50
21 53
21 58
21 60
21 72
21 77
21 78
21 82
21 91
21 94
21 102
21 104
21 111
21 112
21 114
21 115
21 120
21 126
21 136
21 138
21 146
22 23
22 26
22 32
22 38
22 39
22 45
22 50
22 51
22 54
22 55
22 56
22 58
22 66
22 68
22 70
22 72
22 73
22 76
22 78
22 82
22 84
22 87
22 98
22 100
22 101
22 105
22 110
22 112
22 123
22 126
22 133
22 134
22 137
23 25
23 28
23 30
23 32
23 34
23 44
23 45
23 50
23 51
23 54
23 57
23 62
23 64
23 65
23 66
23 71
23 73
23 81
23 83
23 84
23 86
23 93
23 96
23 99
23 101
23 114
23 119
23 125
23 130
23 141
23 145
24 28
24 30
24 37
24 45
24 52
24 58
24 61
24 62
24 67
24 73
24 78
24 80
24 85
24 87
24 95
24 96
24 102
24 106
24 118
24 122
24 132
24 133
24 145
25 36
25 44
25 45
25 47
25 48
25 56
25 58
25 59
25 62
25 66
25 67
25 68
25 73
25 78
25 81
25 83
25 86
25 90
25 94
25 95
25 97
25 98
25 102
25 104
25 118
25 120
25 122
25 126
25 133
25 134
26 31
26 32
26 40
26 45
26 46
26 47
26 51
26 59
26 61
26 62
26 63
26 89
26 98
26 99
26 100
26 110
26 115
26 116
26 119
26 121
26 125
26 130
26 131
26 135
26 136
26 140
26 149
27 37
27 40
27 41
27 43
27 44
27 50
27 57
27 58
27 63
27 67
27 71
27 73
27 80
27 81
27 86
27 87
27 89
27 98
27 100
27 101
27 102
27 103
27 105
27 106
27 116
27 117
27 126
27 133
27 136
27 145
27 148
28 34
28 38
28 40
28 42
28 43
28 51
28 55
28 56
28 61
28 64
28 67
28 68
28 73
28 76
28 77
28 78
28 84
28 86
28 87
28 91
28 97
28 104
28 106
28 107
28 110
28 113
28 116
28 120
28 122
28 125
28 129
28 131
28 132
28 137
28 141
28 146
28 147
28 148
29 34
29 39
29 41
29 42
29 44
29 47
29 52
29 57
29 66
29 67
29 74
29 79
29 82
29 84
29 93
29 96
29 102
29 109
29 112
29 115
29 120
29 121
29 129
29 132
29 133
29 140
29 141
29 146
30 43
30 48
30 51
30 54
30 58
30 60
30 65
30 66
30 77
30 81
30 82
30 88
30 94
30 105
30 106
30 110
30 111
30 112
30 115
30 118
30 121
30 123
30 124
30 145
30 149
31 33
31 34
31 42
31 49
31 52
31 58
31 59
31 64
31 65
31 68
31 69
31 71
31 72
31 78
31 82
31 85
31 86
31 89
31 101
31 108
31 113
31 118
31 120
31 122
31 124
31 126
31 129
31 138
31 141
31 148
32 33
32 37
32 42
32 43
32 47
32 48
32 49
32 61
32 68
32 70
32 73
32 79
32 88
32 95
32 100
32 104
32 105
32 106
32 113
32 116
32 118
32 134
32 137
32 140
33 40
33 43
33 45
33 50
33 52
33 53
33 56
33 60
33 61
33 63
33 68
33 69
33 70
33 71
33 72
33 78
33 81
33 86
33 87
33 89
33 97
33 98
33 100
33 101
33 107
33 108
33 115
33 117
33 119
33 123
33 124
33 125
33 129
33 132
33 133
33 134
33 136
33 139
33 141
33 145
34 39
34 45
34 47
34 48
34 49
34 55
34 72
34 73
34 88
34 90
34 91
34 95
34 100
34 109
34 114
34 119
34 121
34 123
34 127
34 135
34 145
34 146
34 149
35 40
35 42
35 49
35 57
35 58
35 63
35 66
35 72
35 75
35 78
35 79
35 87
35 92
35 95
35 96
35 102
35 114
35 115
35 125
35 133
35 143
35 144
36 37
36 39
36 41
36 43
36 47
36 50
36 61
36 62
36 66
36 69
36 72
36 75
36 76
36 82
36 88
36 90
36 95
36 100
36 111
36 112
36 113
36 117
36 126
36 127
36 132
36 137
36 143
36 144
37 42
37 47
37 49
37 50
37 53
37 54
37 56
37 59
37 67
37 70
37 72
37 74
37 78
37 83
37 85
37 86
37 90
37 92
37 106
37 108
37 111
37 115
37 118
37 121
37 122
37 124
37 126
37 131
37 138
37 141
37 143
38 43
38 48
38 52
38 53
38 56
38 57
38 60
38 66
38 69
38 77
38 83
38 88
38 91
38 101
38 102
38 104
38 105
38 108
38 111
38 112
38 122
38 126
38 127
38 131
38 132
38 135
38 140
38 149
39 42
39 46
39 51
39 52
39 53
39 55
39 60
39 61
39 63
39 65
39 68
39 75
39 77
39 81
39 85
39 88
39 97
39 106
39 119
39 126
39 130
39 141
39 144
39 145
39 147
39 149
40 42
40 59
40 62
40 66
40 68
40 77
40 96
40 110
40 114
40 119
40 122
40 123
40 125
40 126
40 128
40 132
40 134
40 139
41 45
41 51
41 57
41 58
41 60
41 71
41 73
41 82
41 85
41 89
41 93
41 94
41 95
41 101
41 108
41 110
41 117
41 118
41 119
41 129
41 130
41 144
41 149
42 43
42 44
42 48
42 50
42 51
42 53
42 58
42 59
42 60
42 65
42 69
42 70
42 73
42 74
42 80
42 81
42 87
42 91
42 108
42 109
42 110
42 114
42 117
42 121
42 125
42 129
42 131
42 135
42 136
42 144
42 145
42 147
43 47
43 55
43 63
43 65
43 66
43 67
43 77
43 78
43 83
43 84
43 85
43 88
43 90
43 96
43 98
43 101
43 105
43 106
43 109
43 112
43 122
43 125
43 127
43 132
43 135
43 136
43 143
44 54
44 56
44 58
44 60
44 64
44 67
44 68
44 71
44 82
44 83
44 85
44 93
44 94
44 96
44 98
44 99
44 103
44 106
44 107
44 110
44 113
44 114
44 118
44 123
44 127
44 132
44 133
44 134
44 138
44 148
45 49
45 52
45 60
45 66
45 68
45 70
45 72
45 75
45 78
45 81
45 83
45 87
45 92
45 95
45 100
45 102
45 104
45 105
45 113
45 116
45 125
45 131
45 136
45 137
45 138
45 145
45 146
45 148
46 47
46 51
46 67
46 70
46 78
46 80
46 81
46 92
46 94
46 96
46 98
46 103
46 110
46 113
46 119
46 121
46 134
46 137
46 142
46 149
47 50
47 56
47 58
47 59
47 62
47 63
47 64
47 68
47 73
47 74
47 76
47 78
47 79
47 83
47 84
47 86
47 87
47 96
47 97
47 99
47 105
47 108
47 110
47 115
47 116
47 117
47 126
47 130
47 132
47 134
47 135
47 137
47 140
48 49
48 52
48 55
48 56
48 59
48 71
48 74
48 75
48 89
48 102
48 110
48 112
48 119
48 125
48 131
48 132
48 136
48 137
48 138
48 140
49 56
49 57
49 59
49 61
49 62
49 67
49 77
49 83
49 85
49 86
49 87
49 89
49 94
49 95
49 96
49 99
49 104
49 108
49 111
49 112
49 123
49 129
49 137
49 139
49 142
50 51
50 54
50 55
50 61
50 62
50 64
50 67
50 68
50 79
50 82
50 84
50 85
50 93
50 102
50 108
50 111
50 113
50 116
50 118
50 122
50 123
50 126
50 127
50 131
50 132
50 134
50 135
50 136
50 145
51 62
51 69
51 71
51 77
51 81
51 86
51 96
51 101
51 105
51 107
51 115
51 118
51 120
51 130
51 135
51 137
51 138
51 147
51 149
52 54
52 58
52 59
52 68
52 69
52 79
52 83
52 86
52 92
52 94
52 99
52 102
52 105
52 107
52 108
52 111
52 112
52 114
52 117
52 121
52 134
52 142
52 149
53 55
53 56
53 57
53 67
53 68
53 69
53 73
53 74
53 75
53 79
53 82
53 87
53 88
53 99
53 106
53 110
53 123
53 126
53 127
53 131
53 133
53 138
53 141
53 142
53 148
54 56
54 62
54 66
54 70
54 71
54 78
54 80
54 81
54 83
54 84
54 91
54 93
54 94
54 98
54 103
54 105
54 108
54 110
54 111
54 112
54 113
54 118
54 119
54 123
54 127
54 131
54 132
54 138
54 140
55 56
55 58
55 60
55 62
55 63
55 65
55 79
55 82
55 86
55 87
55 88
55 91
55 101
55 105
55 110
55 115
55 117
55 119
55 125
55 130
55 133
55 141
55 148
56 61
56 62
56 63
56 64
56 76
56 79
56 81
56 89
56 90
56 91
56 93
56 94
56 95
56 96
56 108
56 110
56 116
56 128
56 134
56 136
56 138
56 148
56 149
57 61
57 63
57 65
57 66
57 70
57 72
57 85
57 87
57 92
57 94
57 120
57 123
57 124
57 125
57 126
57 132
57 133
57 134
57 137
57 141
57 144
57 145
57 149
58 59
58 60
58 62
58 63
58 80
58 85
58 90
58 93
58 95
58 97
58 100
58 102
58 104
58 110
58 117
58 125
58 130
58 132
58 140
58 141
58 144
59 77
59 82
59 87
59 92
59 96
59 99
59 100
59 102
59 119
59 123
59 124
59 133
59 134
59 148
59 149
60 61
60 64
60 70
60 75
60 81
60 83
60 93
60 96
60 100
60 104
60 115
60 137
60 142
60 144
60 149
61 70
61 74
61 78
61 81
61 85
61 86
61 91
61 92
61 105
61 109
61 112
61 116
61 120
61 129
61 130
61 132
61 134
61 137
61 141
61 143
61 144
61 145
61 146
61 147
62 79
62 92
62 93
62 96
62 97
62 100
62 108
62 119
62 133
62 140
62 142
62 143
62 144
62 145
63 64
63 70
63 72
63 75
63 80
63 85
63 86
63 91
63 94
63 98
63 104
63 115
63 126
63 134
63 135
63 138
63 140
63 142
63 143
63 145
63 146
64 65
64 69
64 72
64 76
64 77
64 82
64 96
64 101
64 110
64 112
64 118
64 123
64 127
64 128
64 134
64 138
64 145
65 75
65 79
65 83
65 88
65 90
65 91
65 97
65 99
65 102
65 106
65 112
65 118
65 121
65 124
65 128
65 133
65 138
65 142
65 145
66 67
66 76
66 77
66 79
66 83
66 87
66 90
66 99
66 101
66 103
66 105
66 109
66 111
66 114
66 116
66 118
66 122
66 131
66 132
66 133
66 139
66 141
66 142
66 143
66 146
66 147
67 68
67 70
67 75
67 77
67 80
67 81
67 83
67 86
67 89
67 98
67 100
67 113
67 117
67 119
67 127
67 130
67 132
67 136
67 139
67 141
67 142
67 144
68 70
68 81
68 82
68 84
68 85
68 86
68 92
68 95
68 103
68 104
68 105
68 117
68 125
68 126
68 128
68 133
68 136
68 140
68 142
68 147
69 71
69 76
69 85
69 86
69 87
69 90
69 91
69 94
69 97
69 99
69 105
69 107
69 109
69 114
69 115
69 119
69 122
69 127
69 128
69 130
69 138
69 144
70 74
70 76
70 78
70 81
70 84
70 85
70 92
70 99
70 107
70 109
70 112
70 115
70 116
70 117
70 119
70 120
70 123
70 124
70 125
70 130
70 132
70 133
70 135
70 141
70 143
70 146
71 72
71 73
71 74
71 75
71 76
71 79
71 80
71 92
71 98
71 106
71 107
71 109
71 111
71 113
71 114
71 115
71 121
71 122
71 123
71 126
71 127
71 132
71 133
71 134
71 138
71 139
71 141
71 142
71 144
72 80
72 81
72 83
72 86
72 97
72 100
72 103
72 107
72 116
72 119
72 122
72 123
72 125
72 128
72 135
72 145
73 80
73 89
73 92
73 93
73 94
73 105
73 108
73 112
73 114
73 119
73 120
73 124
73 127
73 132
73 138
73 141
73 142
74 80
74 82
74 84
74 86
74 99
74 105
74 109
74 110
74 115
74 116
74 119
74 120
74 121
74 127
74 130
74 136
74 142
74 146
75 76
75 78
75 84
75 90
75 96
75 98
75 106
75 107
75 109
75 116
75 118
75 123
75 127
75 137
75 138
75 145
75 148
75 149
76 78
76 98
76 99
76 100
76 101
76 112
76 117
76 120
76 123
76 127
76 138
76 141
77 84
77 94
77 95
77 96
77 103
77 104
77 105
77 108
77 115
77 120
77 121
77 131
77 132
77 136
77 138
77 141
77 145
77 149
78 79
78 83
78 84
78 85
78 87
78 90
78 95
78 97
78 102
78 107
78 109
78 117
78 119
78 132
78 136
78 141
78 144
79 82
79 83
79 94
79 95
79 97
79 101
79 102
79 105
79 111
79 112
79 113
79 114
79 115
79 117
79 120
79 121
79 125
79 130
79 138
79 141
79 143
79 145
79 148
80 83
80 86
80 87
80 89
80 94
80 98
80 105
80 112
80 116
80 122
80 127
80 144
81 83
81 88
81 90
81 93
81 94
81 99
81 103
81 105
81 108
81 109
81 114
81 116
81 121
81 125
81 126
81 129
81 139
81 141
82 84
82 85
82 86
82 87
82 89
82 92
82 102
82 108
82 109
82 112
82 117
82 121
82 122
82 124
82 128
82 135
82 140
82 143
82 149
83 86
83 89
83 94
83 95
83 105
83 110
83 115
83 118
83 120
83 133
83 137
83 141
83 142
83 147
84 89
84 91
84 92
84 94
84 95
84 107
84 109
84 110
84 111
84 115
84 117
84 118
84 121
84 122
84 124
84 128
84 129
84 134
84 140
84 142
85 86
85 88
85 94
85 95
85 96
85 109
85 114
85 115
85 126
85 129
85 133
85 138
85 140
85 141
85 143
86 88
86 93
86 95
86 102
86 103
86 108
86 113
86 116
86 117
86 135
86 137
86 139
86 141
86 143
86 145
86 147
87 90
87 92
87 93
87 95
87 103
87 105
87 106
87 107
87 114
87 119
87 123
87 124
87 126
87 129
87 131
87 136
87 137
88 90
88 92
88 99
88 100
88 101
88 112
88 127
88 132
88 133
88 135
88 137
88 145
89 91
89 95
89 96
89 99
89 101
89 102
89 106
89 107
89 112
89 114
89 115
89 120
89 121
89 123
89 131
89 132
89 133
89 134
89 136
89 142
89 143
89 147
90 92
90 93
90 99
90 104
90 109
90 110
90 114
90 119
90 122
90 125
90 126
90 132
90 136
90 138
90 140
90 143
90 145
90 148
91 94
91 98
91 104
91 106
91 113
91 118
91 119
91 121
91 131
91 133
91 139
91 140
91 144
91 149
92 94
92 98
92 111
92 115
92 118
92 120
92 124
92 128
92 129
92 130
92 138
92 139
92 145
92 146
92 148
93 96
93 100
93 106
93 108
93 110
93 112
93 113
93 118
93 120
93 122
93 123
93 128
93 129
93 133
93 136
93 138
93 139
93 142
94 100
94 103
94 116
94 119
94 123
94 124
94 135
94 136
94 139
94 140
94 145
94 149
95 96
95 100
95 103
95 108
95 109
95 117
95 118
95 120
95 121
95 124
95 130
95 132
95 139
95 141
95 144
95 145
95 148
96 99
96 106
96 108
96 110
96 119
96 123
96 126
96 127
96 129
96 130
96 135
96 137
96 141
96 145
96 146
97 99
97 107
97 114
97 115
97 116
97 122
97 126
97 127
97 129
97 130
97 134
97 137
97 142
97 146
98 109
98 143
98 144
98 145
98 146
98 148
99 102
99 106
99 107
99 111
99 117
99 118
99 120
99 121
99 124
99 127
99 130
99 133
99 134
99 140
99 143
99 146
100 106
100 107
100 108
100 110
100 113
100 115
100 116
100 119
100 123
100 128
100 133
100 141
100 144
100 146
100 148
101 107
101 114
101 116
101 118
101 123
101 124
101 127
101 130
101 134
101 137
101 138
102 103
102 107
102 112
102 113
102 115
102 117
102 118
102 119
102 125
102 126
102 128
102 129
102 131
102 132
102 138
102 139
102 140
102 143
102 147
103 106
103 107
103 109
103 110
103 117
103 120
103 121
103 122
103 127
103 128
103 129
103 131
103 135
103 138
103 146
103 148
104 111
104 113
104 116
104 119
104 133
104 138
104 140
104 145
104 147
105 108
105 111
105 116
105 118
105 119
105 130
105 136
105 138
105 140
105 143
105 148
106 110
106 111
106 112
106 118
106 123
106 134
106 140
106 141
106 142
106 148
107 115
107 120
107 123
107 124
107 129
107 131
107 140
107 143
107 149
108 112
108 113
108 117
108 120
108 121
108 122
108 123
108 131
108 132
108 134
108 135
108 140
108 143
108 146
108 147
108 149
109 113
109 117
109 119
109 121
109 128
109 129
109 132
109 133
109 135
109 141
109 142
109 144
109 145
109 149
110 114
110 120
110 132
110 134
110 142
110 147
110 149
111 117
111 121
111 125
111 126
111 129
111 133
111 134
111 136
111 138
111 142
111 145
111 148
111 149
112 114
112 118
112 120
112 122
112 125
112 130
112 133
112 139
112 143
112 146
112 149
113 116
113 120
113 122
113 128
113 132
113 137
113 138
113 142
113 144
113 149
114 115
114 120
114 127
114 134
114 135
114 139
114 140
114 144
114 145
114 149
115 118
115 127
115 135
115 136
115 138
115 140
115 141
116 121
116 122
116 129
116 131
116 134
116 135
116 136
116 148
116 149
117 118
117 123
117 125
117 126
117 129
117 133
117 134
117 135
117 147
117 149
118 120
118 124
118 141
119 120
119 121
119 124
119 126
119 127
119 130
119 132
119 134
119 140
119 143
120 123
120 127
120 128
120 131
120 132
120 134
120 137
120 138
120 139
120 141
121 126
121 127
121 128
121 139
121 141
121 144
121 145
121 146
122 124
122 125
122 126
122 128
122 135
122 136
122 139
122 141
122 142
123 125
123 127
123 129
123 131
123 145
123 147
123 148
123 149
124 129
124 132
124 143
124 145
124 146
124 148
124 149
125 130
125 132
125 133
125 136
125 143
126 128
126 132
126 133
126 138
126 139
126 140
126 144
127 131
127 133
127 137
127 139
127 141
127 146
128 129
128 131
128 134
128 137
128 142
128 144
128 149
129 137
129 141
129 143
129 148
130 134
130 136
130 137
130 144
130 149
131 132
131 133
131 134
131 136
131 139
131 140
131 146
131 147
132 135
132 141
132 142
133 135
133 136
133 140
133 142
133 143
133 146
133 148
134 141
135 136
135 140
135 144
135 146
135 148
136 139
136 142
136 147
137 138
137 139
137 141
137 142
137 143
137 144
137 146
137 148
138 140
138 142
138 144
138 147
139 141
139 149
140 146
140 148
141 143
142 144
142 145
142 149
143 149
144 148
144 149
