150:2796
0 11
0 12
0 16
0 19
0 26
0 29
0 31
0 37
0 38
0 45
0 53
0 60
0 81
0 83
0 86
0 89
0 96
0 97
0 102
0 103
0 107
0 110
0 111
0 112
0 122
0 125
0 128
0 131
0 136
0 140
0 145
0 146
1 7
1 17
1 19
1 22
1 24
1 26
1 40
1 48
1 59
1 64
1 70
1 73
1 82
1 83
1 93
1 96
1 103
1 105
1 106
1 110
1 111
1 114
1 119
1 124
1 125
1 128
1 145
1 146
1 149
2 4
2 14
2 16
2 18
2 19
2 24
2 26
2 28
2 29
2 30
2 34
2 35
2 36
2 40
2 41
2 43
2 44
2 49
2 51
2 53
2 58
2 59
2 64
2 65
2 68
2 74
2 78
2 81
2 85
2 95
2 96
2 104
2 109
2 114
2 116
2 119
2 121
2 122
2 127
2 128
2 135
2 138
2 141
2 146
2 147
3 7
3 8
3 13
3 14
3 16
3 17
3 20
3 30
3 35
3 36
3 37
3 40
3 43
3 46
3 47
3 48
3 49
3 56
3 60
3 64
3 66
3 74
3 76
3 80
3 87
3 98
3 108
3 109
3 111
3 113
3 116
3 121
3 128
3 129
3 132
3 135
3 143
3 146
3 149
4 12
4 14
4 18
4 19
4 28
4 30
4 35
4 36
4 37
4 46
4 48
4 51
4 52
4 53
4 57
4 60
4 67
4 69
4 74
4 75
4 76
4 82
4 83
4 85
4 90
4 97
4 99
4 100
4 102
4 103
4 104
4 106
4 107
4 113
4 123
4 129
4 131
4 135
4 136
4 138
4 140
4 143
5 6
5 7
5 9
5 13
5 16
5 21
5 23
5 27
5 28
5 30
5 34
5 47
5 48
5 54
5 56
5 64
5 70
5 72
5 83
5 85
5 87
5 89
5 92
5 94
5 96
5 99
5 101
5 103
5 106
5 109
5 110
5 112
5 116
5 117
5 127
5 130
5 136
5 137
5 138
5 139
5 144
5 145
5 146
6 10
6 16
6 22
6 25
6 26
6 34
6 38
6 41
6 45
6 46
6 47
6 49
6 54
6 55
6 57
6 60
6 64
6 65
6 66
6 71
6 74
6 77
6 83
6 85
6 89
6 102
6 105
6 106
6 117
6 120
6 125
6 132
6 134
6 135
6 138
6 140
6 141
6 143
6 145
7 8
7 10
7 14
7 24
7 35
7 36
7 38
7 39
7 41
7 44
7 46
7 51
7 52
7 57
7 65
7 73
7 75
7 76
7 79
7 86
7 102
7 109
7 111
7 112
7 114
7 117
7 118
7 121
7 130
7 131
7 136
7 139
7 143
7 147
8 9
8 12
8 14
8 18
8 22
8 24
8 39
8 42
8 43
8 53
8 56
8 57
8 58
8 59
8 61
8 62
8 63
8 75
8 82
8 83
8 84
8 85
8 87
8 88
8 89
8 90
8 96
8 97
8 101
8 103
8 107
8 109
8 113
8 115
8 117
8 119
8 120
8 121
8 124
8 131
8 132
8 142
8 144
8 145
8 148
9 15
9 21
9 24
9 25
9 27
9 28
9 30
9 34
9 35
9 36
9 37
9 38
9 39
9 41
9 42
9 49
9 53
9 61
9 70
9 72
9 76
9 81
9 82
9 92
9 95
9 103
9 104
9 106
9 107
9 115
9 131
9 136
9 138
9 146
9 147
10 13
10 17
10 18
10 27
10 28
10 31
10 36
10 43
10 47
10 50
10 51
10 60
10 64
10 65
10 68
10 71
10 74
10 75
10 77
10 83
10 87
10 93
10 98
10 108
10 109
10 110
10 112
10 118
10 121
10 123
10 129
10 130
10 133
10 144
10 147
11 21
11 32
11 39
11 46
11 47
11 58
11 75
11 77
11 80
11 85
11 86
11 92
11 94
11 99
11 100
11 102
11 113
11 117
11 119
11 120
11 130
11 138
11 141
11 146
12 14
12 16
12 17
12 22
12 32
12 58
12 69
12 71
12 74
12 78
12 81
12 94
12 100
12 102
12 113
12 117
12 120
12 126
12 127
12 134
12 136
12 138
12 141
12 143
12 144
13 15
13 16
13 18
13 22
13 24
13 27
13 31
13 32
13 33
13 34
13 35
13 37
13 38
13 45
13 48
13 49
13 50
13 52
13 57
13 58
13 59
13 65
13 66
13 72
13 76
13 77
13 84
13 85
13 90
13 92
13 94
13 95
13 101
13 103
13 105
13 108
13 114
13 121
13 140
13 142
13 143
14 15
14 17
14 23
14 24
14 29
14 35
14 41
14 43
14 47
14 53
14 56
14 57
14 61
14 63
14 65
14 74
14 86
14 87
14 89
14 91
14 102
14 108
14 109
14 111
14 113
14 120
14 125
14 129
14 131
14 132
14 134
14 135
14 139
14 140
14 142
14 144
15 17
15 18
15 21
15 26
15 27
15 33
15 42
15 44
15 47
15 50
15 51
15 57
15 60
15 63
15 69
15 75
15 76
15 78
15 99
15 100
15 104
15 108
15 112
15 114
15 115
15 120
15 126
15 129
15 136
15 139
15 140
15 141
15 145
15 146
15 148
15 149
16 21
16 22
16 25
16 29
16 33
16 37
16 44
16 45
16 46
16 47
16 51
16 56
16 58
16 63
16 64
16 68
16 73
16 75
16 78
16 81
16 84
16 90
16 99
16 100
16 103
16 104
16 114
16 126
16 127
16 129
16 142
16 143
16 144
16 146
16 148
16 149
17 18
17 19
17 21
17 23
17 24
17 29
17 30
17 42
17 47
17 49
17 54
17 55
17 56
17 61
17 70
17 73
17 74
17 76
17 77
17 78
17 83
17 85
17 90
17 91
17 94
17 98
17 105
17 108
17 114
17 115
17 125
17 128
17 133
17 136
17 138
17 140
17 142
17 147
18 20
18 24
18 28
18 34
18 35
18 40
18 45
18 51
18 53
18 54
18 59
18 60
18 73
18 76
18 78
18 89
18 91
18 94
18 96
18 100
18 103
18 106
18 108
18 109
18 115
18 118
18 122
18 123
18 127
18 132
18 133
18 140
18 149
19 24
19 26
19 27
19 34
19 36
19 42
19 44
19 53
19 54
19 56
19 57
19 60
19 72
19 76
19 77
19 79
19 86
19 89
19 91
19 92
19 96
19 98
19 100
19 101
19 105
19 107
19 110
19 111
19 112
19 117
19 122
19 123
19 126
19 127
19 128
19 129
19 133
19 135
19 136
19 138
19 145
20 21
20 28
20 34
20 38
20 39
20 40
20 42
20 43
20 44
20 50
20 53
20 55
20 65
20 70
20 71
20 72
20 73
20 75
20 77
20 84
20 89
20 91
20 93
20 94
20 103
20 104
20 112
20 121
20 128
20 130
20 139
20 142
20 143
20 149
21 24
21 37
21 38
21 46
21 48
21 50
21 57
21 63
21 66
21 74
21 75
21 82
21 87
21 88
21 92
21 102
21 105
21 108
21 110
21 114
21 118
21 119
21 120
21 123
21 144
22 26
22 29
22 42
22 44
22 46
22 50
22 54
22 61
22 63
22 69
22 81
22 83
22 90
22 91
22 99
22 100
22 109
22 117
22 122
22 123
22 130
22 135
22 139
22 142
23 36
23 37
23 38
23 39
23 43
23 48
23 62
23 64
23 67
23 76
23 84
23 85
23 86
23 87
23 91
23 92
23 93
23 105
23 109
23 111
23 117
23 118
23 122
23 124
23 129
23 130
23 133
23 136
23 140
23 142
23 144
23 146
23 149
24 26
24 43
24 46
24 47
24 52
24 57
24 62
24 63
24 64
24 67
24 71
24 75
24 78
24 79
24 84
24 87
24 92
24 96
24 102
24 107
24 108
24 115
24 116
24 119
24 125
24 138
24 139
24 140
25 26
25 28
25 31
25 37
25 38
25 44
25 47
25 49
25 54
25 55
25 59
25 62
25 68
25 81
25 87
25 89
25 93
25 94
25 96
25 97
25 102
25 117
25 118
25 122
25 123
25 125
25 132
25 133
25 136
25 137
25 138
25 139
25 140
25 142
25 146
25 148
26 34
26 35
26 36
26 41
26 43
26 55
26 57
26 58
26 59
26 63
26 65
26 76
26 87
26 88
26 102
26 103
26 104
26 105
26 108
26 109
26 110
26 111
26 115
26 117
26 121
26 122
26 124
26 126
26 132
26 134
26 140
27 35
27 37
27 40
27 45
27 46
27 49
27 55
27 56
27 57
27 58
27 63
27 64
27 83
27 84
27 90
27 92
27 94
27 96
27 98
27 107
27 109
27 111
27 129
27 134
27 135
27 137
27 139
27 142
27 145
27 149
28 31
28 36
28 45
28 50
28 51
28 52
28 68
28 85
28 91
28 92
28 94
28 100
28 103
28 105
28 109
28 110
28 112
28 118
28 122
28 123
28 126
28 127
28 133
28 138
28 143
28 144
29 33
29 34
29 35
29 39
29 40
29 49
29 50
29 62
29 64
29 71
29 78
29 84
29 88
29 89
29 99
29 104
29 114
29 123
29 124
29 125
29 126
29 127
29 136
29 140
29 148
30 36
30 39
30 41
30 42
30 44
30 52
30 55
30 57
30 60
30 63
30 64
30 68
30 69
30 74
30 75
30 79
30 84
30 88
30 92
30 95
30 119
30 122
30 124
30 125
30 128
30 129
30 130
30 141
30 145
30 146
30 148
31 33
31 35
31 36
31 40
31 47
31 48
31 53
31 56
31 57
31 58
31 63
31 66
31 67
31 72
31 80
31 81
31 84
31 86
31 87
31 92
31 101
31 108
31 111
31 112
31 116
31 129
31 134
31 143
31 146
31 149
32 39
32 41
32 45
32 56
32 59
32 60
32 63
32 65
32 71
32 74
32 78
32 80
32 82
32 89
32 93
32 96
32 102
32 103
32 119
32 122
32 129
32 131
32 133
32 137
32 141
33 43
33 45
33 54
33 60
33 67
33 71
33 74
33 75
33 81
33 83
33 88
33 91
33 94
33 104
33 112
33 118
33 123
33 126
33 131
33 132
33 143
33 147
34 37
34 39
34 42
34 43
34 45
34 47
34 52
34 54
34 60
34 72
34 76
34 81
34 82
34 87
34 90
34 91
34 97
34 103
34 105
34 109
34 110
34 113
34 123
34 133
34 137
34 139
34 141
34 143
34 144
35 36
35 40
35 42
35 43
35 46
35 57
35 68
35 71
35 72
35 77
35 86
35 88
35 89
35 90
35 91
35 93
35 94
35 100
35 109
35 114
35 117
35 123
35 124
35 133
35 134
35 139
35 140
35 142
35 143
35 146
36 45
36 47
36 52
36 59
36 60
36 62
36 66
36 92
36 103
36 109
36 114
36 118
36 129
36 140
36 145
36 146
36 149
37 38
37 40
37 43
37 46
37 47
37 50
37 70
37 72
37 76
37 78
37 84
37 86
37 89
37 93
37 97
37 108
37 109
37 118
37 122
37 129
37 132
37 140
37 142
37 148
38 43
38 47
38 55
38 57
38 60
38 64
38 70
38 71
38 72
38 74
38 77
38 85
38 86
38 91
38 97
38 106
38 110
38 114
38 115
38 116
38 118
38 126
38 131
38 133
38 138
38 146
38 147
39 40
39 41
39 43
39 57
39 66
39 67
39 80
39 84
39 87
39 89
39 92
39 96
39 97
39 102
39 104
39 105
39 111
39 113
39 119
39 126
39 131
39 133
39 138
39 140
39 146
39 149
40 48
40 66
40 73
40 78
40 81
40 85
40 103
40 112
40 114
40 122
40 123
40 126
40 132
40 139
40 140
41 42
41 45
41 48
41 52
41 58
41 60
41 68
41 71
41 73
41 74
41 76
41 85
41 93
41 98
41 106
41 108
41 109
41 115
41 126
41 129
41 136
41 137
41 140
41 145
42 43
42 44
42 48
42 51
42 52
42 56
42 58
42 59
42 61
42 66
42 75
42 78
42 79
42 83
42 85
42 90
42 99
42 100
42 102
42 104
42 106
42 116
42 124
42 125
42 126
42 131
42 140
42 146
43 44
43 51
43 52
43 56
43 57
43 62
43 63
43 67
43 71
43 73
43 75
43 77
43 84
43 89
43 90
43 91
43 93
43 94
43 101
43 105
43 106
43 119
43 120
43 121
43 123
43 125
43 131
43 135
43 138
43 141
43 143
43 147
44 47
44 51
44 56
44 59
44 61
44 67
44 70
44 73
44 77
44 80
44 83
44 86
44 87
44 88
44 90
44 91
44 95
44 102
44 109
44 120
44 121
44 128
44 129
44 133
44 136
44 137
44 139
44 140
44 149
45 54
45 58
45 61
45 62
45 65
45 70
45 78
45 84
45 85
45 87
45 100
45 101
45 104
45 108
45 112
45 113
45 115
45 117
45 119
45 124
45 127
45 133
45 136
45 138
45 140
45 142
45 149
46 51
46 60
46 64
46 67
46 70
46 72
46 75
46 86
46 90
46 92
46 95
46 96
46 97
46 102
46 109
46 110
46 111
46 116
46 117
46 120
46 122
46 123
46 125
46 126
46 127
46 129
46 132
46 134
46 138
46 145
47 53
47 54
47 60
47 62
47 63
47 64
47 68
47 71
47 73
47 77
47 78
47 80
47 83
47 89
47 91
47 93
47 94
47 97
47 100
47 128
47 130
47 133
47 135
47 139
47 144
47 146
48 59
48 64
48 66
48 68
48 85
48 86
48 89
48 98
48 105
48 106
48 110
48 111
48 112
48 119
48 122
48 123
48 124
48 127
48 136
48 138
48 139
48 140
48 143
48 144
48 145
48 149
49 50
49 51
49 52
49 56
49 60
49 61
49 71
49 78
49 80
49 81
49 85
49 86
49 89
49 93
49 101
49 103
49 105
49 106
49 107
49 110
49 112
49 115
49 118
49 120
49 127
49 130
49 138
49 142
49 145
50 55
50 59
50 60
50 61
50 77
50 79
50 86
50 92
50 99
50 106
50 112
50 116
50 125
50 127
50 130
50 132
51 56
51 57
51 68
51 71
51 77
51 80
51 87
51 91
51 93
51 100
51 102
51 104
51 105
51 108
51 118
51 119
51 120
51 121
51 127
51 128
51 131
51 133
51 134
51 136
51 137
51 138
51 143
51 146
52 56
52 57
52 59
52 60
52 66
52 70
52 74
52 79
52 80
52 87
52 88
52 90
52 92
52 97
52 103
52 114
52 116
52 121
52 138
52 144
52 149
53 60
53 63
53 75
53 79
53 84
53 90
53 98
53 112
53 113
53 115
53 126
53 134
53 145
53 147
54 56
54 77
54 78
54 80
54 83
54 84
54 88
54 89
54 92
54 97
54 101
54 116
54 121
54 123
54 139
54 140
54 144
54 146
54 149
55 56
55 57
55 58
55 60
55 63
55 76
55 78
55 92
55 94
55 95
55 104
55 106
55 107
55 110
55 116
55 120
55 127
55 135
55 137
55 141
55 146
55 147
55 149
56 81
56 82
56 86
56 95
56 96
56 98
56 99
56 102
56 103
56 104
56 107
56 111
56 115
56 116
56 120
56 126
56 127
56 128
56 131
57 59
57 62
57 64
57 66
57 76
57 78
57 80
57 91
57 92
57 99
57 101
57 105
57 110
57 111
57 120
57 123
57 127
57 128
57 129
57 130
57 135
57 143
57 146
57 147
58 59
58 61
58 62
58 68
58 69
58 73
58 77
58 88
58 89
58 93
58 94
58 95
58 106
58 112
58 113
58 116
58 117
58 118
58 119
58 122
58 124
58 128
58 129
58 130
58 132
58 138
58 139
58 143
59 60
59 66
59 71
59 73
59 78
59 79
59 83
59 88
59 92
59 96
59 99
59 120
59 122
59 125
59 131
59 132
59 134
59 135
59 140
59 143
59 144
59 145
59 149
60 64
60 69
60 83
60 84
60 85
60 87
60 89
60 92
60 93
60 95
60 100
60 103
60 109
60 115
60 116
60 119
60 120
60 132
60 140
60 141
60 142
61 64
61 65
61 70
61 71
61 72
61 76
61 80
61 86
61 89
61 91
61 95
61 98
61 99
61 102
61 106
61 108
61 112
61 115
61 122
61 124
61 129
61 132
61 136
61 140
61 142
61 144
61 147
62 64
62 67
62 75
62 83
62 89
62 104
62 106
62 108
62 110
62 114
62 116
62 118
62 119
62 127
62 129
62 135
62 138
62 147
62 148
63 70
63 72
63 75
63 76
63 81
63 84
63 87
63 92
63 93
63 94
63 95
63 103
63 106
63 107
63 110
63 111
63 112
63 116
63 117
63 125
63 128
63 130
63 139
63 141
63 144
63 146
64 70
64 73
64 74
64 75
64 78
64 80
64 83
64 85
64 89
64 100
64 101
64 103
64 104
64 109
64 110
64 117
64 120
64 121
64 122
64 133
64 134
64 135
64 137
64 149
65 69
65 70
65 71
65 72
65 75
65 81
65 82
65 85
65 92
65 100
65 103
65 107
65 109
65 112
65 113
65 118
65 122
65 124
65 126
65 130
65 134
65 137
65 138
65 143
65 145
65 147
66 70
66 73
66 77
66 79
66 83
66 90
66 97
66 99
66 100
66 101
66 105
66 106
66 110
66 115
66 117
66 119
66 133
66 140
66 142
66 143
66 144
66 145
67 76
67 82
67 89
67 98
67 112
67 123
67 124
67 125
67 140
67 144
67 145
67 147
68 70
68 75
68 78
68 81
68 84
68 85
68 89
68 92
68 93
68 107
68 111
68 114
68 118
68 119
68 121
68 129
68 130
68 137
68 138
68 149
69 72
69 76
69 81
69 87
69 94
69 97
69 100
69 104
69 106
69 108
69 109
69 113
69 123
69 126
69 130
69 133
69 137
69 143
70 75
70 76
70 81
70 85
70 97
70 100
70 102
70 108
70 116
70 117
70 118
70 123
70 126
70 127
70 128
70 129
70 131
70 134
70 142
70 144
70 145
70 149
71 75
71 78
71 81
71 85
71 87
71 103
71 107
71 108
71 111
71 119
71 122
71 131
71 132
71 133
71 136
71 139
71 141
71 142
71 143
71 146
72 74
72 81
72 83
72 84
72 89
72 100
72 102
72 111
72 122
72 124
72 125
72 128
72 139
72 144
72 146
73 83
73 85
73 95
73 103
73 104
73 107
73 119
73 124
73 125
73 127
73 128
73 129
73 135
73 147
74 75
74 78
74 83
74 97
74 102
74 104
74 105
74 109
74 115
74 117
74 127
74 130
74 135
74 138
74 144
74 147
75 77
75 89
75 93
75 98
75 99
75 103
75 104
75 111
75 119
75 120
75 122
75 123
75 125
75 127
75 128
75 133
75 135
75 139
75 141
75 148
76 82
76 85
76 88
76 94
76 96
76 100
76 103
76 106
76 110
76 114
76 118
76 123
76 134
76 135
76 137
76 140
76 143
76 144
76 145
76 149
77 85
77 92
77 103
77 109
77 114
77 115
77 125
77 129
77 134
77 136
77 142
77 147
77 148
78 81
78 83
78 94
78 102
78 103
78 104
78 106
78 112
78 113
78 116
78 117
78 119
78 124
78 126
78 128
78 133
78 134
78 135
78 139
79 90
79 96
79 97
79 99
79 100
79 104
79 105
79 108
79 110
79 113
79 118
79 119
79 130
79 135
79 136
79 137
79 138
79 139
79 142
79 143
79 144
79 145
79 146
79 148
80 81
80 84
80 86
80 89
80 95
80 99
80 102
80 107
80 122
80 124
80 125
80 129
80 130
80 131
80 133
80 134
80 139
80 140
80 144
80 146
81 89
81 90
81 92
81 94
81 103
81 105
81 108
81 109
81 119
81 121
81 125
81 129
81 131
81 139
81 140
81 141
81 148
81 149
82 83
82 86
82 88
82 92
82 96
82 97
82 99
82 100
82 101
82 103
82 107
82 108
82 109
82 114
82 118
82 129
82 139
82 141
83 85
83 86
83 90
83 100
83 105
83 111
83 114
83 117
83 122
83 123
83 124
83 125
83 128
83 138
83 140
83 143
83 145
83 146
83 149
84 89
84 91
84 97
84 98
84 106
84 115
84 116
84 117
84 120
84 123
84 125
84 130
84 132
84 133
84 136
84 138
84 139
85 86
85 94
85 97
85 99
85 100
85 101
85 103
85 107
85 108
85 109
85 110
85 117
85 121
85 124
85 134
85 135
85 136
85 140
85 141
85 143
85 145
85 148
86 92
86 104
86 105
86 110
86 111
86 114
86 121
86 123
86 129
86 131
86 138
86 139
86 140
86 146
87 89
87 93
87 103
87 105
87 106
87 108
87 113
87 116
87 118
87 119
87 127
87 131
87 140
87 141
87 142
87 148
88 90
88 93
88 99
88 105
88 107
88 110
88 116
88 117
88 120
88 123
88 126
88 128
88 133
88 142
88 143
88 145
88 149
89 93
89 99
89 101
89 102
89 113
89 114
89 124
89 142
89 143
89 145
89 147
90 91
90 96
90 100
90 105
90 106
90 107
90 109
90 120
90 122
90 127
90 136
90 140
90 143
90 146
91 94
91 95
91 98
91 111
91 116
91 122
91 133
91 134
91 142
91 145
91 146
92 95
92 96
92 103
92 104
92 105
92 107
92 109
92 115
92 119
92 120
92 124
92 125
92 137
92 139
92 141
92 142
92 145
92 147
92 148
93 102
93 104
93 111
93 112
93 118
93 125
93 127
93 128
93 129
93 135
93 138
93 139
93 141
93 145
93 146
93 149
94 102
94 108
94 109
94 112
94 114
94 117
94 123
94 133
94 142
95 100
95 101
95 104
95 106
95 107
95 112
95 118
95 125
95 127
95 141
95 147
96 98
96 108
96 114
96 117
96 124
96 129
96 142
96 145
97 99
97 101
97 107
97 108
97 109
97 113
97 114
97 118
97 122
97 127
97 130
97 134
97 138
98 99
98 100
98 101
98 103
98 107
98 109
98 131
98 135
98 140
98 142
99 100
99 101
99 106
99 109
99 110
99 115
99 119
99 122
99 135
99 137
99 138
99 147
100 102
100 106
100 110
100 115
100 120
100 124
100 134
100 137
100 138
100 145
100 146
100 147
100 149
101 103
101 106
101 107
101 108
101 111
101 115
101 127
101 132
101 134
101 135
101 137
101 138
101 143
101 148
102 105
102 113
102 117
102 119
102 120
102 122
102 126
102 132
102 134
102 137
102 146
102 148
102 149
103 107
103 108
103 109
103 110
103 113
103 121
103 124
103 126
103 140
103 143
103 144
104 105
104 106
104 112
104 114
104 124
104 125
104 127
104 128
104 129
104 133
104 136
104 149
105 109
105 110
105 111
105 115
105 116
105 119
105 120
105 121
105 129
105 133
105 136
105 137
105 146
105 149
106 109
106 118
106 120
106 121
106 122
106 127
106 134
106 148
107 108
107 111
107 113
107 114
107 120
107 124
107 125
107 128
107 131
107 143
107 144
107 145
107 146
108 112
108 114
108 123
108 125
108 127
108 133
108 142
108 144
108 146
108 147
108 148
109 115
109 117
109 121
109 123
109 130
109 133
109 134
109 135
109 137
109 141
109 147
110 111
110 114
110 119
110 125
110 130
110 131
110 132
110 135
110 138
110 143
110 144
110 147
111 113
111 114
111 122
111 123
111 127
111 130
111 132
111 133
111 137
111 138
111 141
111 142
111 146
112 113
112 114
112 118
112 120
112 122
112 123
112 128
112 129
112 135
112 138
112 147
113 114
113 121
113 124
113 126
113 131
113 135
113 136
113 140
113 141
113 144
113 148
114 121
114 123
114 129
114 131
114 137
114 138
114 139
114 141
114 142
114 144
114 145
115 116
115 118
115 121
115 122
115 126
115 129
115 130
115 131
115 132
115 134
115 144
115 148
116 117
116 119
116 127
116 130
116 143
116 144
116 146
117 121
117 122
117 127
117 129
117 131
117 134
117 137
117 138
117 144
118 121
118 122
118 124
118 127
118 143
118 144
118 145
118 148
118 149
119 121
119 123
119 134
120 130
120 133
120 137
120 138
120 140
120 144
120 146
120 147
121 122
121 123
121 125
121 128
121 129
121 133
121 135
121 138
121 141
121 143
121 147
122 128
122 131
122 132
122 136
122 139
122 140
122 143
122 146
122 147
123 124
123 125
123 127
123 132
123 134
123 137
123 145
123 148
123 149
124 125
124 127
124 130
124 134
124 137
124 140
124 145
125 127
125 131
125 140
125 143
125 144
125 145
125 149
126 129
126 131
126 136
126 144
126 146
126 147
127 129
127 130
127 131
127 136
127 138
127 146
127 149
128 129
128 136
128 139
128 144
128 148
129 130
129 135
129 137
129 139
129 142
130 133
130 136
130 146
130 149
131 133
131 135
131 137
131 138
131 140
131 141
131 144
132 136
132 140
132 148
133 134
133 137
133 139
133 143
133 145
133 147
134 141
134 142
134 146
135 136
135 137
135 145
136 137
136 138
137 138
137 143
137 145
138 140
138 146
138 148
139 142
139 147
139 149
140 141
140 147
140 149
141 143
141 144
142 143
142 144
142 146
143 144
145 146
145 147
147 149
