150:5526
0 1
0 2
0 3
0 6
0 7
0 9
0 11
0 14
0 15
0 18
0 19
0 20
0 22
0 25
0 26
0 28
0 29
0 30
0 32
0 33
0 35
0 38
0 40
0 50
0 52
0 55
0 57
0 58
0 65
0 66
0 69
0 71
0 72
0 74
0 76
0 79
0 80
0 81
0 83
0 90
0 91
0 94
0 97
0 100
0 105
0 107
0 109
0 110
0 113
0 114
0 115
0 116
0 124
0 127
0 128
0 132
0 134
0 135
0 136
0 137
0 138
0 139
0 141
0 142
0 143
0 144
0 147
1 4
1 8
1 9
1 10
1 17
1 21
1 23
1 25
1 27
1 28
1 29
1 32
1 33
1 34
1 36
1 37
1 39
1 41
1 42
1 43
1 44
1 45
1 50
1 51
1 52
1 56
1 59
1 62
1 63
1 65
1 66
1 69
1 71
1 72
1 74
1 75
1 76
1 78
1 79
1 80
1 83
1 85
1 86
1 87
1 88
1 91
1 93
1 94
1 96
1 97
1 101
1 103
1 104
1 108
1 112
1 114
1 115
1 116
1 118
1 120
1 121
1 122
1 130
1 132
1 133
1 134
1 135
1 136
1 139
1 140
1 141
1 142
1 144
1 145
1 146
2 3
2 4
2 5
2 7
2 9
2 10
2 12
2 13
2 18
2 20
2 21
2 22
2 27
2 28
2 33
2 34
2 35
2 37
2 38
2 40
2 42
2 43
2 45
2 47
2 48
2 50
2 51
2 54
2 57
2 60
2 64
2 65
2 70
2 71
2 72
2 73
2 74
2 76
2 78
2 79
2 80
2 83
2 84
2 85
2 88
2 90
2 91
2 92
2 95
2 96
2 97
2 100
2 103
2 104
2 106
2 107
2 110
2 111
2 115
2 116
2 120
2 121
2 122
2 123
2 128
2 129
2 131
2 132
2 135
2 142
2 143
2 144
2 145
3 4
3 5
3 6
3 7
3 9
3 11
3 12
3 15
3 16
3 17
3 18
3 20
3 21
3 23
3 25
3 29
3 30
3 33
3 35
3 43
3 45
3 47
3 49
3 51
3 52
3 53
3 54
3 55
3 56
3 61
3 63
3 64
3 65
3 67
3 69
3 70
3 75
3 77
3 78
3 79
3 80
3 82
3 83
3 85
3 89
3 90
3 92
3 95
3 97
3 98
3 101
3 102
3 103
3 104
3 109
3 110
3 112
3 115
3 116
3 118
3 119
3 120
3 123
3 126
3 127
3 128
3 129
3 131
3 132
3 133
3 137
3 142
3 144
3 145
3 149
4 5
4 6
4 10
4 15
4 16
4 17
4 19
4 20
4 21
4 22
4 24
4 26
4 29
4 31
4 33
4 34
4 35
4 36
4 38
4 42
4 43
4 44
4 45
4 47
4 51
4 52
4 53
4 54
4 59
4 63
4 64
4 66
4 68
4 69
4 71
4 72
4 73
4 75
4 76
4 77
4 78
4 82
4 85
4 88
4 90
4 92
4 94
4 95
4 96
4 97
4 98
4 100
4 101
4 104
4 105
4 107
4 109
4 112
4 114
4 119
4 120
4 121
4 122
4 123
4 126
4 127
4 129
4 133
4 134
4 136
4 139
4 140
4 141
4 142
4 143
4 144
4 146
4 147
4 148
5 16
5 17
5 23
5 24
5 25
5 26
5 28
5 31
5 33
5 39
5 41
5 45
5 49
5 50
5 51
5 52
5 53
5 54
5 55
5 56
5 58
5 59
5 61
5 63
5 65
5 66
5 68
5 70
5 72
5 75
5 78
5 79
5 81
5 85
5 86
5 89
5 92
5 93
5 94
5 96
5 99
5 105
5 106
5 107
5 108
5 111
5 113
5 114
5 115
5 117
5 118
5 119
5 120
5 122
5 128
5 129
5 134
5 137
5 138
5 144
5 146
5 147
6 7
6 10
6 13
6 14
6 15
6 16
6 17
6 18
6 19
6 21
6 22
6 23
6 24
6 26
6 29
6 33
6 34
6 35
6 36
6 38
6 40
6 41
6 43
6 44
6 46
6 47
6 52
6 53
6 54
6 58
6 61
6 62
6 64
6 67
6 68
6 71
6 74
6 75
6 78
6 80
6 83
6 86
6 87
6 88
6 89
6 91
6 94
6 98
6 100
6 101
6 103
6 104
6 107
6 109
6 110
6 111
6 112
6 114
6 115
6 119
6 120
6 121
6 125
6 127
6 132
6 135
6 137
6 139
6 141
6 144
6 145
6 146
6 147
6 149
7 8
7 10
7 11
7 12
7 13
7 15
7 17
7 18
7 19
7 20
7 21
7 26
7 27
7 34
7 35
7 40
7 42
7 44
7 45
7 48
7 55
7 56
7 57
7 59
7 60
7 65
7 68
7 69
7 71
7 73
7 75
7 76
7 77
7 78
7 80
7 81
7 83
7 84
7 86
7 87
7 90
7 94
7 95
7 97
7 98
7 99
7 100
7 104
7 105
7 107
7 108
7 111
7 112
7 114
7 116
7 119
7 121
7 122
7 123
7 124
7 128
7 131
7 132
7 134
7 141
7 146
7 148
7 149
8 11
8 12
8 17
8 20
8 22
8 23
8 25
8 26
8 27
8 28
8 30
8 31
8 32
8 36
8 38
8 41
8 42
8 44
8 46
8 48
8 50
8 51
8 52
8 53
8 54
8 55
8 56
8 57
8 58
8 59
8 61
8 62
8 63
8 65
8 66
8 70
8 72
8 76
8 77
8 78
8 80
8 81
8 82
8 83
8 84
8 85
8 86
8 88
8 89
8 90
8 91
8 92
8 93
8 94
8 97
8 98
8 100
8 101
8 104
8 105
8 107
8 109
8 111
8 112
8 113
8 114
8 115
8 116
8 117
8 119
8 121
8 124
8 130
8 132
8 133
8 134
8 136
8 137
8 139
8 142
8 143
8 144
8 145
8 146
8 147
8 148
9 10
9 11
9 16
9 17
9 18
9 19
9 21
9 22
9 23
9 24
9 25
9 29
9 30
9 31
9 36
9 39
9 40
9 41
9 45
9 46
9 47
9 48
9 50
9 51
9 53
9 61
9 62
9 63
9 64
9 66
9 69
9 72
9 73
9 74
9 75
9 76
9 79
9 84
9 91
9 92
9 98
9 100
9 101
9 105
9 106
9 107
9 108
9 109
9 110
9 111
9 113
9 114
9 115
9 116
9 121
9 124
9 125
9 126
9 128
9 129
9 131
9 135
9 136
9 139
9 140
9 142
9 144
9 145
9 146
9 148
10 12
10 16
10 18
10 19
10 20
10 27
10 28
10 29
10 32
10 33
10 34
10 36
10 37
10 39
10 40
10 43
10 44
10 46
10 47
10 48
10 52
10 56
10 57
10 62
10 65
10 67
10 68
10 69
10 72
10 73
10 75
10 76
10 77
10 78
10 79
10 80
10 81
10 82
10 83
10 84
10 86
10 87
10 89
10 90
10 92
10 94
10 95
10 98
10 99
10 100
10 102
10 104
10 108
10 109
10 110
10 113
10 115
10 116
10 118
10 120
10 122
10 126
10 128
10 130
10 131
10 133
10 139
10 144
10 145
10 146
11 15
11 16
11 17
11 18
11 19
11 20
11 21
11 25
11 26
11 27
11 40
11 42
11 44
11 46
11 47
11 48
11 49
11 51
11 54
11 55
11 58
11 61
11 63
11 66
11 68
11 69
11 71
11 73
11 74
11 75
11 81
11 82
11 83
11 84
11 86
11 88
11 89
11 92
11 93
11 94
11 98
11 99
11 103
11 104
11 107
11 108
11 109
11 110
11 112
11 115
11 120
11 122
11 123
11 125
11 126
11 128
11 131
11 132
11 136
11 138
11 140
11 146
12 13
12 16
12 17
12 18
12 20
12 21
12 23
12 27
12 38
12 40
12 43
12 47
12 50
12 56
12 57
12 59
12 61
12 63
12 64
12 65
12 66
12 68
12 69
12 71
12 73
12 74
12 77
12 82
12 84
12 85
12 86
12 89
12 93
12 95
12 96
12 97
12 98
12 99
12 103
12 105
12 107
12 110
12 111
12 112
12 113
12 114
12 115
12 116
12 120
12 121
12 123
12 127
12 129
12 132
12 134
12 136
12 137
12 138
12 139
12 140
12 141
12 142
12 143
12 145
12 149
13 14
13 16
13 17
13 18
13 19
13 21
13 26
13 27
13 28
13 30
13 31
13 34
13 35
13 36
13 40
13 41
13 42
13 43
13 44
13 45
13 46
13 47
13 48
13 51
13 53
13 54
13 55
13 58
13 59
13 60
13 61
13 62
13 63
13 64
13 66
13 68
13 69
13 70
13 72
13 74
13 75
13 77
13 79
13 80
13 83
13 84
13 85
13 88
13 90
13 92
13 100
13 101
13 102
13 107
13 108
13 109
13 110
13 111
13 112
13 113
13 116
13 119
13 120
13 121
13 126
13 127
13 128
13 129
13 133
13 139
13 142
13 143
13 145
13 147
13 148
14 15
14 16
14 22
14 25
14 26
14 28
14 30
14 32
14 34
14 41
14 43
14 46
14 47
14 48
14 52
14 53
14 55
14 56
14 58
14 59
14 60
14 62
14 68
14 71
14 73
14 77
14 78
14 80
14 82
14 83
14 84
14 89
14 92
14 94
14 98
14 100
14 101
14 102
14 103
14 104
14 106
14 108
14 109
14 111
14 113
14 117
14 118
14 120
14 121
14 122
14 124
14 126
14 128
14 129
14 130
14 132
14 134
14 136
14 141
14 144
14 145
14 147
14 148
15 16
15 19
15 20
15 21
15 23
15 24
15 26
15 28
15 29
15 30
15 31
15 32
15 37
15 38
15 42
15 43
15 44
15 45
15 47
15 49
15 51
15 52
15 53
15 57
15 59
15 65
15 66
15 68
15 69
15 72
15 73
15 75
15 77
15 80
15 81
15 83
15 84
15 86
15 87
15 89
15 90
15 91
15 95
15 98
15 101
15 104
15 105
15 107
15 108
15 109
15 110
15 112
15 114
15 115
15 116
15 117
15 118
15 120
15 123
15 124
15 127
15 128
15 131
15 132
15 135
15 137
15 139
15 140
15 142
15 143
15 146
15 147
15 148
15 149
16 18
16 20
16 21
16 23
16 25
16 27
16 32
16 33
16 35
16 36
16 37
16 42
16 44
16 46
16 47
16 48
16 50
16 53
16 54
16 56
16 58
16 59
16 63
16 65
16 66
16 68
16 69
16 72
16 73
16 76
16 77
16 79
16 81
16 82
16 83
16 85
16 88
16 91
16 95
16 96
16 97
16 98
16 104
16 105
16 108
16 111
16 112
16 113
16 115
16 116
16 117
16 118
16 119
16 120
16 122
16 124
16 125
16 126
16 128
16 130
16 131
16 136
16 140
16 142
16 143
16 144
16 145
16 147
16 148
17 18
17 19
17 22
17 23
17 24
17 25
17 27
17 30
17 31
17 33
17 34
17 39
17 42
17 43
17 45
17 46
17 47
17 51
17 52
17 53
17 54
17 55
17 59
17 60
17 63
17 67
17 74
17 75
17 77
17 80
17 82
17 83
17 84
17 85
17 91
17 94
17 96
17 97
17 99
17 102
17 104
17 105
17 107
17 109
17 111
17 113
17 115
17 116
17 120
17 122
17 123
17 124
17 128
17 130
17 131
17 132
17 134
17 135
17 138
17 139
17 140
17 141
17 142
17 144
17 145
17 149
18 20
18 22
18 23
18 25
18 26
18 27
18 28
18 29
18 36
18 42
18 44
18 45
18 47
18 50
18 56
18 58
18 60
18 63
18 65
18 66
18 68
18 69
18 71
18 72
18 73
18 74
18 75
18 77
18 78
18 80
18 81
18 84
18 85
18 87
18 89
18 90
18 91
18 92
18 93
18 94
18 96
18 97
18 99
18 100
18 101
18 102
18 109
18 115
18 118
18 123
18 125
18 126
18 129
18 130
18 132
18 133
18 135
18 137
18 138
18 141
18 143
18 147
18 149
19 21
19 22
19 23
19 24
19 25
19 26
19 27
19 29
19 32
19 35
19 36
19 37
19 39
19 41
19 42
19 43
19 45
19 46
19 47
19 48
19 51
19 52
19 53
19 54
19 55
19 57
19 58
19 60
19 61
19 62
19 65
19 67
19 68
19 69
19 70
19 72
19 74
19 75
19 76
19 79
19 80
19 81
19 82
19 86
19 87
19 91
19 92
19 93
19 95
19 96
19 97
19 98
19 100
19 102
19 103
19 104
19 105
19 107
19 110
19 112
19 114
19 116
19 117
19 119
19 123
19 124
19 126
19 127
19 128
19 132
19 136
19 137
19 138
19 140
19 141
19 142
19 143
19 144
19 147
19 148
19 149
20 22
20 24
20 25
20 27
20 28
20 32
20 34
20 35
20 38
20 39
20 40
20 41
20 42
20 44
20 45
20 46
20 48
20 49
20 50
20 53
20 56
20 57
20 58
20 60
20 61
20 62
20 63
20 66
20 69
20 70
20 72
20 73
20 74
20 80
20 81
20 82
20 84
20 85
20 86
20 90
20 93
20 95
20 97
20 99
20 102
20 104
20 107
20 108
20 110
20 111
20 112
20 116
20 118
20 121
20 129
20 130
20 134
20 135
20 143
20 145
20 147
21 25
21 26
21 27
21 28
21 30
21 32
21 35
21 37
21 38
21 39
21 40
21 43
21 44
21 50
21 51
21 54
21 56
21 57
21 61
21 65
21 67
21 68
21 69
21 70
21 71
21 74
21 75
21 77
21 79
21 80
21 82
21 83
21 84
21 87
21 88
21 89
21 91
21 92
21 95
21 100
21 104
21 106
21 107
21 110
21 111
21 113
21 114
21 121
21 122
21 125
21 127
21 130
21 132
21 133
21 135
21 138
21 140
21 142
21 144
21 146
21 147
22 23
22 24
22 26
22 29
22 30
22 31
22 32
22 33
22 37
22 38
22 40
22 41
22 43
22 45
22 46
22 50
22 52
22 55
22 58
22 59
22 60
22 61
22 63
22 64
22 68
22 69
22 72
22 74
22 75
22 78
22 79
22 83
22 86
22 88
22 91
22 92
22 96
22 98
22 99
22 102
22 103
22 104
22 108
22 111
22 114
22 117
22 120
22 123
22 125
22 131
22 132
22 133
22 134
22 137
22 138
22 142
22 143
22 144
22 145
22 147
22 149
23 25
23 26
23 28
23 30
23 31
23 32
23 33
23 35
23 36
23 38
23 39
23 40
23 41
23 43
23 45
23 47
23 53
23 54
23 55
23 56
23 57
23 58
23 60
23 61
23 62
23 63
23 64
23 66
23 68
23 70
23 71
23 74
23 78
23 80
23 86
23 87
23 91
23 93
23 97
23 98
23 99
23 101
23 102
23 103
23 104
23 105
23 109
23 111
23 113
23 114
23 115
23 117
23 118
23 119
23 120
23 122
23 128
23 129
23 131
23 134
23 137
23 140
23 141
23 146
23 147
23 148
24 26
24 27
24 31
24 32
24 33
24 36
24 38
24 39
24 40
24 42
24 44
24 46
24 47
24 48
24 50
24 51
24 52
24 53
24 55
24 56
24 59
24 61
24 62
24 65
24 67
24 70
24 71
24 74
24 76
24 77
24 78
24 80
24 83
24 84
24 85
24 87
24 88
24 89
24 94
24 99
24 100
24 101
24 102
24 106
24 107
24 108
24 109
24 113
24 114
24 116
24 119
24 121
24 123
24 124
24 125
24 126
24 127
24 129
24 130
24 131
24 132
24 134
24 137
24 140
24 141
24 142
24 144
24 146
24 147
24 148
25 28
25 29
25 30
25 31
25 33
25 37
25 38
25 39
25 40
25 47
25 50
25 51
25 56
25 57
25 58
25 59
25 60
25 62
25 63
25 65
25 66
25 68
25 71
25 73
25 76
25 78
25 86
25 87
25 90
25 91
25 92
25 94
25 95
25 96
25 101
25 102
25 105
25 106
25 107
25 108
25 109
25 111
25 112
25 115
25 117
25 118
25 120
25 123
25 125
25 126
25 127
25 128
25 129
25 132
25 133
25 135
25 137
25 140
25 144
25 146
25 147
25 149
26 27
26 28
26 32
26 34
26 35
26 39
26 40
26 42
26 45
26 48
26 49
26 52
26 54
26 56
26 57
26 60
26 65
26 66
26 68
26 71
26 72
26 73
26 74
26 75
26 76
26 77
26 78
26 79
26 80
26 83
26 84
26 86
26 89
26 90
26 91
26 92
26 93
26 95
26 98
26 100
26 101
26 103
26 105
26 107
26 109
26 113
26 115
26 116
26 120
26 121
26 122
26 123
26 125
26 126
26 127
26 128
26 131
26 133
26 136
26 137
26 138
26 139
26 140
26 145
26 146
26 147
26 148
26 149
27 30
27 31
27 32
27 33
27 35
27 37
27 47
27 48
27 51
27 52
27 53
27 54
27 57
27 59
27 61
27 62
27 63
27 65
27 67
27 70
27 74
27 76
27 78
27 79
27 80
27 94
27 98
27 99
27 101
27 102
27 103
27 104
27 106
27 108
27 111
27 113
27 114
27 115
27 118
27 119
27 121
27 122
27 124
27 126
27 128
27 132
27 133
27 135
27 138
27 140
27 141
27 142
27 144
27 145
27 149
28 37
28 40
28 41
28 43
28 44
28 45
28 46
28 47
28 53
28 54
28 55
28 59
28 60
28 61
28 63
28 69
28 72
28 74
28 76
28 78
28 79
28 80
28 81
28 82
28 84
28 87
28 88
28 90
28 91
28 92
28 93
28 94
28 95
28 96
28 97
28 98
28 102
28 105
28 106
28 107
28 108
28 112
28 113
28 114
28 115
28 116
28 117
28 118
28 120
28 122
28 123
28 124
28 125
28 126
28 128
28 129
28 130
28 133
28 138
28 139
28 149
29 31
29 33
29 38
29 39
29 40
29 43
29 47
29 49
29 53
29 54
29 56
29 57
29 58
29 60
29 61
29 62
29 68
29 73
29 75
29 78
29 79
29 83
29 92
29 93
29 94
29 95
29 96
29 98
29 99
29 100
29 101
29 105
29 106
29 108
29 109
29 110
29 111
29 113
29 115
29 117
29 118
29 120
29 122
29 124
29 125
29 126
29 127
29 129
29 130
29 132
29 133
29 136
29 138
29 139
29 140
29 143
29 145
29 147
29 148
30 32
30 33
30 36
30 37
30 38
30 40
30 42
30 43
30 44
30 45
30 47
30 48
30 49
30 51
30 52
30 53
30 54
30 57
30 59
30 61
30 64
30 66
30 67
30 68
30 71
30 74
30 75
30 78
30 88
30 90
30 91
30 93
30 94
30 95
30 97
30 98
30 99
30 102
30 104
30 105
30 106
30 110
30 113
30 114
30 115
30 117
30 118
30 120
30 122
30 123
30 124
30 127
30 134
30 135
30 137
30 140
30 143
30 144
30 145
30 149
31 32
31 35
31 36
31 37
31 41
31 44
31 49
31 50
31 53
31 55
31 56
31 58
31 59
31 60
31 61
31 63
31 64
31 65
31 66
31 67
31 70
31 72
31 73
31 77
31 80
31 81
31 84
31 85
31 87
31 88
31 89
31 95
31 98
31 100
31 102
31 103
31 104
31 105
31 107
31 112
31 115
31 118
31 124
31 125
31 126
31 127
31 130
31 131
31 133
31 138
31 142
31 143
31 145
31 146
31 147
31 148
31 149
32 34
32 36
32 40
32 42
32 43
32 46
32 47
32 49
32 51
32 54
32 57
32 58
32 61
32 62
32 63
32 65
32 68
32 71
32 72
32 74
32 80
32 88
32 91
32 93
32 98
32 100
32 102
32 105
32 106
32 108
32 110
32 111
32 114
32 118
32 128
32 130
32 131
32 132
32 135
32 138
32 139
32 140
32 141
32 145
32 147
32 148
33 36
33 37
33 40
33 41
33 43
33 44
33 45
33 47
33 50
33 51
33 52
33 56
33 57
33 60
33 62
33 63
33 73
33 80
33 81
33 82
33 84
33 87
33 90
33 92
33 95
33 96
33 99
33 100
33 101
33 103
33 105
33 106
33 110
33 112
33 113
33 115
33 116
33 121
33 123
33 126
33 127
33 129
33 131
33 132
33 133
33 134
33 135
33 136
33 137
33 138
33 142
33 143
33 144
34 36
34 39
34 41
34 45
34 49
34 50
34 51
34 53
34 56
34 58
34 59
34 60
34 66
34 67
34 69
34 72
34 73
34 74
34 75
34 78
34 79
34 80
34 82
34 83
34 88
34 92
34 96
34 98
34 100
34 102
34 103
34 104
34 105
34 106
34 108
34 110
34 111
34 112
34 113
34 114
34 116
34 117
34 119
34 121
34 123
34 125
34 126
34 128
34 129
34 131
34 134
34 135
34 136
34 139
34 140
34 148
34 149
35 37
35 40
35 41
35 46
35 47
35 48
35 50
35 55
35 57
35 58
35 59
35 60
35 62
35 63
35 64
35 67
35 69
35 70
35 73
35 75
35 78
35 79
35 83
35 86
35 87
35 90
35 92
35 93
35 94
35 98
35 102
35 103
35 107
35 108
35 109
35 111
35 112
35 114
35 115
35 116
35 123
35 127
35 129
35 132
35 133
35 134
35 135
35 138
35 141
35 142
35 144
35 146
35 148
36 44
36 48
36 49
36 50
36 51
36 55
36 58
36 59
36 61
36 65
36 69
36 71
36 72
36 74
36 78
36 83
36 86
36 87
36 90
36 98
36 100
36 102
36 107
36 108
36 109
36 110
36 111
36 114
36 115
36 117
36 118
36 119
36 121
36 124
36 126
36 127
36 128
36 129
36 131
36 134
36 139
36 143
36 145
36 146
36 148
37 39
37 41
37 42
37 44
37 45
37 46
37 47
37 48
37 52
37 53
37 55
37 57
37 58
37 60
37 62
37 65
37 66
37 69
37 70
37 71
37 73
37 74
37 75
37 77
37 78
37 81
37 87
37 89
37 90
37 91
37 93
37 98
37 101
37 102
37 109
37 111
37 112
37 116
37 117
37 119
37 121
37 122
37 123
37 125
37 126
37 127
37 128
37 130
37 135
37 137
37 139
37 140
37 144
37 147
37 149
38 39
38 40
38 41
38 42
38 43
38 44
38 46
38 51
38 52
38 54
38 55
38 59
38 60
38 66
38 71
38 74
38 75
38 77
38 79
38 83
38 84
38 85
38 86
38 87
38 93
38 94
38 95
38 98
38 99
38 100
38 102
38 103
38 107
38 112
38 115
38 116
38 118
38 119
38 120
38 122
38 123
38 124
38 128
38 129
38 130
38 133
38 134
38 135
38 136
38 137
38 140
38 142
38 144
38 145
38 146
39 43
39 44
39 47
39 49
39 50
39 52
39 53
39 56
39 58
39 61
39 63
39 65
39 66
39 68
39 71
39 73
39 74
39 75
39 77
39 78
39 79
39 80
39 82
39 83
39 88
39 89
39 92
39 95
39 100
39 101
39 102
39 103
39 104
39 105
39 107
39 109
39 110
39 112
39 115
39 117
39 118
39 122
39 126
39 133
39 135
39 143
39 144
39 145
39 147
39 148
40 41
40 42
40 45
40 46
40 47
40 48
40 50
40 54
40 56
40 59
40 60
40 61
40 63
40 66
40 67
40 70
40 72
40 74
40 77
40 78
40 79
40 80
40 81
40 82
40 83
40 84
40 87
40 89
40 91
40 92
40 95
40 96
40 99
40 101
40 102
40 105
40 107
40 108
40 109
40 110
40 115
40 116
40 119
40 122
40 123
40 125
40 127
40 128
40 129
40 131
40 132
40 134
40 135
40 137
40 144
40 145
40 147
40 148
41 42
41 43
41 45
41 47
41 50
41 54
41 56
41 57
41 59
41 62
41 65
41 67
41 68
41 71
41 72
41 75
41 77
41 78
41 81
41 84
41 85
41 87
41 89
41 92
41 93
41 95
41 98
41 105
41 106
41 107
41 108
41 109
41 111
41 112
41 114
41 115
41 119
41 120
41 123
41 124
41 127
41 128
41 129
41 132
41 134
41 135
41 137
41 138
41 142
41 147
41 148
42 44
42 45
42 47
42 48
42 49
42 52
42 53
42 54
42 59
42 62
42 67
42 68
42 69
42 71
42 73
42 75
42 81
42 83
42 85
42 90
42 93
42 94
42 95
42 100
42 101
42 102
42 107
42 108
42 109
42 110
42 113
42 114
42 115
42 119
42 126
42 127
42 128
42 131
42 132
42 137
42 138
42 141
42 142
42 146
42 148
43 44
43 45
43 46
43 47
43 48
43 51
43 52
43 53
43 57
43 58
43 59
43 60
43 62
43 63
43 66
43 67
43 70
43 74
43 75
43 76
43 77
43 79
43 81
43 84
43 88
43 89
43 90
43 92
43 93
43 94
43 100
43 104
43 107
43 110
43 112
43 113
43 116
43 121
43 122
43 125
43 126
43 129
43 130
43 132
43 133
43 135
43 136
43 139
43 141
43 144
43 145
43 147
44 46
44 49
44 51
44 52
44 53
44 54
44 55
44 56
44 57
44 59
44 60
44 61
44 63
44 64
44 65
44 69
44 71
44 72
44 73
44 78
44 79
44 85
44 86
44 89
44 90
44 91
44 96
44 97
44 98
44 102
44 105
44 106
44 107
44 108
44 109
44 110
44 115
44 117
44 118
44 120
44 121
44 127
44 128
44 129
44 131
44 133
44 134
44 135
44 136
44 138
44 139
44 140
44 143
45 47
45 49
45 50
45 53
45 54
45 56
45 61
45 63
45 64
45 65
45 68
45 69
45 70
45 71
45 72
45 73
45 75
45 76
45 77
45 81
45 82
45 84
45 85
45 86
45 88
45 91
45 93
45 95
45 96
45 97
45 99
45 101
45 102
45 103
45 104
45 105
45 106
45 107
45 109
45 110
45 111
45 112
45 113
45 115
45 118
45 123
45 125
45 126
45 127
45 130
45 132
45 133
45 134
45 135
45 136
45 138
45 139
45 142
45 144
45 147
45 149
46 51
46 52
46 54
46 55
46 57
46 59
46 61
46 64
46 65
46 66
46 67
46 68
46 69
46 71
46 73
46 74
46 75
46 76
46 77
46 78
46 79
46 80
46 84
46 85
46 86
46 89
46 91
46 92
46 93
46 94
46 95
46 96
46 98
46 100
46 101
46 103
46 105
46 107
46 112
46 114
46 116
46 123
46 124
46 125
46 129
46 130
46 131
46 132
46 133
46 134
46 135
46 139
46 141
46 142
46 144
46 145
46 147
46 148
46 149
47 49
47 51
47 52
47 56
47 58
47 60
47 62
47 63
47 66
47 67
47 69
47 70
47 72
47 75
47 81
47 85
47 90
47 91
47 92
47 94
47 97
47 98
47 99
47 101
47 102
47 104
47 106
47 108
47 109
47 110
47 112
47 113
47 115
47 119
47 121
47 129
47 130
47 132
47 134
47 135
47 136
47 138
47 141
47 148
48 49
48 51
48 54
48 55
48 56
48 58
48 61
48 63
48 64
48 67
48 69
48 70
48 71
48 73
48 74
48 75
48 76
48 79
48 80
48 81
48 88
48 90
48 91
48 92
48 93
48 96
48 102
48 103
48 105
48 107
48 108
48 109
48 110
48 112
48 113
48 114
48 115
48 118
48 119
48 120
48 121
48 122
48 123
48 124
48 125
48 128
48 129
48 130
48 136
48 138
48 140
48 147
48 149
49 50
49 51
49 54
49 55
49 58
49 59
49 62
49 65
49 70
49 72
49 74
49 75
49 76
49 77
49 79
49 81
49 84
49 87
49 89
49 91
49 95
49 96
49 99
49 103
49 107
49 111
49 114
49 116
49 119
49 120
49 122
49 123
49 124
49 125
49 127
49 128
49 129
49 130
49 135
49 136
49 139
49 141
49 145
49 147
49 148
49 149
50 51
50 55
50 56
50 58
50 60
50 61
50 62
50 63
50 65
50 68
50 70
50 71
50 75
50 77
50 78
50 79
50 80
50 81
50 82
50 84
50 85
50 87
50 89
50 94
50 95
50 96
50 98
50 99
50 101
50 113
50 114
50 115
50 121
50 122
50 123
50 124
50 125
50 128
50 130
50 132
50 133
50 135
50 138
50 139
50 140
50 144
50 145
50 147
50 148
51 52
51 56
51 57
51 60
51 62
51 66
51 68
51 69
51 71
51 72
51 73
51 74
51 77
51 81
51 82
51 83
51 85
51 87
51 88
51 89
51 90
51 96
51 97
51 98
51 99
51 100
51 102
51 103
51 105
51 106
51 107
51 111
51 112
51 113
51 115
51 116
51 118
51 122
51 123
51 124
51 125
51 126
51 127
51 130
51 132
51 133
51 135
51 136
51 140
51 141
51 144
51 145
51 146
51 148
51 149
52 55
52 56
52 57
52 59
52 60
52 61
52 66
52 69
52 72
52 73
52 74
52 75
52 78
52 79
52 80
52 81
52 83
52 84
52 85
52 86
52 87
52 90
52 95
52 99
52 102
52 103
52 107
52 109
52 111
52 113
52 115
52 117
52 118
52 120
52 124
52 125
52 128
52 132
52 133
52 136
52 137
52 140
52 142
52 144
52 149
53 55
53 57
53 59
53 62
53 63
53 64
53 65
53 67
53 70
53 73
53 76
53 78
53 80
53 81
53 82
53 84
53 85
53 87
53 91
53 95
53 99
53 103
53 105
53 111
53 112
53 113
53 114
53 115
53 116
53 120
53 121
53 122
53 123
53 124
53 126
53 139
53 141
53 142
53 143
53 144
53 147
53 148
53 149
54 57
54 58
54 59
54 60
54 61
54 65
54 66
54 67
54 70
54 73
54 81
54 85
54 88
54 90
54 92
54 101
54 102
54 103
54 105
54 108
54 109
54 110
54 111
54 113
54 114
54 115
54 118
54 119
54 120
54 121
54 123
54 124
54 126
54 129
54 132
54 136
54 138
54 139
54 141
54 143
54 144
54 145
54 148
54 149
55 56
55 57
55 58
55 60
55 61
55 62
55 63
55 64
55 66
55 68
55 71
55 72
55 73
55 75
55 76
55 77
55 79
55 81
55 85
55 86
55 88
55 89
55 90
55 91
55 92
55 94
55 95
55 96
55 100
55 104
55 106
55 109
55 110
55 113
55 115
55 116
55 117
55 118
55 121
55 123
55 124
55 125
55 126
55 127
55 135
55 141
55 143
55 144
55 146
55 148
55 149
56 64
56 65
56 66
56 67
56 68
56 71
56 72
56 73
56 76
56 79
56 80
56 84
56 85
56 89
56 93
56 95
56 96
56 97
56 98
56 100
56 101
56 102
56 105
56 109
56 111
56 115
56 120
56 123
56 125
56 127
56 128
56 130
56 131
56 133
56 134
56 137
56 139
56 140
56 141
56 144
56 149
57 60
57 61
57 64
57 68
57 70
57 72
57 73
57 74
57 75
57 78
57 79
57 80
57 86
57 87
57 89
57 90
57 92
57 94
57 96
57 97
57 98
57 99
57 100
57 102
57 104
57 112
57 115
57 116
57 119
57 121
57 122
57 128
57 129
57 133
57 135
57 137
57 143
57 144
57 148
57 149
58 59
58 60
58 62
58 63
58 64
58 69
58 71
58 73
58 74
58 75
58 77
58 79
58 81
58 82
58 84
58 85
58 86
58 87
58 88
58 89
58 91
58 93
58 94
58 97
58 98
58 99
58 101
58 104
58 105
58 106
58 107
58 108
58 109
58 111
58 112
58 116
58 117
58 119
58 120
58 122
58 124
58 125
58 130
58 132
58 137
58 138
58 142
58 144
58 145
58 146
58 147
59 61
59 65
59 67
59 68
59 69
59 81
59 84
59 85
59 88
59 89
59 91
59 92
59 93
59 94
59 99
59 100
59 101
59 102
59 103
59 104
59 109
59 112
59 113
59 114
59 115
59 118
59 122
59 125
59 127
59 135
59 138
59 141
59 142
59 143
59 144
59 145
59 146
59 147
59 148
60 61
60 62
60 63
60 64
60 65
60 69
60 71
60 72
60 75
60 76
60 78
60 84
60 85
60 87
60 88
60 89
60 101
60 104
60 106
60 109
60 110
60 111
60 118
60 119
60 121
60 122
60 125
60 126
60 127
60 128
60 129
60 130
60 131
60 133
60 134
60 135
60 137
60 138
60 141
60 143
60 144
60 146
60 147
60 148
61 62
61 64
61 65
61 67
61 68
61 71
61 72
61 75
61 76
61 77
61 78
61 81
61 82
61 83
61 84
61 91
61 93
61 98
61 101
61 104
61 105
61 109
61 111
61 113
61 116
61 120
61 123
61 124
61 125
61 126
61 127
61 128
61 131
61 132
61 137
61 139
61 141
61 143
61 144
61 145
61 146
61 149
62 64
62 65
62 68
62 71
62 72
62 73
62 75
62 76
62 77
62 79
62 81
62 83
62 85
62 86
62 87
62 88
62 90
62 96
62 98
62 102
62 104
62 107
62 108
62 110
62 111
62 112
62 113
62 116
62 117
62 119
62 125
62 126
62 127
62 130
62 131
62 132
62 133
62 134
62 135
62 136
62 139
62 140
62 142
62 145
62 146
62 147
62 148
62 149
63 64
63 67
63 68
63 70
63 72
63 73
63 75
63 76
63 79
63 80
63 81
63 82
63 84
63 85
63 86
63 87
63 89
63 93
63 94
63 97
63 98
63 99
63 104
63 106
63 108
63 110
63 112
63 113
63 115
63 117
63 122
63 124
63 127
63 128
63 129
63 131
63 132
63 133
63 134
63 137
63 139
63 143
63 144
63 145
63 149
64 66
64 69
64 70
64 72
64 73
64 74
64 75
64 77
64 78
64 79
64 80
64 81
64 86
64 88
64 89
64 90
64 91
64 95
64 98
64 101
64 102
64 103
64 104
64 106
64 109
64 110
64 111
64 112
64 114
64 116
64 117
64 118
64 120
64 121
64 122
64 123
64 124
64 125
64 126
64 128
64 130
64 133
64 134
64 135
64 137
64 138
64 141
64 145
64 149
65 67
65 69
65 70
65 72
65 76
65 78
65 80
65 81
65 82
65 85
65 87
65 88
65 89
65 91
65 93
65 95
65 98
65 99
65 102
65 103
65 106
65 107
65 108
65 109
65 110
65 112
65 114
65 116
65 120
65 122
65 124
65 125
65 126
65 129
65 131
65 132
65 135
65 138
65 142
65 144
65 149
66 68
66 69
66 70
66 73
66 74
66 75
66 78
66 79
66 81
66 82
66 84
66 86
66 88
66 92
66 94
66 102
66 103
66 104
66 105
66 108
66 109
66 111
66 112
66 113
66 114
66 115
66 116
66 118
66 120
66 121
66 126
66 127
66 131
66 133
66 134
66 135
66 138
66 140
66 141
66 142
66 145
66 147
66 149
67 71
67 74
67 81
67 89
67 90
67 92
67 93
67 94
67 95
67 98
67 102
67 103
67 104
67 107
67 109
67 110
67 113
67 114
67 116
67 118
67 120
67 125
67 127
67 128
67 131
67 134
67 135
67 137
67 139
67 142
67 143
67 144
67 146
67 149
68 71
68 72
68 76
68 77
68 79
68 80
68 83
68 84
68 86
68 87
68 88
68 90
68 92
68 96
68 98
68 99
68 101
68 106
68 107
68 110
68 116
68 118
68 119
68 121
68 124
68 125
68 128
68 129
68 130
68 131
68 132
68 133
68 136
68 137
68 143
68 146
68 149
69 70
69 72
69 73
69 75
69 77
69 78
69 79
69 80
69 82
69 83
69 85
69 89
69 92
69 94
69 95
69 96
69 98
69 99
69 102
69 104
69 106
69 110
69 111
69 112
69 114
69 117
69 119
69 120
69 122
69 123
69 124
69 128
69 129
69 133
69 135
69 138
69 140
69 141
69 142
69 144
69 145
69 147
69 148
69 149
70 71
70 72
70 77
70 80
70 84
70 85
70 86
70 87
70 88
70 89
70 92
70 95
70 96
70 97
70 98
70 100
70 102
70 103
70 111
70 112
70 113
70 114
70 118
70 121
70 122
70 123
70 124
70 125
70 128
70 132
70 134
70 137
70 143
70 144
71 72
71 75
71 76
71 77
71 80
71 88
71 89
71 90
71 91
71 99
71 100
71 101
71 102
71 105
71 107
71 108
71 109
71 110
71 111
71 112
71 114
71 115
71 118
71 120
71 123
71 126
71 127
71 129
71 130
71 132
71 134
71 135
71 136
71 138
71 139
71 146
71 148
71 149
72 80
72 81
72 85
72 87
72 91
72 93
72 94
72 97
72 100
72 103
72 105
72 107
72 108
72 112
72 113
72 115
72 119
72 121
72 122
72 123
72 125
72 126
72 128
72 130
72 137
72 138
72 140
72 143
72 144
72 146
72 148
72 149
73 76
73 82
73 83
73 87
73 88
73 90
73 93
73 94
73 95
73 96
73 97
73 98
73 100
73 103
73 104
73 106
73 108
73 110
73 115
73 116
73 119
73 120
73 121
73 122
73 127
73 134
73 141
73 143
73 144
73 146
73 147
73 148
73 149
74 78
74 79
74 81
74 82
74 84
74 86
74 87
74 92
74 95
74 96
74 99
74 104
74 105
74 107
74 110
74 113
74 116
74 120
74 122
74 124
74 125
74 132
74 134
74 136
74 141
74 142
74 144
74 146
74 147
74 149
75 78
75 79
75 80
75 82
75 84
75 88
75 89
75 90
75 91
75 92
75 94
75 96
75 97
75 100
75 102
75 103
75 104
75 107
75 108
75 109
75 110
75 111
75 113
75 117
75 124
75 127
75 129
75 130
75 132
75 133
75 134
75 136
75 138
75 141
75 142
75 143
75 144
75 145
75 148
75 149
76 79
76 83
76 87
76 90
76 92
76 95
76 100
76 103
76 104
76 106
76 109
76 111
76 112
76 113
76 114
76 116
76 118
76 119
76 120
76 126
76 127
76 129
76 130
76 131
76 132
76 133
76 134
76 135
76 136
76 140
76 144
76 146
76 148
76 149
77 78
77 80
77 82
77 83
77 84
77 85
77 87
77 88
77 92
77 94
77 98
77 101
77 102
77 103
77 105
77 109
77 111
77 112
77 113
77 116
77 117
77 118
77 121
77 122
77 123
77 125
77 126
77 128
77 129
77 130
77 133
77 134
77 138
77 139
77 142
77 143
77 144
77 146
78 79
78 81
78 82
78 84
78 85
78 86
78 87
78 88
78 90
78 91
78 93
78 95
78 97
78 98
78 102
78 103
78 104
78 108
78 114
78 115
78 116
78 123
78 124
78 129
78 135
78 136
78 137
78 138
78 139
78 142
78 143
78 144
78 147
78 149
79 80
79 82
79 86
79 87
79 88
79 89
79 92
79 93
79 95
79 99
79 100
79 101
79 103
79 104
79 105
79 106
79 107
79 108
79 111
79 112
79 113
79 114
79 115
79 117
79 119
79 121
79 122
79 124
79 126
79 127
79 128
79 130
79 133
79 137
79 140
79 141
79 145
79 149
80 83
80 84
80 86
80 89
80 90
80 91
80 92
80 93
80 94
80 96
80 97
80 98
80 99
80 100
80 102
80 103
80 108
80 109
80 113
80 114
80 115
80 122
80 123
80 124
80 126
80 127
80 129
80 130
80 131
80 132
80 135
80 136
80 139
80 140
80 141
80 142
80 144
80 145
80 146
81 83
81 88
81 90
81 92
81 93
81 94
81 95
81 98
81 100
81 106
81 107
81 108
81 109
81 110
81 112
81 117
81 118
81 119
81 121
81 122
81 124
81 125
81 128
81 132
81 133
81 135
81 136
81 137
81 139
81 143
81 144
81 145
81 146
81 148
82 83
82 85
82 87
82 89
82 90
82 98
82 100
82 101
82 108
82 110
82 115
82 116
82 117
82 118
82 120
82 121
82 122
82 125
82 126
82 134
82 135
82 139
82 140
82 146
82 149
83 84
83 86
83 87
83 88
83 89
83 91
83 92
83 93
83 94
83 96
83 97
83 107
83 109
83 112
83 114
83 115
83 118
83 123
83 125
83 131
83 132
83 133
83 134
83 135
83 136
83 138
83 139
83 140
83 141
83 144
83 149
84 85
84 86
84 89
84 92
84 94
84 97
84 99
84 100
84 101
84 102
84 103
84 105
84 107
84 108
84 110
84 113
84 119
84 125
84 127
84 130
84 131
84 132
84 133
84 134
84 136
84 137
84 139
84 140
84 141
84 142
84 143
85 86
85 90
85 91
85 92
85 93
85 94
85 97
85 103
85 104
85 105
85 106
85 108
85 109
85 110
85 112
85 114
85 117
85 119
85 121
85 123
85 124
85 127
85 130
85 136
85 137
85 138
85 139
85 140
85 141
85 142
85 143
85 144
85 146
85 147
86 87
86 88
86 89
86 90
86 92
86 93
86 94
86 96
86 98
86 100
86 103
86 107
86 108
86 109
86 111
86 114
86 115
86 119
86 120
86 121
86 124
86 126
86 129
86 134
86 135
86 136
86 137
86 139
86 140
86 144
86 146
86 147
86 148
86 149
87 88
87 91
87 92
87 96
87 97
87 100
87 102
87 105
87 107
87 109
87 110
87 111
87 113
87 114
87 115
87 117
87 118
87 120
87 123
87 127
87 128
87 129
87 135
87 137
87 138
87 140
87 141
87 146
87 147
88 89
88 92
88 93
88 95
88 97
88 102
88 103
88 107
88 108
88 111
88 112
88 113
88 114
88 116
88 117
88 118
88 119
88 120
88 122
88 127
88 128
88 130
88 131
88 140
88 142
88 143
89 93
89 101
89 102
89 103
89 105
89 108
89 109
89 111
89 112
89 113
89 114
89 116
89 117
89 119
89 120
89 123
89 124
89 125
89 126
89 127
89 128
89 133
89 134
89 135
89 137
89 140
89 142
89 143
89 147
89 148
90 91
90 96
90 98
90 99
90 103
90 105
90 107
90 109
90 110
90 111
90 112
90 115
90 116
90 117
90 121
90 122
90 125
90 127
90 128
90 136
90 138
90 143
90 146
90 147
90 149
91 93
91 99
91 100
91 102
91 103
91 106
91 109
91 110
91 111
91 113
91 114
91 115
91 117
91 120
91 121
91 122
91 123
91 127
91 129
91 130
91 131
91 132
91 133
91 134
91 135
91 138
91 139
91 141
91 142
91 145
91 146
92 93
92 94
92 96
92 99
92 101
92 106
92 107
92 108
92 110
92 111
92 112
92 114
92 116
92 117
92 118
92 123
92 124
92 127
92 129
92 130
92 131
92 133
92 136
92 137
92 143
92 144
92 145
92 146
93 94
93 96
93 97
93 98
93 100
93 101
93 104
93 105
93 106
93 107
93 108
93 110
93 112
93 114
93 115
93 116
93 118
93 119
93 120
93 121
93 123
93 126
93 128
93 129
93 132
93 133
93 136
93 138
93 140
93 141
93 142
93 145
93 147
93 148
93 149
94 97
94 99
94 102
94 108
94 111
94 112
94 116
94 117
94 120
94 122
94 123
94 124
94 127
94 128
94 129
94 130
94 132
94 135
94 141
94 143
94 145
94 147
94 148
95 96
95 97
95 98
95 103
95 105
95 106
95 109
95 110
95 112
95 115
95 116
95 120
95 123
95 124
95 125
95 126
95 130
95 134
95 136
95 138
95 139
95 142
95 146
95 147
96 98
96 103
96 105
96 111
96 113
96 114
96 117
96 119
96 120
96 121
96 122
96 127
96 128
96 129
96 130
96 134
96 135
96 136
96 139
96 143
96 148
96 149
97 99
97 102
97 103
97 104
97 106
97 107
97 111
97 114
97 118
97 119
97 120
97 121
97 123
97 124
97 126
97 127
97 128
97 129
97 131
97 132
97 135
97 136
97 139
97 142
97 147
97 148
97 149
98 99
98 100
98 104
98 109
98 111
98 115
98 119
98 120
98 121
98 122
98 123
98 125
98 127
98 128
98 129
98 132
98 134
98 136
98 137
98 138
98 141
98 143
98 144
98 148
99 101
99 103
99 104
99 106
99 107
99 116
99 118
99 120
99 124
99 126
99 128
99 129
99 130
99 131
99 133
99 138
99 140
99 141
99 142
99 145
100 103
100 106
100 107
100 109
100 112
100 114
100 115
100 116
100 118
100 119
100 120
100 123
100 124
100 125
100 128
100 131
100 132
100 137
100 138
100 139
100 142
100 144
100 149
101 103
101 104
101 106
101 107
101 108
101 112
101 116
101 117
101 119
101 120
101 121
101 129
101 132
101 133
101 134
101 135
101 136
101 138
101 142
101 144
101 146
101 148
102 103
102 106
102 107
102 110
102 114
102 115
102 117
102 118
102 122
102 123
102 124
102 125
102 126
102 128
102 129
102 131
102 133
102 134
102 136
102 139
102 141
102 144
102 145
102 146
102 148
103 106
103 108
103 109
103 110
103 112
103 113
103 116
103 117
103 118
103 119
103 120
103 122
103 125
103 126
103 128
103 131
103 133
103 137
103 138
103 139
103 141
103 142
103 143
103 146
103 147
103 149
104 105
104 107
104 109
104 116
104 117
104 118
104 119
104 121
104 122
104 123
104 124
104 125
104 126
104 128
104 129
104 130
104 132
104 133
104 134
104 137
104 139
104 141
104 142
104 146
104 147
104 149
105 106
105 111
105 112
105 114
105 115
105 117
105 118
105 119
105 121
105 123
105 125
105 129
105 130
105 131
105 132
105 133
105 134
105 139
105 142
105 145
105 146
106 113
106 114
106 116
106 117
106 118
106 119
106 120
106 122
106 124
106 125
106 127
106 131
106 133
106 135
106 136
106 139
106 141
106 142
106 144
106 146
106 148
107 110
107 111
107 112
107 113
107 114
107 115
107 118
107 119
107 121
107 122
107 124
107 127
107 132
107 133
107 134
107 135
107 137
107 140
107 143
108 111
108 113
108 115
108 116
108 117
108 124
108 126
108 129
108 130
108 131
108 132
108 134
108 137
108 138
108 139
108 142
108 143
108 144
108 145
108 146
108 148
109 110
109 115
109 116
109 117
109 119
109 122
109 127
109 128
109 129
109 130
109 133
109 135
109 138
109 139
109 140
109 142
109 143
109 145
109 146
110 111
110 112
110 113
110 115
110 116
110 120
110 121
110 123
110 124
110 129
110 130
110 134
110 135
110 137
110 139
110 140
110 141
110 144
110 145
110 148
110 149
111 112
111 113
111 115
111 119
111 120
111 124
111 126
111 128
111 129
111 130
111 132
111 134
111 135
111 139
111 141
111 144
111 148
112 115
112 116
112 119
112 120
112 126
112 128
112 129
112 131
112 132
112 136
112 140
112 141
112 143
112 144
112 145
112 146
112 147
112 149
113 115
113 117
113 121
113 123
113 125
113 126
113 127
113 128
113 131
113 133
113 134
113 135
113 141
113 142
113 143
113 145
113 146
113 147
113 148
113 149
114 119
114 120
114 121
114 122
114 124
114 125
114 128
114 129
114 131
114 132
114 133
114 134
114 135
114 136
114 137
114 140
114 141
114 144
114 145
114 147
114 148
114 149
115 116
115 117
115 119
115 121
115 129
115 130
115 132
115 134
115 138
115 139
115 140
115 143
115 145
115 146
115 147
115 148
115 149
116 118
116 122
116 123
116 125
116 128
116 130
116 132
116 133
116 135
116 136
116 138
116 139
116 144
116 145
116 148
117 121
117 122
117 123
117 124
117 127
117 131
117 139
117 140
117 141
117 142
117 143
117 144
117 145
117 146
117 148
117 149
118 120
118 121
118 122
118 125
118 130
118 132
118 133
118 134
118 135
118 138
118 139
118 140
118 141
118 144
118 146
118 148
118 149
119 122
119 128
119 131
119 132
119 133
119 135
119 136
119 137
119 138
119 140
119 142
119 144
119 145
119 148
119 149
120 121
120 122
120 123
120 125
120 126
120 130
120 132
120 135
120 138
120 139
120 140
120 142
120 144
120 148
121 122
121 124
121 127
121 128
121 129
121 130
121 132
121 135
121 136
121 137
121 139
121 141
121 142
121 143
121 144
121 146
121 147
121 149
122 126
122 127
122 128
122 129
122 130
122 131
122 132
122 134
122 138
122 140
122 143
122 144
122 145
122 147
123 124
123 128
123 129
123 131
123 132
123 134
123 136
123 138
123 139
123 141
123 142
123 145
123 149
124 125
124 126
124 129
124 133
124 136
124 137
124 138
124 139
124 141
124 142
124 144
124 145
124 147
124 149
125 128
125 134
125 136
125 138
125 139
125 143
125 144
125 145
125 146
126 127
126 129
126 130
126 132
126 135
126 137
126 139
126 140
126 141
126 142
126 145
126 147
126 148
127 128
127 129
127 134
127 137
127 138
127 139
127 140
127 141
127 144
127 145
127 147
127 149
128 129
128 130
128 131
128 133
128 141
128 144
128 146
129 132
129 133
129 134
129 135
129 136
129 137
129 139
129 141
129 142
129 143
129 144
129 145
129 146
129 147
130 131
130 132
130 133
130 136
130 140
130 142
130 143
130 144
130 145
130 147
130 148
130 149
131 133
131 134
131 135
131 136
131 137
131 139
131 140
131 141
131 145
131 147
131 149
132 134
132 135
132 138
132 139
132 141
132 142
132 146
133 134
133 135
133 137
133 139
133 142
133 143
133 147
133 148
133 149
134 135
134 138
134 139
134 142
134 145
134 146
134 148
135 137
135 139
135 145
136 138
136 140
136 141
136 143
136 144
136 146
136 148
136 149
137 138
137 139
137 140
137 142
137 144
137 146
137 148
138 139
138 140
138 145
138 146
138 147
138 149
139 143
140 145
140 146
140 148
140 149
141 143
141 144
141 145
141 146
142 143
142 144
142 145
142 147
142 149
143 145
143 146
143 149
144 145
144 147
144 148
145 146
146 148
146 149
147 148
148 149
