150:2800
0 6
0 7
0 14
0 22
0 29
0 50
0 52
0 55
0 58
0 65
0 66
0 71
0 72
0 76
0 79
0 80
0 81
0 91
0 94
0 97
0 100
0 105
0 109
0 114
0 115
0 124
0 134
0 136
0 139
0 141
0 143
1 9
1 17
1 28
1 33
1 39
1 42
1 51
1 52
1 62
1 65
1 72
1 74
1 75
1 79
1 80
1 83
1 88
1 93
1 94
1 97
1 114
1 115
1 118
1 120
1 130
1 132
1 134
1 135
1 140
1 142
1 144
1 145
1 146
2 3
2 4
2 5
2 9
2 10
2 12
2 13
2 18
2 20
2 22
2 27
2 28
2 33
2 34
2 37
2 43
2 47
2 50
2 54
2 64
2 65
2 73
2 78
2 83
2 85
2 88
2 90
2 91
2 96
2 97
2 104
2 107
2 110
2 115
2 116
2 122
2 123
2 128
2 129
2 131
2 132
2 135
2 145
3 4
3 5
3 6
3 9
3 12
3 15
3 16
3 17
3 18
3 25
3 29
3 33
3 35
3 43
3 45
3 49
3 56
3 67
3 77
3 78
3 80
3 82
3 85
3 90
3 97
3 98
3 101
3 104
3 112
3 115
3 118
3 126
3 128
3 132
3 133
3 142
3 144
3 149
4 5
4 6
4 15
4 17
4 20
4 21
4 22
4 26
4 29
4 36
4 38
4 43
4 44
4 45
4 51
4 52
4 54
4 59
4 66
4 68
4 69
4 71
4 72
4 73
4 75
4 76
4 82
4 92
4 98
4 100
4 104
4 105
4 107
4 109
4 112
4 119
4 120
4 122
4 126
4 129
4 134
4 136
4 140
4 141
4 143
4 147
5 16
5 17
5 23
5 25
5 33
5 39
5 41
5 52
5 54
5 56
5 58
5 61
5 63
5 65
5 68
5 70
5 72
5 75
5 78
5 79
5 81
5 85
5 86
5 96
5 99
5 105
5 106
5 107
5 108
5 113
5 114
5 115
5 122
5 128
5 134
5 137
5 138
5 146
6 7
6 10
6 14
6 15
6 16
6 18
6 23
6 24
6 26
6 29
6 33
6 34
6 35
6 40
6 43
6 46
6 52
6 54
6 58
6 71
6 74
6 75
6 86
6 89
6 94
6 101
6 103
6 104
6 107
6 109
6 110
6 112
6 114
6 119
6 121
6 125
6 135
6 146
6 147
6 149
7 8
7 10
7 13
7 15
7 20
7 21
7 26
7 34
7 42
7 44
7 45
7 48
7 55
7 71
7 78
7 80
7 81
7 83
7 86
7 87
7 90
7 99
7 100
7 105
7 108
7 112
7 116
7 119
7 122
7 124
7 128
7 132
7 134
7 149
8 11
8 12
8 22
8 25
8 26
8 27
8 28
8 30
8 31
8 32
8 44
8 51
8 52
8 53
8 54
8 56
8 57
8 58
8 59
8 65
8 66
8 70
8 72
8 76
8 78
8 82
8 84
8 86
8 88
8 89
8 90
8 93
8 100
8 101
8 111
8 113
8 114
8 117
8 124
8 130
8 133
8 134
8 136
8 137
8 139
8 143
8 144
8 145
8 146
8 147
8 148
9 10
9 11
9 18
9 22
9 30
9 39
9 41
9 45
9 50
9 51
9 61
9 64
9 72
9 73
9 75
9 76
9 84
9 100
9 105
9 107
9 115
9 116
9 121
9 125
9 126
9 135
9 136
9 139
9 144
10 12
10 16
10 19
10 20
10 29
10 33
10 34
10 37
10 40
10 43
10 44
10 46
10 52
10 56
10 62
10 67
10 77
10 78
10 79
10 81
10 87
10 90
10 92
10 98
10 99
10 102
10 113
10 116
10 128
10 139
10 146
11 15
11 16
11 27
11 44
11 46
11 49
11 54
11 55
11 61
11 63
11 68
11 69
11 71
11 82
11 86
11 88
11 89
11 99
11 107
11 110
11 115
11 120
11 122
11 123
11 128
11 138
12 27
12 38
12 40
12 43
12 47
12 50
12 63
12 69
12 71
12 82
12 86
12 89
12 95
12 96
12 103
12 105
12 107
12 110
12 112
12 113
12 120
12 121
12 123
12 127
12 129
12 132
12 136
12 137
12 138
12 139
12 140
12 142
12 143
13 14
13 17
13 18
13 19
13 21
13 26
13 27
13 28
13 34
13 35
13 41
13 45
13 46
13 53
13 54
13 59
13 61
13 63
13 64
13 70
13 72
13 74
13 77
13 83
13 90
13 109
13 111
13 112
13 119
13 121
13 127
13 128
13 133
13 139
13 145
13 147
14 16
14 22
14 25
14 26
14 30
14 32
14 34
14 43
14 55
14 56
14 58
14 60
14 71
14 77
14 78
14 80
14 82
14 89
14 94
14 98
14 100
14 101
14 103
14 104
14 108
14 109
14 111
14 113
14 120
14 121
14 124
14 129
14 130
14 136
14 145
14 147
15 16
15 19
15 20
15 26
15 29
15 32
15 38
15 44
15 45
15 47
15 68
15 69
15 73
15 77
15 81
15 83
15 84
15 89
15 95
15 98
15 105
15 108
15 109
15 110
15 114
15 115
15 117
15 118
15 123
15 124
15 127
15 131
15 135
15 139
15 146
15 147
15 148
15 149
16 20
16 25
16 27
16 32
16 33
16 37
16 42
16 44
16 47
16 50
16 53
16 59
16 68
16 69
16 72
16 73
16 83
16 95
16 96
16 98
16 111
16 112
16 113
16 115
16 117
16 118
16 119
16 120
16 122
16 124
16 125
16 130
16 131
16 143
16 148
17 18
17 23
17 24
17 25
17 30
17 39
17 42
17 43
17 45
17 46
17 47
17 52
17 54
17 59
17 60
17 63
17 67
17 74
17 77
17 83
17 84
17 94
17 97
17 102
17 105
17 107
17 109
17 111
17 116
17 120
17 124
17 128
17 134
17 135
17 140
17 145
18 20
18 22
18 23
18 28
18 29
18 42
18 45
18 47
18 58
18 60
18 63
18 65
18 69
18 72
18 75
18 77
18 78
18 84
18 87
18 91
18 92
18 96
18 101
18 102
18 109
18 118
18 123
18 125
18 126
18 133
18 135
18 141
18 143
19 22
19 23
19 25
19 26
19 29
19 41
19 45
19 46
19 48
19 55
19 58
19 60
19 61
19 65
19 67
19 69
19 70
19 74
19 76
19 79
19 80
19 81
19 86
19 91
19 92
19 95
19 96
19 97
19 98
19 102
19 104
19 105
19 107
19 114
19 119
19 126
19 132
19 136
19 137
19 138
19 140
19 141
19 142
19 148
20 22
20 24
20 34
20 39
20 40
20 41
20 42
20 44
20 46
20 53
20 58
20 60
20 62
20 63
20 72
20 73
20 81
20 90
20 97
20 99
20 108
20 111
20 112
20 118
20 121
20 134
20 135
20 143
20 145
20 147
21 26
21 32
21 35
21 43
21 44
21 51
21 56
21 57
21 61
21 71
21 74
21 77
21 79
21 83
21 87
21 88
21 89
21 92
21 113
21 122
21 125
21 138
21 140
21 142
21 146
22 23
22 30
22 32
22 38
22 50
22 52
22 59
22 60
22 68
22 69
22 78
22 86
22 91
22 92
22 99
22 104
22 108
22 111
22 131
22 132
22 133
22 134
22 138
22 143
23 31
23 33
23 36
23 45
23 53
23 54
23 55
23 56
23 60
23 61
23 62
23 74
23 78
23 80
23 86
23 87
23 91
23 93
23 98
23 99
23 102
23 105
23 109
23 111
23 113
23 115
23 118
23 120
23 137
23 140
23 141
23 146
24 26
24 31
24 32
24 33
24 36
24 40
24 44
24 47
24 48
24 53
24 56
24 61
24 65
24 71
24 76
24 77
24 84
24 85
24 88
24 94
24 107
24 108
24 109
24 119
24 121
24 124
24 130
24 131
24 137
24 140
24 142
24 147
24 148
25 28
25 31
25 37
25 50
25 56
25 58
25 62
25 63
25 65
25 66
25 71
25 86
25 87
25 91
25 92
25 94
25 101
25 102
25 105
25 106
25 107
25 108
25 109
25 111
25 115
25 117
25 126
25 127
25 128
25 133
25 135
25 147
25 149
26 27
26 28
26 32
26 34
26 45
26 56
26 57
26 71
26 72
26 73
26 74
26 77
26 78
26 79
26 80
26 84
26 86
26 90
26 91
26 93
26 95
26 101
26 103
26 109
26 126
26 128
26 131
26 136
26 137
26 140
26 146
26 147
26 148
26 149
27 32
27 33
27 52
27 53
27 59
27 61
27 63
27 65
27 67
27 76
27 78
27 80
27 98
27 103
27 104
27 106
27 108
27 111
27 114
27 118
27 121
27 126
27 135
27 140
27 141
27 142
28 37
28 54
28 60
28 61
28 63
28 69
28 72
28 74
28 78
28 79
28 81
28 87
28 91
28 92
28 95
28 96
28 102
28 107
28 112
28 113
28 122
28 123
28 124
28 128
28 129
28 138
28 139
29 31
29 33
29 40
29 47
29 53
29 57
29 58
29 68
29 73
29 83
29 92
29 93
29 94
29 95
29 96
29 105
29 109
29 117
29 124
29 127
29 129
29 130
29 132
29 140
29 143
29 145
29 148
30 32
30 33
30 37
30 38
30 43
30 44
30 48
30 53
30 57
30 61
30 64
30 88
30 91
30 93
30 94
30 97
30 98
30 99
30 110
30 114
30 115
30 117
30 120
30 122
30 123
30 127
30 134
30 135
30 140
30 143
30 144
30 145
31 32
31 35
31 36
31 41
31 49
31 50
31 53
31 55
31 56
31 61
31 70
31 77
31 80
31 81
31 85
31 98
31 103
31 112
31 115
31 118
31 125
31 127
31 131
31 142
31 145
31 146
31 149
32 34
32 40
32 43
32 47
32 49
32 51
32 58
32 62
32 65
32 71
32 72
32 88
32 91
32 98
32 100
32 102
32 106
32 110
32 128
32 130
32 139
32 145
33 36
33 40
33 43
33 44
33 50
33 52
33 57
33 60
33 63
33 73
33 81
33 87
33 92
33 95
33 100
33 101
33 112
33 116
33 121
33 123
33 126
33 127
33 129
33 131
33 136
33 138
33 144
34 41
34 45
34 50
34 51
34 56
34 59
34 60
34 66
34 72
34 74
34 78
34 79
34 82
34 92
34 102
34 106
34 108
34 110
34 112
34 113
34 119
34 123
34 125
34 126
34 129
34 140
35 37
35 40
35 41
35 46
35 55
35 57
35 58
35 59
35 60
35 62
35 63
35 69
35 78
35 83
35 86
35 92
35 93
35 102
35 103
35 108
35 109
35 111
35 112
35 115
35 127
35 129
35 134
35 141
35 142
35 144
35 148
36 61
36 72
36 78
36 83
36 87
36 98
36 109
36 114
36 115
36 118
36 119
36 121
36 124
36 127
36 128
36 131
37 39
37 41
37 45
37 47
37 53
37 55
37 58
37 62
37 66
37 77
37 78
37 87
37 91
37 98
37 101
37 109
37 111
37 117
37 123
37 127
37 135
37 137
37 140
37 144
38 39
38 40
38 41
38 43
38 46
38 54
38 55
38 60
38 66
38 75
38 79
38 83
38 84
38 85
38 87
38 95
38 100
38 102
38 107
38 115
38 116
38 119
38 120
38 122
38 136
38 145
38 146
39 49
39 53
39 56
39 58
39 61
39 65
39 66
39 71
39 73
39 74
39 80
39 82
39 88
39 95
39 100
39 102
39 107
39 109
39 115
39 118
39 126
39 144
40 42
40 47
40 50
40 54
40 72
40 81
40 83
40 91
40 92
40 95
40 101
40 108
40 109
40 119
40 122
40 125
40 129
40 135
40 137
40 145
40 148
41 42
41 43
41 45
41 54
41 62
41 67
41 75
41 77
41 78
41 84
41 95
41 98
41 105
41 106
41 109
41 114
41 119
41 120
41 124
41 127
41 128
41 132
41 134
41 135
41 137
41 142
42 44
42 47
42 48
42 52
42 54
42 59
42 68
42 69
42 71
42 73
42 75
42 85
42 93
42 94
42 95
42 100
42 109
42 115
42 119
42 126
42 127
42 131
42 132
42 137
42 138
42 142
42 146
42 148
43 44
43 46
43 53
43 58
43 59
43 60
43 62
43 63
43 70
43 74
43 75
43 88
43 89
43 90
43 92
43 94
43 100
43 104
43 107
43 110
43 112
43 116
43 121
43 125
43 130
43 133
43 135
43 141
43 144
43 147
44 46
44 49
44 52
44 55
44 56
44 57
44 59
44 60
44 64
44 71
44 78
44 89
44 90
44 97
44 98
44 102
44 105
44 106
44 108
44 109
44 118
44 127
44 131
44 134
44 135
44 138
44 143
45 47
45 53
45 54
45 56
45 69
45 70
45 73
45 77
45 81
45 82
45 84
45 86
45 88
45 93
45 96
45 102
45 105
45 107
45 109
45 111
45 118
45 123
45 132
45 136
45 139
45 142
45 144
45 147
46 55
46 59
46 61
46 64
46 65
46 66
46 71
46 78
46 79
46 80
46 85
46 86
46 89
46 91
46 92
46 94
46 95
46 96
46 98
46 101
46 103
46 107
46 114
46 124
46 125
46 131
46 133
46 134
46 135
46 139
46 142
46 144
46 148
46 149
47 49
47 52
47 58
47 60
47 62
47 63
47 66
47 69
47 97
47 99
47 102
47 104
47 108
47 113
47 115
47 129
47 134
47 136
47 138
48 54
48 55
48 58
48 67
48 74
48 75
48 79
48 80
48 81
48 88
48 91
48 92
48 93
48 96
48 105
48 107
48 108
48 109
48 112
48 113
48 114
48 118
48 119
48 120
48 121
48 125
48 129
48 130
48 140
48 147
48 149
49 50
49 54
49 55
49 58
49 62
49 70
49 72
49 74
49 75
49 76
49 79
49 81
49 84
49 87
49 89
49 96
49 99
49 107
49 111
49 114
49 123
49 127
49 128
49 129
49 145
49 147
50 55
50 61
50 68
50 75
50 81
50 85
50 94
50 96
50 99
50 101
50 123
50 124
50 135
50 138
50 144
50 147
51 56
51 60
51 62
51 69
51 71
51 73
51 74
51 77
51 87
51 88
51 89
51 90
51 96
51 97
51 100
51 102
51 103
51 105
51 106
51 107
51 112
51 115
51 122
51 123
51 125
51 126
51 132
51 136
51 140
51 145
51 146
52 56
52 57
52 59
52 61
52 66
52 72
52 83
52 85
52 90
52 107
52 113
52 118
52 125
52 128
52 140
52 144
52 149
53 59
53 67
53 81
53 82
53 84
53 95
53 103
53 114
53 116
53 120
53 141
53 142
53 144
53 147
53 148
54 57
54 58
54 61
54 66
54 70
54 85
54 90
54 92
54 108
54 109
54 113
54 115
54 118
54 119
54 120
54 121
54 123
54 126
54 139
54 141
55 61
55 63
55 64
55 73
55 75
55 76
55 79
55 85
55 89
55 96
55 104
55 106
55 110
55 115
55 116
55 118
55 143
55 144
55 148
56 64
56 65
56 67
56 68
56 71
56 72
56 73
56 76
56 80
56 84
56 85
56 89
56 95
56 96
56 97
56 100
56 120
56 123
56 125
56 127
56 137
56 139
56 141
57 60
57 61
57 68
57 70
57 74
57 79
57 80
57 89
57 92
57 96
57 97
57 98
57 99
57 104
57 112
57 115
57 116
57 119
57 121
57 122
57 128
57 129
57 133
57 137
57 148
57 149
58 62
58 63
58 64
58 75
58 81
58 82
58 85
58 86
58 87
58 88
58 91
58 93
58 97
58 98
58 99
58 101
58 107
58 108
58 112
58 119
58 125
58 130
58 132
58 137
58 138
58 142
58 147
59 61
59 65
59 68
59 89
59 91
59 94
59 100
59 101
59 103
59 104
59 109
59 112
59 113
59 114
59 118
59 122
59 127
59 141
59 142
59 143
59 145
59 147
60 61
60 62
60 64
60 69
60 72
60 78
60 84
60 85
60 88
60 89
60 101
60 109
60 110
60 111
60 121
60 122
60 127
60 128
60 129
60 133
60 137
60 143
60 146
60 148
61 64
61 67
61 68
61 71
61 75
61 77
61 81
61 84
61 91
61 93
61 98
61 101
61 105
61 109
61 111
61 113
61 116
61 120
61 123
61 131
61 139
61 145
62 73
62 75
62 77
62 79
62 83
62 85
62 87
62 88
62 96
62 98
62 104
62 107
62 116
62 117
62 125
62 127
62 130
62 131
62 136
62 139
62 142
62 147
62 148
62 149
63 64
63 72
63 75
63 76
63 79
63 80
63 81
63 85
63 86
63 94
63 97
63 99
63 108
63 110
63 113
63 115
63 124
63 127
63 128
63 129
63 132
63 134
63 137
63 139
63 143
64 69
64 70
64 72
64 73
64 78
64 79
64 86
64 89
64 90
64 91
64 102
64 103
64 104
64 106
64 118
64 122
64 123
64 124
64 125
64 128
64 134
64 135
64 138
64 145
65 69
65 72
65 76
65 78
65 81
65 82
65 87
65 91
65 93
65 95
65 99
65 103
65 106
65 107
65 112
65 114
65 116
65 122
65 125
65 129
65 131
65 135
65 142
65 149
66 68
66 69
66 70
66 74
66 75
66 79
66 84
66 86
66 88
66 102
66 109
66 111
66 112
66 113
66 114
66 127
66 133
66 140
66 149
67 81
67 92
67 93
67 94
67 109
67 113
67 114
67 116
67 120
67 125
67 128
67 131
67 134
67 135
67 139
67 142
67 143
68 76
68 80
68 83
68 87
68 88
68 90
68 98
68 99
68 106
68 107
68 118
68 121
68 125
68 130
68 136
68 143
68 146
68 149
69 73
69 75
69 77
69 78
69 82
69 92
69 95
69 99
69 102
69 106
69 112
69 123
69 124
69 129
69 133
69 145
69 148
70 71
70 77
70 85
70 86
70 87
70 92
70 95
70 96
70 97
70 98
70 100
70 103
70 111
70 113
70 114
70 118
70 122
70 125
70 128
70 132
70 134
71 72
71 76
71 77
71 80
71 88
71 91
71 100
71 101
71 102
71 105
71 108
71 110
71 111
71 112
71 115
71 120
71 127
71 129
71 130
71 135
71 146
71 148
72 80
72 91
72 93
72 94
72 97
72 108
72 113
72 115
72 128
72 130
72 140
72 148
72 149
73 76
73 88
73 93
73 94
73 96
73 97
73 98
73 104
73 116
73 119
73 122
73 127
73 141
73 146
73 148
73 149
74 78
74 84
74 86
74 96
74 99
74 104
74 107
74 113
74 116
74 120
74 132
74 136
74 141
74 142
74 146
74 147
75 80
75 88
75 89
75 91
75 92
75 94
75 96
75 97
75 102
75 104
75 108
75 110
75 117
75 124
75 127
75 130
75 136
75 138
75 142
75 145
75 148
76 79
76 83
76 87
76 92
76 103
76 104
76 106
76 109
76 112
76 113
76 114
76 118
76 126
76 133
76 144
77 78
77 83
77 84
77 94
77 98
77 103
77 105
77 111
77 116
77 117
77 121
77 123
77 134
77 142
77 143
77 144
77 146
78 81
78 82
78 85
78 86
78 88
78 93
78 95
78 97
78 102
78 103
78 104
78 108
78 129
78 135
78 136
78 138
78 139
78 143
78 144
78 147
78 149
79 82
79 87
79 88
79 99
79 104
79 105
79 106
79 107
79 108
79 111
79 112
79 113
79 114
79 115
79 117
79 119
79 122
79 124
79 127
79 133
79 137
79 140
79 145
80 91
80 93
80 94
80 98
80 99
80 100
80 102
80 103
80 108
80 109
80 113
80 115
80 126
80 127
80 129
80 131
80 140
80 142
80 145
80 146
81 88
81 90
81 94
81 98
81 100
81 108
81 109
81 110
81 117
81 118
81 119
81 122
81 124
81 128
81 132
81 133
81 135
81 136
81 137
81 139
81 143
81 144
81 145
82 83
82 87
82 98
82 108
82 110
82 120
82 121
82 125
82 135
82 140
82 146
82 149
83 86
83 91
83 92
83 93
83 94
83 97
83 107
83 109
83 112
83 114
83 115
83 118
83 123
83 125
83 131
83 132
83 140
83 149
84 85
84 86
84 89
84 92
84 94
84 99
84 101
84 102
84 105
84 107
84 108
84 119
84 127
84 130
84 132
84 133
84 134
84 136
84 140
84 141
84 142
84 143
85 86
85 90
85 93
85 103
85 104
85 105
85 109
85 110
85 112
85 114
85 117
85 124
85 136
85 137
85 142
85 143
85 146
86 90
86 92
86 98
86 100
86 107
86 108
86 109
86 115
86 120
86 124
86 134
86 136
86 137
86 139
86 144
86 147
86 149
87 88
87 96
87 100
87 109
87 110
87 111
87 117
87 120
87 123
87 129
87 135
87 137
87 140
87 146
87 147
88 89
88 92
88 95
88 97
88 102
88 111
88 112
88 114
88 118
88 122
88 128
88 130
88 131
88 142
88 143
89 93
89 111
89 112
89 114
89 116
89 119
89 124
89 128
89 133
89 134
89 135
89 137
89 148
90 91
90 96
90 105
90 109
90 112
90 115
90 121
90 122
90 125
90 138
90 143
90 149
91 102
91 103
91 111
91 114
91 115
91 121
91 122
91 129
91 130
91 131
91 133
91 135
91 141
91 145
91 146
92 93
92 94
92 106
92 108
92 110
92 111
92 114
92 116
92 117
92 127
92 129
92 136
92 137
92 143
93 94
93 96
93 97
93 98
93 104
93 107
93 108
93 110
93 114
93 115
93 118
93 126
93 132
93 133
93 136
93 138
93 141
93 147
94 102
94 111
94 123
94 124
94 127
94 129
94 130
94 135
94 141
94 148
95 96
95 110
95 116
95 120
95 130
95 136
95 139
95 146
96 98
96 111
96 114
96 120
96 122
96 128
96 129
96 130
96 134
96 135
96 139
96 143
96 148
97 99
97 103
97 107
97 119
97 120
97 121
97 123
97 127
97 129
98 100
98 104
98 109
98 111
98 119
98 120
98 125
98 128
98 129
98 134
98 138
98 141
99 104
99 106
99 107
99 116
99 120
99 124
99 128
99 133
99 138
99 142
100 103
100 106
100 107
100 114
100 115
100 116
100 118
100 120
100 123
100 124
100 125
100 128
100 132
100 144
100 149
101 103
101 104
101 106
101 107
101 112
101 117
101 121
101 129
101 133
101 135
101 136
101 138
101 142
101 148
102 103
102 106
102 115
102 117
102 118
102 122
102 123
102 124
102 125
102 128
102 136
102 139
102 141
103 109
103 112
103 113
103 119
103 120
103 126
103 128
103 138
103 139
103 141
103 142
103 143
103 147
104 105
104 118
104 122
104 123
104 124
104 128
104 129
104 132
104 133
104 134
104 142
104 146
104 149
105 106
105 115
105 118
105 121
105 130
105 132
105 133
105 134
105 139
105 146
106 117
106 119
106 122
106 124
106 125
106 131
106 135
106 136
106 139
106 142
107 112
107 113
107 114
107 115
107 122
107 124
107 133
107 135
107 137
107 143
108 111
108 113
108 115
108 116
108 117
108 124
108 126
108 130
108 132
108 139
108 142
108 143
108 144
108 146
109 110
109 116
109 119
109 122
109 127
109 133
109 138
109 139
109 140
109 143
109 146
110 112
110 113
110 116
110 120
110 121
110 129
110 130
110 134
110 137
110 139
110 140
110 144
110 145
110 148
110 149
111 115
111 119
111 120
111 124
111 126
111 128
111 129
111 134
111 135
111 141
111 144
112 116
112 119
112 126
112 129
112 131
112 136
112 140
112 141
112 145
112 146
112 149
113 117
113 125
113 127
113 133
113 135
113 141
113 142
113 143
113 145
113 146
113 148
113 149
114 119
114 121
114 124
114 125
114 129
114 132
114 133
114 134
114 135
114 137
114 147
115 117
115 119
115 121
115 129
115 132
115 145
115 146
115 148
116 122
116 123
116 128
116 130
116 132
116 135
116 138
116 139
116 145
117 121
117 122
117 124
117 127
117 143
117 144
117 145
117 148
117 149
118 120
118 122
118 133
119 128
119 131
119 135
119 136
119 138
119 142
119 144
119 145
119 148
119 149
120 122
120 125
120 126
120 130
120 132
120 135
120 138
120 140
120 144
121 124
121 127
121 128
121 132
121 135
121 136
121 139
121 142
121 143
121 146
121 147
121 149
122 127
122 129
122 132
122 140
122 143
122 144
122 145
122 147
123 124
123 128
123 131
123 134
123 139
123 145
123 149
124 133
124 136
124 137
124 138
124 142
124 145
124 147
125 128
125 136
125 138
125 139
125 143
125 144
125 145
126 127
126 129
126 137
126 140
126 141
126 148
127 129
127 134
127 138
127 140
127 145
127 147
127 149
128 131
128 141
128 144
129 134
129 137
129 139
129 141
129 143
129 144
129 146
129 147
130 131
130 140
130 144
131 134
131 136
131 139
131 141
131 145
131 147
131 149
132 141
132 142
132 146
133 134
133 135
133 143
133 148
133 149
134 146
135 137
135 139
135 145
136 138
136 140
136 144
136 149
137 139
137 140
137 146
137 148
138 139
138 140
138 146
138 147
138 149
139 143
140 145
140 146
141 145
142 143
142 144
142 145
142 147
143 146
143 149
144 147
144 148
145 146
147 148
148 149
