150:2794
0 4
0 15
0 18
0 22
0 26
0 29
0 35
0 36
0 42
0 46
0 47
0 51
0 57
0 64
0 74
0 79
0 80
0 83
0 87
0 88
0 91
0 97
0 101
0 102
0 103
0 106
0 112
0 115
0 122
0 129
0 130
0 131
0 134
0 135
0 139
0 145
1 8
1 13
1 15
1 16
1 18
1 23
1 26
1 32
1 34
1 40
1 41
1 44
1 49
1 50
1 56
1 59
1 63
1 75
1 79
1 84
1 86
1 90
1 91
1 92
1 95
1 99
1 105
1 109
1 110
1 117
1 126
1 128
1 146
1 149
2 6
2 11
2 16
2 17
2 22
2 24
2 33
2 35
2 40
2 43
2 45
2 48
2 55
2 60
2 61
2 66
2 74
2 77
2 80
2 88
2 92
2 95
2 98
2 103
2 118
2 123
2 128
2 129
2 132
2 142
2 143
2 147
2 148
3 6
3 25
3 32
3 37
3 48
3 49
3 52
3 55
3 57
3 59
3 62
3 64
3 65
3 71
3 87
3 91
3 93
3 95
3 97
3 104
3 114
3 115
3 123
3 124
3 126
3 129
3 138
3 139
3 146
3 148
4 7
4 8
4 11
4 12
4 14
4 18
4 19
4 20
4 21
4 25
4 28
4 32
4 39
4 46
4 52
4 53
4 65
4 72
4 84
4 100
4 103
4 105
4 107
4 109
4 110
4 113
4 120
4 121
4 123
4 125
4 128
4 133
4 136
4 143
4 145
4 149
5 7
5 8
5 30
5 36
5 38
5 39
5 44
5 51
5 52
5 59
5 63
5 65
5 72
5 76
5 79
5 81
5 86
5 104
5 108
5 117
5 118
5 123
5 129
5 132
5 135
5 139
5 140
5 146
5 147
6 9
6 21
6 24
6 25
6 29
6 35
6 40
6 41
6 43
6 47
6 48
6 52
6 57
6 58
6 61
6 63
6 68
6 72
6 74
6 76
6 95
6 104
6 106
6 107
6 113
6 116
6 118
6 126
6 127
6 128
6 129
6 133
6 136
6 138
6 140
6 143
7 8
7 16
7 19
7 24
7 26
7 28
7 30
7 31
7 33
7 45
7 46
7 49
7 51
7 58
7 60
7 61
7 63
7 71
7 73
7 75
7 77
7 81
7 90
7 93
7 98
7 107
7 109
7 122
7 131
7 133
7 134
7 139
7 141
7 143
7 146
7 148
8 9
8 12
8 14
8 16
8 17
8 21
8 28
8 29
8 34
8 35
8 37
8 41
8 45
8 61
8 66
8 67
8 68
8 74
8 81
8 83
8 85
8 89
8 101
8 103
8 104
8 108
8 117
8 120
8 126
8 128
8 129
8 131
8 144
8 148
9 13
9 16
9 18
9 24
9 28
9 29
9 32
9 33
9 36
9 50
9 57
9 59
9 61
9 66
9 68
9 69
9 72
9 73
9 77
9 79
9 80
9 81
9 82
9 84
9 89
9 93
9 97
9 102
9 104
9 114
9 119
9 125
9 126
9 136
9 139
9 148
10 13
10 15
10 17
10 18
10 25
10 35
10 42
10 54
10 57
10 62
10 63
10 68
10 71
10 73
10 75
10 78
10 82
10 97
10 98
10 102
10 106
10 109
10 110
10 116
10 122
10 125
10 137
10 138
10 146
11 14
11 15
11 17
11 18
11 19
11 25
11 26
11 27
11 31
11 41
11 43
11 46
11 49
11 52
11 54
11 57
11 60
11 66
11 68
11 69
11 75
11 82
11 83
11 86
11 97
11 99
11 100
11 106
11 110
11 111
11 133
11 137
11 141
12 14
12 17
12 20
12 29
12 42
12 43
12 46
12 47
12 48
12 51
12 56
12 57
12 62
12 64
12 67
12 71
12 72
12 74
12 78
12 82
12 89
12 95
12 96
12 104
12 109
12 111
12 119
12 122
12 123
12 124
12 139
12 141
13 15
13 16
13 19
13 20
13 21
13 22
13 25
13 34
13 37
13 45
13 49
13 51
13 61
13 62
13 66
13 67
13 70
13 72
13 82
13 83
13 91
13 92
13 97
13 99
13 100
13 105
13 110
13 116
13 124
13 129
13 130
13 132
13 135
13 136
13 137
13 142
13 143
14 17
14 26
14 31
14 32
14 41
14 42
14 47
14 49
14 52
14 54
14 58
14 59
14 61
14 64
14 65
14 69
14 70
14 71
14 72
14 73
14 76
14 84
14 86
14 91
14 92
14 94
14 95
14 96
14 97
14 98
14 104
14 105
14 106
14 109
14 113
14 121
14 123
14 124
14 133
14 135
14 137
14 144
15 23
15 27
15 28
15 36
15 37
15 41
15 42
15 44
15 46
15 59
15 60
15 63
15 65
15 73
15 82
15 87
15 94
15 95
15 96
15 99
15 112
15 116
15 122
15 123
15 127
15 136
15 141
15 143
15 146
16 20
16 29
16 30
16 34
16 36
16 41
16 44
16 49
16 53
16 54
16 61
16 65
16 67
16 69
16 70
16 77
16 83
16 84
16 87
16 94
16 97
16 99
16 106
16 107
16 115
16 118
16 121
16 125
16 129
16 131
16 132
16 136
17 19
17 20
17 22
17 24
17 26
17 31
17 37
17 42
17 47
17 53
17 56
17 61
17 62
17 63
17 74
17 89
17 90
17 92
17 93
17 101
17 103
17 104
17 106
17 110
17 113
17 116
17 120
17 121
17 122
17 124
17 129
17 132
17 137
17 139
17 144
17 145
18 35
18 48
18 49
18 53
18 54
18 58
18 68
18 71
18 72
18 73
18 76
18 77
18 79
18 81
18 84
18 85
18 86
18 94
18 96
18 98
18 112
18 114
18 123
18 126
18 127
18 130
18 131
18 133
18 136
18 145
19 24
19 31
19 32
19 36
19 45
19 48
19 53
19 57
19 63
19 70
19 75
19 83
19 87
19 94
19 106
19 117
19 121
19 123
19 130
19 131
19 135
19 142
19 143
19 149
20 31
20 32
20 33
20 37
20 38
20 46
20 50
20 58
20 62
20 63
20 65
20 76
20 81
20 85
20 94
20 97
20 101
20 106
20 110
20 113
20 117
20 120
20 121
20 123
20 131
20 133
20 135
20 147
21 25
21 30
21 31
21 54
21 55
21 62
21 64
21 65
21 68
21 83
21 87
21 88
21 92
21 96
21 99
21 105
21 107
21 108
21 110
21 111
21 112
21 113
21 115
21 122
21 123
21 125
21 126
21 127
21 130
21 145
22 24
22 28
22 29
22 39
22 42
22 44
22 47
22 50
22 54
22 64
22 68
22 70
22 71
22 72
22 77
22 88
22 91
22 98
22 100
22 106
22 111
22 112
22 128
22 132
22 134
22 135
22 143
22 148
22 149
23 25
23 27
23 37
23 38
23 42
23 52
23 53
23 61
23 69
23 70
23 86
23 88
23 89
23 95
23 98
23 99
23 100
23 101
23 103
23 107
23 108
23 114
23 117
23 119
23 120
23 122
23 125
23 126
23 128
23 133
23 135
23 143
23 144
23 146
23 148
23 149
24 29
24 30
24 32
24 33
24 37
24 38
24 42
24 54
24 59
24 64
24 65
24 69
24 70
24 71
24 72
24 73
24 76
24 78
24 87
24 88
24 93
24 94
24 103
24 107
24 110
24 117
24 118
24 126
24 132
24 137
24 144
24 148
25 28
25 32
25 35
25 37
25 40
25 41
25 45
25 47
25 54
25 55
25 59
25 63
25 64
25 74
25 88
25 92
25 93
25 95
25 105
25 107
25 108
25 109
25 114
25 116
25 121
25 127
25 128
25 136
25 139
25 140
25 141
25 146
25 149
26 29
26 31
26 34
26 35
26 36
26 38
26 40
26 47
26 50
26 54
26 56
26 57
26 61
26 63
26 67
26 69
26 73
26 74
26 76
26 79
26 84
26 87
26 90
26 96
26 101
26 102
26 105
26 108
26 113
26 114
26 120
26 121
26 122
26 126
26 128
26 133
26 137
26 138
26 142
26 143
26 149
27 29
27 32
27 44
27 46
27 57
27 60
27 61
27 69
27 71
27 76
27 77
27 79
27 85
27 86
27 88
27 90
27 93
27 94
27 95
27 101
27 103
27 115
27 129
27 137
27 141
27 144
27 146
27 149
28 38
28 48
28 59
28 60
28 63
28 64
28 67
28 71
28 81
28 87
28 90
28 91
28 99
28 113
28 116
28 118
28 127
28 129
28 139
28 148
29 35
29 44
29 49
29 53
29 54
29 55
29 59
29 68
29 75
29 78
29 85
29 87
29 92
29 95
29 102
29 105
29 107
29 113
29 114
29 115
29 119
29 121
29 123
29 125
29 126
29 127
29 129
29 130
29 135
29 136
29 138
29 139
29 141
29 145
29 146
29 149
30 32
30 39
30 44
30 47
30 52
30 58
30 61
30 62
30 66
30 68
30 70
30 72
30 92
30 98
30 101
30 104
30 107
30 109
30 112
30 113
30 117
30 118
30 120
30 122
30 128
30 130
30 131
30 135
30 137
30 142
31 33
31 36
31 40
31 43
31 48
31 53
31 58
31 60
31 62
31 63
31 66
31 70
31 71
31 84
31 90
31 91
31 94
31 96
31 98
31 108
31 114
31 117
31 121
31 124
31 126
31 129
31 131
31 135
31 136
31 139
31 146
32 34
32 43
32 53
32 54
32 57
32 65
32 68
32 70
32 72
32 75
32 81
32 92
32 93
32 102
32 103
32 108
32 110
32 111
32 116
32 121
32 122
32 124
32 128
32 129
32 141
33 36
33 40
33 44
33 47
33 52
33 59
33 64
33 84
33 86
33 88
33 89
33 90
33 103
33 106
33 107
33 109
33 122
33 125
33 133
33 135
33 136
34 39
34 42
34 45
34 47
34 49
34 54
34 69
34 73
34 84
34 86
34 87
34 98
34 100
34 103
34 104
34 107
34 109
34 115
34 116
34 121
34 122
34 127
34 134
34 135
34 136
34 137
34 138
34 142
34 145
35 38
35 39
35 43
35 53
35 55
35 58
35 63
35 65
35 67
35 72
35 79
35 82
35 83
35 85
35 93
35 94
35 97
35 103
35 107
35 109
35 119
35 120
35 123
35 126
35 131
35 137
35 140
35 145
35 147
36 39
36 40
36 50
36 56
36 58
36 59
36 60
36 61
36 66
36 85
36 87
36 88
36 89
36 92
36 93
36 98
36 99
36 100
36 101
36 105
36 118
36 119
36 120
36 121
36 125
36 132
36 136
36 148
37 39
37 42
37 44
37 56
37 58
37 60
37 62
37 65
37 75
37 76
37 77
37 78
37 81
37 84
37 91
37 98
37 100
37 102
37 104
37 114
37 120
37 121
37 122
37 130
37 131
37 133
37 134
37 141
37 144
37 149
38 39
38 40
38 49
38 50
38 52
38 53
38 57
38 58
38 67
38 75
38 81
38 89
38 94
38 96
38 103
38 109
38 111
38 116
38 118
38 122
38 124
38 125
38 127
38 128
38 129
38 132
38 135
38 142
39 45
39 47
39 48
39 49
39 51
39 52
39 57
39 59
39 62
39 73
39 75
39 87
39 89
39 93
39 101
39 102
39 104
39 109
39 115
39 117
39 123
39 126
39 127
39 129
39 130
39 133
39 136
39 143
39 148
39 149
40 47
40 52
40 53
40 57
40 63
40 69
40 78
40 85
40 87
40 90
40 98
40 111
40 114
40 117
40 124
40 134
40 137
40 139
40 148
41 43
41 45
41 49
41 54
41 59
41 61
41 66
41 68
41 69
41 71
41 77
41 82
41 85
41 86
41 90
41 96
41 104
41 105
41 110
41 122
41 123
41 129
41 131
41 143
41 147
42 47
42 54
42 62
42 70
42 74
42 80
42 84
42 90
42 91
42 93
42 94
42 95
42 100
42 103
42 105
42 106
42 125
42 130
42 131
42 132
42 133
42 136
42 137
42 139
42 140
42 144
42 145
42 148
43 51
43 52
43 53
43 54
43 56
43 68
43 69
43 76
43 82
43 83
43 87
43 95
43 98
43 99
43 100
43 106
43 113
43 115
43 117
43 122
43 135
43 136
43 137
43 140
43 147
44 45
44 46
44 47
44 53
44 64
44 66
44 68
44 75
44 81
44 88
44 92
44 94
44 95
44 99
44 101
44 103
44 105
44 107
44 112
44 115
44 131
44 132
44 134
44 140
44 141
44 144
44 145
44 147
44 148
45 46
45 47
45 52
45 53
45 61
45 64
45 65
45 74
45 79
45 84
45 86
45 90
45 91
45 92
45 93
45 94
45 99
45 100
45 101
45 103
45 105
45 111
45 113
45 114
45 115
45 119
45 120
45 125
45 140
45 144
45 146
45 147
45 148
46 51
46 54
46 56
46 57
46 64
46 71
46 73
46 77
46 89
46 91
46 92
46 93
46 96
46 99
46 100
46 111
46 113
46 122
46 123
46 128
46 132
46 134
47 52
47 57
47 60
47 61
47 67
47 70
47 71
47 73
47 75
47 77
47 84
47 88
47 94
47 97
47 107
47 110
47 126
47 128
47 130
47 133
47 134
47 138
47 141
47 143
47 148
48 51
48 52
48 57
48 63
48 69
48 70
48 78
48 92
48 93
48 97
48 98
48 104
48 113
48 115
48 120
48 125
48 127
48 131
48 132
48 134
48 139
48 140
48 144
48 145
49 52
49 55
49 56
49 60
49 61
49 62
49 65
49 66
49 68
49 70
49 71
49 72
49 73
49 75
49 86
49 88
49 92
49 93
49 100
49 103
49 104
49 106
49 107
49 111
49 113
49 115
49 119
49 121
49 124
49 126
49 129
49 140
49 142
49 143
49 145
49 148
50 55
50 56
50 58
50 62
50 68
50 74
50 78
50 84
50 85
50 87
50 94
50 96
50 101
50 106
50 116
50 117
50 125
50 128
50 131
50 135
50 140
50 142
50 146
50 147
50 148
51 57
51 58
51 64
51 65
51 73
51 75
51 78
51 87
51 89
51 91
51 99
51 107
51 120
51 130
51 138
51 141
51 142
51 145
51 146
52 54
52 58
52 60
52 64
52 65
52 68
52 69
52 70
52 81
52 90
52 92
52 95
52 103
52 111
52 115
52 118
52 120
52 127
52 128
52 130
52 136
52 137
52 139
52 144
53 54
53 55
53 63
53 66
53 67
53 68
53 83
53 85
53 86
53 96
53 101
53 107
53 114
53 120
53 121
53 125
53 145
53 147
54 66
54 72
54 74
54 79
54 80
54 84
54 85
54 88
54 89
54 98
54 109
54 114
54 117
54 120
54 122
54 126
54 135
54 144
54 148
55 64
55 68
55 70
55 71
55 72
55 73
55 78
55 83
55 87
55 101
55 103
55 112
55 113
55 114
55 117
55 118
55 132
55 133
55 139
55 147
56 57
56 58
56 59
56 62
56 65
56 70
56 83
56 84
56 85
56 90
56 92
56 95
56 98
56 99
56 102
56 103
56 104
56 112
56 118
56 121
56 122
56 134
56 135
56 145
56 148
57 60
57 61
57 63
57 65
57 66
57 67
57 69
57 74
57 75
57 76
57 77
57 82
57 89
57 90
57 92
57 94
57 97
57 100
57 102
57 106
57 111
57 112
57 113
57 114
57 118
57 120
57 121
57 128
57 136
57 139
57 143
57 144
57 148
58 59
58 69
58 72
58 73
58 75
58 84
58 87
58 89
58 91
58 93
58 94
58 97
58 99
58 102
58 106
58 113
58 114
58 117
58 119
58 120
58 124
58 131
58 133
58 137
58 140
58 142
58 149
59 62
59 65
59 67
59 69
59 71
59 73
59 78
59 82
59 83
59 90
59 100
59 106
59 115
59 119
59 120
59 124
59 131
59 139
60 62
60 63
60 64
60 71
60 72
60 83
60 85
60 86
60 90
60 91
60 92
60 93
60 94
60 95
60 111
60 113
60 117
60 121
60 123
60 134
60 137
60 144
60 147
61 62
61 73
61 74
61 75
61 88
61 90
61 92
61 98
61 103
61 104
61 107
61 111
61 113
61 115
61 116
61 119
61 122
61 125
61 127
61 133
61 140
61 141
61 144
61 145
62 64
62 65
62 67
62 71
62 75
62 79
62 80
62 84
62 87
62 90
62 97
62 101
62 102
62 103
62 104
62 111
62 116
62 117
62 123
62 128
62 133
62 140
62 144
62 148
63 64
63 65
63 69
63 72
63 73
63 76
63 77
63 78
63 80
63 83
63 84
63 85
63 95
63 100
63 101
63 104
63 107
63 108
63 109
63 114
63 117
63 120
63 128
63 137
63 138
63 140
63 143
63 147
64 67
64 73
64 76
64 79
64 80
64 83
64 85
64 94
64 103
64 106
64 107
64 112
64 113
64 120
64 121
64 122
64 123
64 125
64 126
64 136
64 137
64 142
64 144
64 146
64 147
65 72
65 74
65 76
65 79
65 80
65 92
65 94
65 95
65 96
65 101
65 103
65 106
65 107
65 110
65 113
65 116
65 123
65 127
65 129
65 131
65 138
65 139
65 145
65 146
66 69
66 70
66 73
66 76
66 82
66 83
66 84
66 88
66 90
66 92
66 100
66 103
66 107
66 111
66 114
66 121
66 127
66 133
66 140
66 144
66 146
67 68
67 71
67 72
67 82
67 83
67 86
67 91
67 92
67 94
67 95
67 96
67 100
67 104
67 109
67 113
67 116
67 129
67 134
67 137
67 142
67 144
67 147
68 75
68 76
68 82
68 83
68 84
68 85
68 90
68 91
68 96
68 103
68 110
68 112
68 120
68 124
68 125
68 127
68 128
68 131
68 134
68 142
69 77
69 82
69 83
69 84
69 92
69 94
69 97
69 100
69 103
69 105
69 107
69 108
69 110
69 123
69 124
69 126
69 127
69 129
69 130
69 133
69 136
69 139
69 142
69 143
69 144
70 78
70 82
70 83
70 84
70 93
70 97
70 98
70 119
70 128
70 136
70 137
70 138
70 139
70 140
70 142
70 144
71 75
71 77
71 78
71 84
71 88
71 89
71 95
71 103
71 112
71 116
71 117
71 123
71 125
71 129
71 132
71 133
71 136
71 144
71 147
71 148
71 149
72 73
72 75
72 78
72 81
72 85
72 87
72 89
72 92
72 101
72 112
72 116
72 117
72 118
72 126
72 130
72 134
72 147
72 148
73 78
73 80
73 86
73 91
73 94
73 103
73 104
73 107
73 109
73 110
73 118
73 124
73 129
73 131
73 133
73 135
73 136
73 137
73 140
73 141
73 142
73 148
74 76
74 82
74 89
74 90
74 100
74 107
74 110
74 112
74 118
74 120
74 122
74 124
74 125
74 127
74 131
74 132
74 133
74 136
74 138
74 139
74 140
74 145
75 84
75 85
75 88
75 90
75 92
75 93
75 96
75 98
75 105
75 107
75 108
75 111
75 121
75 122
75 128
75 130
75 136
75 141
75 143
75 145
76 79
76 83
76 90
76 91
76 92
76 96
76 99
76 103
76 110
76 111
76 116
76 121
76 129
76 130
76 131
76 132
76 134
76 140
76 145
76 149
77 84
77 89
77 92
77 93
77 95
77 96
77 97
77 108
77 116
77 124
77 130
77 131
77 132
77 133
77 135
77 136
77 142
78 84
78 86
78 91
78 92
78 104
78 107
78 108
78 112
78 114
78 115
78 119
78 120
78 121
78 125
78 132
78 137
78 143
79 80
79 94
79 97
79 98
79 101
79 103
79 105
79 107
79 120
79 128
79 129
79 135
79 139
79 140
79 141
79 142
80 90
80 98
80 100
80 101
80 102
80 105
80 116
80 127
80 132
80 133
80 138
80 146
80 147
81 83
81 86
81 89
81 95
81 96
81 98
81 102
81 105
81 109
81 111
81 113
81 116
81 124
81 126
81 129
81 130
81 132
81 136
81 148
82 88
82 90
82 96
82 99
82 102
82 103
82 106
82 107
82 110
82 111
82 113
82 115
82 116
82 119
82 122
82 124
82 125
82 128
82 131
82 132
82 139
82 141
82 146
82 147
82 149
83 85
83 100
83 107
83 111
83 112
83 116
83 117
83 121
83 137
83 139
83 140
83 142
83 143
83 146
83 148
84 88
84 89
84 91
84 92
84 98
84 106
84 110
84 111
84 114
84 115
84 117
84 118
84 125
84 130
84 134
84 135
84 138
84 146
85 93
85 105
85 114
85 119
85 120
85 134
85 135
85 137
85 143
86 92
86 99
86 106
86 109
86 120
86 129
86 130
86 131
86 135
86 136
86 139
87 93
87 103
87 113
87 116
87 118
87 124
87 126
87 135
87 137
87 145
88 89
88 90
88 91
88 94
88 98
88 101
88 103
88 109
88 111
88 119
88 127
88 136
88 143
89 92
89 99
89 113
89 114
89 115
89 116
89 119
89 124
89 126
89 131
89 134
89 139
89 140
90 100
90 103
90 112
90 113
90 116
90 117
90 126
90 133
90 137
90 147
91 101
91 110
91 113
91 117
91 118
91 130
91 134
91 139
91 141
91 142
91 149
92 93
92 94
92 98
92 99
92 104
92 106
92 111
92 114
92 125
92 137
92 138
92 149
93 101
93 114
93 122
93 133
93 134
93 136
93 138
93 142
93 144
93 145
94 95
94 96
94 99
94 107
94 110
94 111
94 116
94 125
94 128
94 129
94 130
94 132
94 136
94 138
94 140
94 141
94 142
94 144
94 145
94 146
94 147
94 148
95 104
95 114
95 122
95 125
95 137
95 141
95 142
95 145
96 101
96 105
96 118
96 123
96 133
96 134
96 135
96 136
96 139
96 141
96 142
96 143
97 99
97 101
97 102
97 117
97 119
97 120
97 121
97 123
97 124
97 125
97 126
97 131
97 134
97 144
97 148
97 149
98 104
98 105
98 108
98 116
98 118
98 120
98 121
98 123
98 126
98 127
98 130
98 135
98 137
98 141
98 142
98 143
98 144
98 146
98 148
98 149
99 102
99 105
99 106
99 114
99 116
99 119
99 125
99 126
99 127
99 133
99 137
99 139
99 141
99 143
99 148
99 149
100 102
100 108
100 116
100 119
100 123
100 127
100 128
100 130
100 134
100 139
100 141
101 102
101 108
101 110
101 112
101 114
101 115
101 118
101 127
101 128
101 129
101 131
101 135
101 138
101 141
101 144
101 147
101 148
102 103
102 108
102 109
102 111
102 116
102 129
102 135
102 140
102 141
102 144
102 145
103 105
103 108
103 110
103 112
103 122
103 124
103 136
103 138
103 140
103 142
103 143
103 146
103 149
104 107
104 110
104 115
104 119
104 121
104 138
104 143
104 144
104 147
104 149
105 113
105 115
105 116
105 120
105 121
105 129
105 134
105 138
105 139
105 140
105 144
105 146
105 149
106 109
106 110
106 112
106 113
106 115
106 118
106 120
106 123
106 125
106 129
106 134
106 135
106 140
106 142
106 145
106 148
107 108
107 110
107 113
107 116
107 118
107 120
107 129
107 137
107 141
107 144
108 111
108 114
108 117
108 132
108 133
108 143
109 119
109 122
109 128
109 132
109 144
109 145
109 147
110 111
110 114
110 116
110 118
110 120
110 122
110 123
110 125
110 126
110 127
110 128
110 138
110 140
110 142
110 144
111 113
111 122
111 125
111 126
111 136
111 141
111 146
111 149
112 113
112 114
112 121
112 122
112 124
112 128
112 131
112 134
112 142
112 147
113 115
113 117
113 119
113 120
113 128
113 132
113 133
113 137
113 146
114 116
114 123
114 124
114 125
114 128
114 129
114 130
114 134
114 135
114 138
114 143
114 149
115 118
115 121
115 122
115 123
115 126
115 137
115 143
115 144
115 146
115 147
116 119
116 122
116 125
116 128
116 129
116 141
116 142
117 127
117 130
117 131
117 132
117 133
117 135
117 143
117 146
117 147
118 123
118 124
118 128
118 130
118 131
118 138
118 140
118 144
118 147
119 122
119 125
119 128
119 131
119 132
119 135
119 139
119 141
119 142
119 146
119 147
119 149
120 124
120 136
120 138
120 142
120 144
120 148
121 125
121 126
121 129
121 140
122 125
122 126
122 127
122 128
122 132
122 137
122 138
122 140
122 143
122 147
123 125
123 130
123 133
123 136
123 143
123 146
123 149
124 127
124 128
124 129
124 132
124 133
124 137
124 141
124 144
124 146
124 147
125 130
125 140
125 143
125 148
126 129
126 133
126 137
126 138
126 139
126 142
126 144
127 130
127 132
127 133
127 138
127 141
127 142
127 144
127 148
127 149
128 130
128 142
128 144
128 148
129 130
129 132
129 133
129 137
129 139
130 133
130 134
130 137
130 139
130 146
131 135
131 141
131 145
131 146
132 137
132 140
132 141
132 143
132 145
132 147
133 135
133 136
133 139
133 145
134 140
134 144
134 146
134 147
134 148
134 149
135 138
135 139
135 142
135 144
135 149
136 137
136 141
136 144
136 147
137 146
137 147
138 142
138 144
138 146
138 148
138 149
139 149
140 141
141 145
142 144
143 144
143 149
144 145
144 146
144 147
144 148
147 148
147 149
