599:82770
0 1
0 2
0 3
0 4
0 5
0 6
0 7
0 8
0 12
0 22
0 36
0 46
0 54
0 55
0 56
0 57
0 58
0 60
0 61
0 62
0 63
0 64
0 65
0 66
0 67
0 68
0 69
0 70
0 71
0 72
0 73
0 74
0 75
0 76
0 77
0 78
0 79
0 80
0 81
0 82
0 83
0 84
0 85
0 86
0 87
0 88
0 89
0 90
0 91
0 92
0 93
0 94
0 95
0 96
0 97
0 98
0 99
0 100
0 101
0 102
0 103
0 104
0 105
0 106
0 125
0 134
0 145
0 152
0 159
0 168
0 174
0 202
0 207
0 208
0 209
0 211
0 212
0 213
0 214
0 215
0 225
0 236
0 240
0 249
0 259
0 262
0 263
0 264
0 265
0 266
0 267
0 268
0 269
0 292
0 297
0 307
0 314
0 316
0 317
0 318
0 319
0 320
0 321
0 322
0 326
0 332
0 337
0 339
0 340
0 341
0 342
0 343
0 344
0 345
0 350
0 370
0 385
0 400
0 412
0 424
0 426
0 428
0 430
0 431
0 432
0 433
0 434
0 435
0 436
0 444
0 452
0 457
0 467
0 470
0 475
0 485
0 499
0 520
0 532
0 533
0 534
0 535
0 536
0 537
0 538
0 553
0 574
0 578
0 582
0 590
0 591
0 592
0 593
0 594
0 595
0 596
0 597
0 598
1 2
1 3
1 4
1 5
1 6
1 7
1 8
1 12
1 22
1 36
1 46
1 54
1 55
1 56
1 57
1 58
1 59
1 60
1 61
1 62
1 63
1 64
1 65
1 66
1 68
1 69
1 70
1 71
1 72
1 73
1 74
1 75
1 76
1 77
1 78
1 79
1 80
1 81
1 82
1 83
1 84
1 85
1 86
1 87
1 88
1 89
1 90
1 91
1 92
1 93
1 94
1 95
1 96
1 97
1 98
1 99
1 100
1 101
1 102
1 103
1 104
1 105
1 106
1 125
1 134
1 145
1 152
1 159
1 168
1 174
1 202
1 208
1 209
1 210
1 211
1 212
1 213
1 214
1 215
1 225
1 236
1 240
1 249
1 259
1 261
1 263
1 264
1 265
1 266
1 267
1 268
1 292
1 297
1 307
1 314
1 315
1 317
1 318
1 319
1 320
1 321
1 322
1 326
1 332
1 337
1 338
1 340
1 341
1 342
1 343
1 344
1 345
1 350
1 370
1 385
1 400
1 412
1 424
1 427
1 428
1 429
1 431
1 432
1 433
1 434
1 435
1 436
1 444
1 452
1 457
1 467
1 470
1 475
1 485
1 499
1 520
1 531
1 533
1 534
1 535
1 536
1 537
1 538
1 553
1 574
1 578
1 582
1 589
1 590
1 591
1 594
1 595
1 596
1 597
1 598
2 3
2 4
2 5
2 6
2 7
2 8
2 12
2 22
2 36
2 46
2 54
2 55
2 56
2 57
2 58
2 59
2 60
2 61
2 62
2 63
2 64
2 65
2 66
2 67
2 68
2 69
2 71
2 72
2 73
2 74
2 75
2 76
2 77
2 78
2 79
2 80
2 81
2 82
2 83
2 84
2 85
2 86
2 87
2 88
2 89
2 90
2 91
2 92
2 93
2 94
2 95
2 96
2 97
2 98
2 99
2 100
2 101
2 102
2 103
2 104
2 105
2 106
2 125
2 134
2 145
2 152
2 159
2 168
2 174
2 202
2 207
2 209
2 210
2 211
2 212
2 213
2 214
2 215
2 225
2 236
2 240
2 249
2 259
2 261
2 262
2 263
2 265
2 266
2 267
2 268
2 269
2 292
2 297
2 307
2 314
2 315
2 316
2 318
2 319
2 320
2 321
2 322
2 326
2 332
2 337
2 338
2 339
2 341
2 342
2 343
2 344
2 345
2 350
2 370
2 385
2 400
2 412
2 424
2 426
2 428
2 429
2 430
2 432
2 433
2 434
2 435
2 436
2 444
2 452
2 457
2 467
2 470
2 475
2 485
2 499
2 520
2 531
2 532
2 534
2 535
2 536
2 537
2 538
2 553
2 574
2 578
2 582
2 589
2 591
2 592
2 593
2 594
2 595
2 596
2 597
2 598
3 4
3 5
3 6
3 7
3 8
3 12
3 22
3 36
3 46
3 54
3 55
3 56
3 57
3 58
3 59
3 60
3 61
3 62
3 63
3 64
3 65
3 66
3 67
3 68
3 69
3 70
3 72
3 73
3 74
3 75
3 76
3 77
3 78
3 79
3 80
3 81
3 82
3 83
3 84
3 85
3 86
3 87
3 88
3 89
3 90
3 91
3 92
3 93
3 94
3 95
3 96
3 97
3 98
3 99
3 100
3 101
3 102
3 103
3 104
3 105
3 106
3 125
3 134
3 145
3 152
3 159
3 168
3 174
3 202
3 207
3 208
3 210
3 211
3 212
3 213
3 214
3 215
3 225
3 236
3 240
3 249
3 259
3 261
3 262
3 264
3 265
3 266
3 267
3 268
3 269
3 292
3 297
3 307
3 314
3 315
3 316
3 317
3 319
3 320
3 321
3 322
3 326
3 332
3 337
3 338
3 339
3 340
3 342
3 343
3 344
3 345
3 350
3 370
3 385
3 400
3 412
3 424
3 426
3 428
3 429
3 430
3 431
3 433
3 434
3 435
3 436
3 444
3 452
3 457
3 467
3 470
3 475
3 485
3 499
3 520
3 531
3 532
3 533
3 535
3 536
3 537
3 538
3 553
3 574
3 578
3 582
3 589
3 590
3 592
3 593
3 594
3 595
3 596
3 597
3 598
4 5
4 6
4 7
4 8
4 12
4 22
4 36
4 46
4 54
4 55
4 56
4 57
4 58
4 59
4 60
4 61
4 62
4 63
4 64
4 65
4 66
4 67
4 68
4 69
4 70
4 71
4 72
4 73
4 74
4 75
4 76
4 77
4 79
4 80
4 81
4 82
4 83
4 84
4 85
4 86
4 87
4 88
4 89
4 90
4 91
4 92
4 93
4 94
4 95
4 96
4 97
4 98
4 99
4 100
4 101
4 102
4 103
4 104
4 105
4 106
4 125
4 134
4 145
4 152
4 159
4 168
4 174
4 202
4 207
4 208
4 209
4 211
4 212
4 213
4 214
4 215
4 225
4 236
4 240
4 249
4 259
4 261
4 262
4 263
4 265
4 266
4 267
4 268
4 269
4 292
4 297
4 307
4 314
4 315
4 316
4 317
4 318
4 320
4 321
4 322
4 326
4 332
4 337
4 338
4 339
4 340
4 342
4 343
4 344
4 345
4 350
4 370
4 385
4 400
4 412
4 424
4 426
4 428
4 429
4 430
4 431
4 432
4 434
4 435
4 436
4 444
4 452
4 457
4 467
4 470
4 475
4 485
4 499
4 520
4 531
4 532
4 533
4 534
4 536
4 537
4 538
4 553
4 574
4 578
4 582
4 589
4 590
4 591
4 592
4 593
4 595
4 596
4 597
4 598
5 6
5 7
5 8
5 12
5 22
5 36
5 46
5 54
5 55
5 56
5 57
5 58
5 59
5 60
5 61
5 62
5 63
5 64
5 65
5 66
5 67
5 68
5 69
5 70
5 71
5 72
5 73
5 74
5 75
5 76
5 77
5 78
5 79
5 81
5 82
5 83
5 84
5 85
5 86
5 87
5 88
5 89
5 90
5 91
5 92
5 93
5 94
5 95
5 96
5 97
5 98
5 99
5 100
5 101
5 102
5 103
5 104
5 105
5 106
5 125
5 134
5 145
5 152
5 159
5 168
5 174
5 202
5 207
5 208
5 209
5 210
5 212
5 213
5 214
5 215
5 225
5 236
5 240
5 249
5 259
5 261
5 262
5 263
5 264
5 266
5 267
5 268
5 269
5 292
5 297
5 307
5 314
5 315
5 316
5 317
5 318
5 320
5 321
5 322
5 326
5 332
5 337
5 338
5 339
5 340
5 341
5 343
5 344
5 345
5 350
5 370
5 385
5 400
5 412
5 424
5 426
5 428
5 429
5 430
5 431
5 432
5 433
5 435
5 436
5 444
5 452
5 457
5 467
5 470
5 475
5 485
5 499
5 520
5 531
5 532
5 533
5 534
5 535
5 537
5 538
5 553
5 574
5 578
5 582
5 589
5 590
5 591
5 592
5 593
5 594
5 596
5 597
5 598
6 7
6 8
6 12
6 22
6 36
6 46
6 54
6 55
6 56
6 57
6 58
6 59
6 60
6 61
6 62
6 63
6 64
6 65
6 66
6 67
6 68
6 69
6 70
6 71
6 72
6 73
6 74
6 75
6 76
6 77
6 78
6 79
6 80
6 81
6 83
6 84
6 85
6 86
6 87
6 88
6 89
6 90
6 91
6 92
6 93
6 94
6 95
6 96
6 97
6 98
6 99
6 100
6 101
6 102
6 103
6 104
6 105
6 106
6 125
6 134
6 145
6 152
6 159
6 168
6 174
6 202
6 207
6 208
6 209
6 210
6 211
6 213
6 214
6 215
6 225
6 236
6 240
6 249
6 259
6 261
6 262
6 263
6 264
6 265
6 267
6 268
6 269
6 292
6 297
6 307
6 314
6 315
6 316
6 317
6 318
6 319
6 321
6 322
6 326
6 332
6 337
6 338
6 339
6 340
6 341
6 342
6 344
6 345
6 350
6 370
6 385
6 400
6 412
6 424
6 426
6 428
6 429
6 430
6 431
6 432
6 434
6 435
6 436
6 444
6 452
6 457
6 467
6 470
6 475
6 485
6 499
6 520
6 531
6 532
6 533
6 534
6 535
6 536
6 538
6 553
6 574
6 578
6 582
6 589
6 590
6 591
6 592
6 593
6 594
6 595
6 597
6 598
7 8
7 9
7 10
7 11
7 13
7 14
7 15
7 16
7 17
7 18
7 19
7 20
7 21
7 23
7 24
7 25
7 26
7 27
7 28
7 29
7 30
7 31
7 32
7 33
7 34
7 35
7 37
7 38
7 39
7 40
7 41
7 42
7 43
7 44
7 45
7 59
7 67
7 70
7 71
7 78
7 80
7 82
7 99
7 120
7 121
7 122
7 123
7 124
7 126
7 127
7 128
7 129
7 130
7 131
7 132
7 133
7 135
7 136
7 137
7 138
7 139
7 140
7 141
7 142
7 143
7 144
7 146
7 147
7 148
7 149
7 150
7 151
7 153
7 154
7 155
7 156
7 157
7 158
7 160
7 161
7 162
7 163
7 167
7 169
7 170
7 171
7 172
7 173
7 175
7 176
7 177
7 178
7 189
7 190
7 191
7 192
7 193
7 194
7 195
7 196
7 197
7 198
7 199
7 200
7 201
7 203
7 204
7 205
7 206
7 207
7 208
7 209
7 210
7 211
7 212
7 214
7 216
7 217
7 218
7 219
7 220
7 221
7 222
7 223
7 224
7 226
7 227
7 228
7 229
7 230
7 231
7 232
7 233
7 234
7 235
7 237
7 238
7 239
7 241
7 242
7 243
7 244
7 245
7 246
7 247
7 248
7 250
7 251
7 252
7 253
7 254
7 255
7 256
7 257
7 258
7 260
7 261
7 262
7 263
7 264
7 265
7 266
7 268
7 269
7 284
7 285
7 286
7 287
7 288
7 289
7 290
7 291
7 293
7 294
7 295
7 296
7 298
7 299
7 300
7 301
7 302
7 303
7 304
7 305
7 306
7 308
7 309
7 310
7 311
7 312
7 313
7 315
7 316
7 317
7 318
7 319
7 320
7 322
7 323
7 324
7 325
7 327
7 328
7 329
7 330
7 331
7 333
7 334
7 335
7 336
7 338
7 339
7 340
7 341
7 342
7 343
7 345
7 346
7 347
7 348
7 349
7 351
7 352
7 353
7 354
7 355
7 356
7 357
7 358
7 359
7 360
7 361
7 362
7 363
7 364
7 365
7 366
7 367
7 368
7 369
7 371
7 372
7 373
7 376
7 377
7 378
7 379
7 380
7 381
7 382
7 383
7 384
7 386
7 387
7 388
7 389
7 390
7 391
7 392
7 393
7 394
7 395
7 396
7 397
7 398
7 399
7 401
7 402
7 403
7 404
7 405
7 406
7 407
7 408
7 409
7 410
7 411
7 413
7 416
7 417
7 418
7 419
7 420
7 421
7 422
7 423
7 425
7 426
7 427
7 429
7 430
7 431
7 432
7 433
7 434
7 436
7 437
7 438
7 439
7 440
7 441
7 442
7 443
7 445
7 446
7 449
7 450
7 451
7 453
7 454
7 455
7 456
7 458
7 459
7 460
7 461
7 462
7 463
7 464
7 465
7 466
7 468
7 469
7 472
7 473
7 474
7 476
7 477
7 478
7 479
7 480
7 481
7 482
7 483
7 484
7 486
7 488
7 489
7 490
7 491
7 492
7 493
7 494
7 495
7 496
7 497
7 498
7 500
7 501
7 502
7 503
7 504
7 505
7 506
7 507
7 508
7 509
7 510
7 511
7 512
7 513
7 514
7 515
7 516
7 517
7 518
7 519
7 521
7 522
7 523
7 524
7 525
7 526
7 527
7 531
7 532
7 533
7 534
7 535
7 536
7 537
7 539
7 540
7 541
7 542
7 543
7 544
7 545
7 546
7 547
7 548
7 549
7 550
7 551
7 552
7 554
7 555
7 556
7 557
7 558
7 559
7 560
7 561
7 562
7 563
7 564
7 565
7 566
7 567
7 568
7 569
7 570
7 571
7 572
7 573
7 579
7 580
7 581
7 583
7 584
7 585
7 586
7 587
7 588
7 589
7 590
7 591
7 592
7 593
7 594
7 595
7 596
7 598
8 12
8 22
8 36
8 46
8 54
8 55
8 56
8 57
8 58
8 59
8 60
8 61
8 62
8 63
8 64
8 65
8 66
8 67
8 68
8 69
8 70
8 71
8 72
8 73
8 74
8 75
8 76
8 77
8 78
8 79
8 80
8 81
8 82
8 83
8 84
8 85
8 86
8 87
8 88
8 89
8 90
8 91
8 92
8 93
8 94
8 95
8 96
8 97
8 98
8 100
8 101
8 102
8 103
8 104
8 105
8 106
8 125
8 134
8 145
8 152
8 159
8 168
8 174
8 202
8 207
8 208
8 209
8 210
8 211
8 212
8 213
8 215
8 225
8 236
8 240
8 249
8 259
8 261
8 262
8 263
8 264
8 265
8 266
8 267
8 269
8 292
8 297
8 307
8 314
8 315
8 316
8 317
8 318
8 319
8 320
8 321
8 326
8 332
8 337
8 338
8 339
8 340
8 341
8 342
8 343
8 344
8 350
8 370
8 385
8 400
8 412
8 424
8 426
8 428
8 429
8 430
8 431
8 432
8 433
8 434
8 435
8 444
8 452
8 457
8 467
8 470
8 475
8 485
8 499
8 520
8 531
8 532
8 533
8 534
8 536
8 537
8 538
8 553
8 574
8 578
8 582
8 589
8 590
8 591
8 592
8 593
8 594
8 595
8 596
8 597
9 10
9 11
9 12
9 13
9 14
9 15
9 19
9 22
9 24
9 36
9 46
9 54
9 56
9 57
9 58
9 59
9 60
9 61
9 62
9 63
9 64
9 65
9 66
9 67
9 68
9 69
9 70
9 71
9 72
9 73
9 74
9 75
9 76
9 77
9 78
9 79
9 80
9 81
9 82
9 83
9 84
9 85
9 86
9 87
9 88
9 89
9 90
9 91
9 92
9 93
9 94
9 95
9 96
9 97
9 98
9 99
9 100
9 101
9 102
9 103
9 104
9 105
9 106
9 109
9 110
9 111
9 112
9 120
9 122
9 125
9 126
9 127
9 130
9 134
9 136
9 141
9 145
9 146
9 151
9 152
9 153
9 155
9 157
9 159
9 160
9 161
9 165
9 168
9 169
9 173
9 174
9 176
9 180
9 181
9 182
9 183
9 184
9 185
9 186
9 187
9 188
9 189
9 202
9 213
9 215
9 225
9 236
9 240
9 249
9 259
9 267
9 271
9 272
9 273
9 274
9 282
9 292
9 294
9 296
9 297
9 299
9 303
9 306
9 307
9 308
9 314
9 321
9 326
9 327
9 328
9 332
9 333
9 334
9 337
9 344
9 346
9 347
9 350
9 351
9 352
9 356
9 370
9 385
9 388
9 400
9 412
9 424
9 428
9 435
9 438
9 439
9 440
9 441
9 442
9 443
9 444
9 445
9 446
9 452
9 453
9 456
9 457
9 459
9 467
9 470
9 475
9 485
9 489
9 490
9 491
9 492
9 493
9 494
9 495
9 496
9 497
9 498
9 499
9 500
9 501
9 502
9 503
9 504
9 505
9 506
9 507
9 509
9 510
9 511
9 512
9 513
9 514
9 515
9 516
9 517
9 518
9 519
9 520
9 521
9 522
9 523
9 524
9 525
9 526
9 527
9 528
9 538
9 539
9 541
9 542
9 543
9 544
9 545
9 546
9 547
9 548
9 549
9 550
9 551
9 552
9 553
9 554
9 555
9 556
9 557
9 558
9 559
9 560
9 561
9 562
9 563
9 574
9 578
9 579
9 581
9 582
9 584
9 586
9 597
10 11
10 12
10 13
10 14
10 16
10 17
10 18
10 19
10 20
10 21
10 22
10 23
10 24
10 25
10 26
10 27
10 36
10 46
10 54
10 55
10 56
10 58
10 59
10 60
10 61
10 62
10 63
10 64
10 65
10 66
10 67
10 68
10 69
10 70
10 71
10 72
10 73
10 74
10 75
10 76
10 77
10 78
10 79
10 80
10 81
10 82
10 83
10 84
10 85
10 86
10 87
10 88
10 89
10 90
10 91
10 92
10 93
10 94
10 95
10 96
10 97
10 98
10 99
10 100
10 101
10 102
10 103
10 104
10 105
10 106
10 108
10 109
10 111
10 121
10 122
10 123
10 124
10 125
10 126
10 127
10 128
10 129
10 131
10 132
10 133
10 134
10 135
10 137
10 138
10 139
10 140
10 141
10 142
10 143
10 144
10 145
10 146
10 147
10 148
10 149
10 150
10 151
10 152
10 153
10 156
10 157
10 158
10 159
10 160
10 161
10 162
10 163
10 164
10 166
10 168
10 170
10 171
10 172
10 173
10 174
10 175
10 176
10 177
10 178
10 179
10 181
10 182
10 183
10 184
10 185
10 186
10 187
10 188
10 190
10 191
10 192
10 193
10 194
10 195
10 196
10 197
10 198
10 199
10 200
10 201
10 202
10 203
10 204
10 205
10 206
10 213
10 215
10 225
10 236
10 240
10 249
10 259
10 267
10 270
10 271
10 274
10 283
10 292
10 295
10 296
10 297
10 298
10 299
10 300
10 301
10 302
10 304
10 305
10 306
10 307
10 308
10 309
10 310
10 311
10 314
10 321
10 326
10 328
10 329
10 330
10 331
10 332
10 333
10 334
10 335
10 337
10 344
10 347
10 348
10 349
10 350
10 351
10 352
10 353
10 354
10 355
10 357
10 358
10 359
10 360
10 361
10 362
10 363
10 364
10 365
10 366
10 367
10 368
10 369
10 370
10 371
10 372
10 373
10 385
10 386
10 387
10 389
10 390
10 391
10 392
10 393
10 394
10 395
10 396
10 397
10 398
10 399
10 400
10 401
10 402
10 403
10 412
10 424
10 428
10 435
10 437
10 439
10 440
10 441
10 442
10 443
10 444
10 445
10 446
10 452
10 454
10 455
10 456
10 457
10 458
10 459
10 460
10 461
10 467
10 470
10 475
10 485
10 488
10 490
10 491
10 492
10 493
10 494
10 495
10 496
10 497
10 498
10 499
10 500
10 501
10 502
10 503
10 504
10 505
10 506
10 507
10 508
10 510
10 511
10 512
10 513
10 514
10 515
10 516
10 517
10 518
10 519
10 520
10 521
10 522
10 523
10 524
10 525
10 526
10 527
10 529
10 530
10 538
10 540
10 547
10 553
10 555
10 557
10 574
10 578
10 580
10 581
10 582
10 583
10 584
10 585
10 586
10 587
10 588
10 597
11 12
11 13
11 14
11 15
11 16
11 17
11 18
11 20
11 21
11 22
11 23
11 24
11 25
11 26
11 27
11 36
11 46
11 54
11 55
11 56
11 57
11 58
11 59
11 60
11 61
11 62
11 63
11 64
11 65
11 66
11 67
11 68
11 69
11 70
11 71
11 72
11 73
11 74
11 75
11 76
11 77
11 78
11 79
11 80
11 81
11 82
11 83
11 85
11 86
11 87
11 88
11 89
11 90
11 91
11 92
11 93
11 94
11 95
11 96
11 97
11 98
11 99
11 100
11 101
11 102
11 103
11 104
11 105
11 106
11 108
11 110
11 111
11 112
11 120
11 121
11 123
11 124
11 125
11 126
11 127
11 128
11 130
11 134
11 135
11 136
11 137
11 138
11 139
11 140
11 142
11 143
11 144
11 145
11 146
11 147
11 148
11 149
11 150
11 152
11 153
11 154
11 155
11 156
11 158
11 159
11 160
11 161
11 162
11 163
11 165
11 168
11 169
11 170
11 171
11 172
11 174
11 175
11 176
11 177
11 178
11 179
11 180
11 181
11 183
11 184
11 185
11 186
11 187
11 188
11 189
11 202
11 213
11 215
11 225
11 236
11 240
11 249
11 259
11 267
11 270
11 272
11 273
11 274
11 282
11 292
11 294
11 295
11 297
11 298
11 299
11 300
11 301
11 302
11 303
11 304
11 305
11 307
11 308
11 309
11 310
11 311
11 314
11 321
11 326
11 327
11 329
11 330
11 331
11 332
11 333
11 334
11 335
11 337
11 344
11 346
11 348
11 349
11 350
11 351
11 352
11 353
11 354
11 356
11 370
11 385
11 388
11 400
11 412
11 424
11 428
11 435
11 437
11 438
11 439
11 440
11 442
11 443
11 444
11 445
11 446
11 452
11 453
11 454
11 455
11 457
11 458
11 459
11 460
11 461
11 467
11 470
11 475
11 485
11 488
11 489
11 499
11 501
11 503
11 508
11 509
11 510
11 511
11 512
11 513
11 514
11 516
11 517
11 518
11 519
11 520
11 521
11 522
11 523
11 524
11 525
11 526
11 527
11 528
11 538
11 539
11 540
11 541
11 542
11 543
11 544
11 545
11 546
11 548
11 549
11 550
11 551
11 552
11 553
11 554
11 555
11 556
11 557
11 558
11 559
11 560
11 561
11 562
11 563
11 574
11 578
11 579
11 580
11 582
11 583
11 584
11 585
11 586
11 587
11 588
11 597
12 13
12 14
12 15
12 16
12 17
12 18
12 19
12 20
12 21
12 23
12 24
12 25
12 26
12 27
12 28
12 29
12 30
12 31
12 32
12 33
12 34
12 35
12 37
12 38
12 39
12 40
12 41
12 42
12 43
12 44
12 45
12 55
12 57
12 84
12 95
12 98
12 108
12 109
12 111
12 120
12 121
12 122
12 123
12 124
12 126
12 127
12 128
12 129
12 130
12 131
12 132
12 133
12 135
12 136
12 137
12 138
12 139
12 140
12 141
12 142
12 143
12 144
12 146
12 147
12 148
12 149
12 150
12 151
12 153
12 154
12 155
12 156
12 157
12 158
12 160
12 161
12 162
12 163
12 165
12 167
12 169
12 170
12 171
12 172
12 173
12 175
12 176
12 177
12 178
12 179
12 180
12 182
12 185
12 189
12 190
12 191
12 192
12 193
12 194
12 195
12 196
12 197
12 198
12 199
12 200
12 201
12 203
12 204
12 205
12 206
12 207
12 208
12 209
12 210
12 211
12 212
12 214
12 216
12 217
12 218
12 219
12 220
12 221
12 222
12 223
12 224
12 226
12 227
12 228
12 229
12 230
12 231
12 232
12 233
12 234
12 235
12 237
12 238
12 239
12 241
12 242
12 243
12 244
12 245
12 246
12 247
12 248
12 250
12 251
12 252
12 253
12 254
12 255
12 256
12 257
12 258
12 260
12 261
12 262
12 263
12 264
12 265
12 266
12 268
12 270
12 271
12 274
12 282
12 284
12 285
12 286
12 287
12 288
12 289
12 290
12 291
12 293
12 294
12 295
12 296
12 298
12 299
12 300
12 301
12 302
12 303
12 304
12 305
12 306
12 308
12 309
12 310
12 311
12 312
12 313
12 315
12 316
12 317
12 318
12 319
12 320
12 322
12 323
12 324
12 325
12 327
12 328
12 329
12 330
12 331
12 333
12 334
12 335
12 336
12 338
12 339
12 340
12 341
12 342
12 343
12 345
12 346
12 347
12 348
12 349
12 351
12 352
12 353
12 354
12 355
12 356
12 357
12 358
12 359
12 360
12 361
12 362
12 363
12 364
12 365
12 366
12 367
12 368
12 369
12 371
12 372
12 373
12 376
12 377
12 378
12 379
12 380
12 381
12 382
12 383
12 384
12 386
12 387
12 388
12 389
12 390
12 391
12 392
12 393
12 394
12 395
12 396
12 397
12 398
12 399
12 401
12 402
12 403
12 404
12 405
12 406
12 407
12 408
12 409
12 410
12 411
12 413
12 416
12 417
12 418
12 419
12 420
12 421
12 422
12 423
12 425
12 426
12 427
12 429
12 430
12 431
12 432
12 433
12 434
12 436
12 437
12 438
12 439
12 440
12 441
12 442
12 443
12 445
12 446
12 449
12 450
12 451
12 453
12 454
12 455
12 456
12 458
12 459
12 460
12 461
12 462
12 463
12 464
12 465
12 466
12 468
12 469
12 472
12 473
12 474
12 476
12 477
12 478
12 479
12 480
12 481
12 482
12 483
12 484
12 486
12 488
12 489
12 490
12 491
12 492
12 493
12 494
12 495
12 496
12 497
12 498
12 500
12 501
12 502
12 503
12 504
12 505
12 506
12 507
12 508
12 509
12 510
12 511
12 512
12 513
12 514
12 515
12 516
12 517
12 518
12 519
12 521
12 522
12 523
12 524
12 525
12 526
12 527
12 528
12 531
12 532
12 533
12 534
12 535
12 536
12 537
12 539
12 540
12 541
12 542
12 543
12 544
12 545
12 546
12 547
12 548
12 549
12 550
12 551
12 552
12 554
12 555
12 556
12 557
12 558
12 559
12 560
12 561
12 562
12 563
12 564
12 565
12 566
12 567
12 568
12 569
12 570
12 571
12 572
12 573
12 579
12 580
12 581
12 583
12 584
12 585
12 586
12 587
12 588
12 589
12 590
12 591
12 592
12 593
12 594
12 595
12 596
12 598
13 14
13 15
13 16
13 17
13 18
13 19
13 20
13 21
13 22
13 23
13 25
13 26
13 27
13 36
13 46
13 54
13 55
13 56
13 57
13 58
13 59
13 60
13 61
13 62
13 63
13 64
13 65
13 66
13 67
13 68
13 69
13 70
13 71
13 72
13 73
13 74
13 75
13 76
13 77
13 78
13 79
13 80
13 81
13 82
13 83
13 84
13 85
13 86
13 87
13 88
13 89
13 90
13 91
13 92
13 93
13 94
13 96
13 97
13 98
13 99
13 100
13 101
13 102
13 103
13 104
13 105
13 106
13 108
13 109
13 110
13 112
13 120
13 121
13 122
13 123
13 124
13 125
13 127
13 128
13 130
13 134
13 135
13 136
13 137
13 138
13 139
13 140
13 141
13 142
13 143
13 144
13 145
13 147
13 148
13 149
13 150
13 151
13 152
13 154
13 155
13 156
13 157
13 158
13 159
13 161
13 162
13 163
13 165
13 168
13 169
13 170
13 171
13 172
13 173
13 174
13 175
13 177
13 178
13 179
13 180
13 181
13 182
13 183
13 184
13 186
13 187
13 188
13 189
13 202
13 213
13 215
13 225
13 236
13 240
13 249
13 259
13 267
13 270
13 271
13 272
13 273
13 282
13 292
13 294
13 295
13 296
13 297
13 298
13 300
13 301
13 302
13 303
13 304
13 305
13 306
13 307
13 309
13 310
13 311
13 314
13 321
13 326
13 327
13 328
13 329
13 330
13 331
13 332
13 334
13 335
13 337
13 344
13 346
13 347
13 348
13 349
13 350
13 352
13 353
13 354
13 356
13 370
13 385
13 388
13 400
13 412
13 424
13 428
13 435
13 437
13 438
13 439
13 440
13 441
13 442
13 443
13 444
13 446
13 452
13 453
13 454
13 455
13 456
13 457
13 458
13 460
13 461
13 467
13 470
13 475
13 485
13 488
13 489
13 490
13 491
13 492
13 493
13 494
13 495
13 496
13 497
13 498
13 499
13 500
13 502
13 503
13 504
13 505
13 506
13 507
13 508
13 509
13 515
13 520
13 523
13 528
13 538
13 539
13 540
13 541
13 542
13 543
13 544
13 545
13 546
13 547
13 548
13 549
13 550
13 551
13 552
13 553
13 554
13 556
13 557
13 558
13 559
13 560
13 561
13 562
13 563
13 574
13 578
13 579
13 580
13 581
13 582
13 583
13 585
13 586
13 587
13 588
13 597
14 15
14 19
14 22
14 24
14 36
14 46
14 54
14 55
14 56
14 57
14 58
14 59
14 60
14 61
14 62
14 63
14 64
14 65
14 66
14 67
14 68
14 69
14 70
14 71
14 72
14 73
14 74
14 75
14 76
14 77
14 78
14 79
14 80
14 81
14 82
14 83
14 84
14 85
14 86
14 87
14 88
14 89
14 90
14 91
14 92
14 93
14 94
14 95
14 96
14 97
14 99
14 100
14 101
14 102
14 103
14 104
14 105
14 106
14 108
14 109
14 111
14 120
14 121
14 122
14 123
14 124
14 125
14 126
14 128
14 130
14 134
14 136
14 141
14 145
14 146
14 151
14 152
14 153
14 155
14 156
14 157
14 158
14 159
14 160
14 162
14 163
14 165
14 168
14 169
14 173
14 174
14 176
14 179
14 180
14 182
14 185
14 189
14 202
14 213
14 215
14 225
14 236
14 240
14 249
14 259
14 267
14 270
14 271
14 274
14 282
14 292
14 294
14 296
14 297
14 299
14 303
14 306
14 307
14 308
14 314
14 321
14 326
14 327
14 328
14 329
14 330
14 331
14 332
14 333
14 335
14 337
14 344
14 346
14 347
14 348
14 349
14 350
14 351
14 353
14 354
14 356
14 370
14 385
14 388
14 400
14 412
14 424
14 428
14 435
14 437
14 438
14 441
14 444
14 445
14 452
14 453
14 456
14 457
14 459
14 467
14 470
14 475
14 485
14 488
14 489
14 490
14 491
14 492
14 493
14 494
14 495
14 496
14 497
14 498
14 499
14 500
14 501
14 502
14 504
14 505
14 506
14 507
14 508
14 509
14 510
14 511
14 512
14 513
14 514
14 515
14 516
14 517
14 518
14 519
14 520
14 521
14 522
14 524
14 525
14 526
14 527
14 528
14 538
14 539
14 540
14 541
14 542
14 543
14 544
14 545
14 546
14 547
14 548
14 549
14 550
14 551
14 552
14 553
14 554
14 555
14 556
14 558
14 559
14 560
14 561
14 562
14 563
14 574
14 578
14 579
14 580
14 581
14 582
14 583
14 584
14 585
14 587
14 588
14 597
15 16
15 17
15 18
15 19
15 20
15 21
15 22
15 23
15 24
15 25
15 26
15 27
15 36
15 46
15 54
15 55
15 56
15 58
15 59
15 60
15 61
15 62
15 63
15 64
15 65
15 66
15 67
15 68
15 69
15 70
15 71
15 72
15 73
15 74
15 75
15 76
15 77
15 78
15 79
15 80
15 81
15 82
15 83
15 84
15 85
15 86
15 87
15 88
15 89
15 90
15 91
15 92
15 93
15 94
15 95
15 96
15 97
15 98
15 99
15 100
15 101
15 102
15 103
15 104
15 105
15 106
15 109
15 110
15 111
15 121
15 122
15 123
15 124
15 125
15 126
15 127
15 128
15 129
15 131
15 132
15 133
15 134
15 135
15 137
15 138
15 139
15 140
15 141
15 142
15 143
15 144
15 145
15 146
15 147
15 148
15 149
15 150
15 151
15 152
15 153
15 154
15 156
15 157
15 158
15 159
15 160
15 161
15 162
15 163
15 164
15 166
15 168
15 170
15 171
15 172
15 173
15 174
15 175
15 176
15 177
15 178
15 179
15 181
15 182
15 183
15 184
15 185
15 186
15 187
15 188
15 190
15 191
15 192
15 193
15 194
15 195
15 196
15 197
15 198
15 199
15 200
15 201
15 202
15 203
15 204
15 205
15 206
15 213
15 215
15 225
15 236
15 240
15 249
15 259
15 267
15 271
15 272
15 274
15 283
15 292
15 295
15 296
15 297
15 298
15 299
15 300
15 301
15 302
15 304
15 305
15 306
15 307
15 308
15 309
15 310
15 311
15 314
15 321
15 326
15 328
15 329
15 330
15 331
15 332
15 333
15 334
15 335
15 337
15 344
15 347
15 348
15 349
15 350
15 351
15 352
15 353
15 354
15 355
15 357
15 358
15 359
15 360
15 361
15 362
15 363
15 364
15 365
15 366
15 367
15 368
15 369
15 370
15 371
15 372
15 373
15 385
15 386
15 387
15 389
15 390
15 391
15 392
15 393
15 394
15 395
15 396
15 397
15 398
15 399
15 400
15 401
15 402
15 403
15 412
15 424
15 428
15 435
15 437
15 439
15 440
15 441
15 442
15 443
15 444
15 445
15 446
15 452
15 454
15 455
15 456
15 457
15 458
15 459
15 460
15 461
15 467
15 470
15 475
15 485
15 488
15 490
15 491
15 492
15 493
15 494
15 495
15 496
15 497
15 498
15 499
15 500
15 501
15 502
15 503
15 504
15 505
15 506
15 507
15 508
15 510
15 511
15 512
15 513
15 514
15 515
15 516
15 517
15 518
15 519
15 520
15 521
15 522
15 523
15 524
15 525
15 526
15 527
15 529
15 530
15 538
15 542
15 543
15 545
15 547
15 548
15 551
15 553
15 554
15 555
15 556
15 559
15 560
15 574
15 578
15 580
15 581
15 582
15 583
15 584
15 585
15 586
15 587
15 588
15 597
16 17
16 18
16 19
16 20
16 21
16 22
16 23
16 24
16 25
16 26
16 27
16 36
16 46
16 54
16 55
16 56
16 57
16 58
16 59
16 60
16 61
16 62
16 64
16 65
16 66
16 67
16 68
16 69
16 70
16 71
16 72
16 73
16 74
16 75
16 76
16 77
16 78
16 79
16 80
16 81
16 82
16 83
16 84
16 85
16 86
16 87
16 88
16 89
16 90
16 91
16 92
16 93
16 94
16 95
16 96
16 97
16 98
16 99
16 100
16 101
16 102
16 103
16 104
16 105
16 106
16 109
16 110
16 111
16 120
16 122
16 123
16 124
16 125
16 126
16 127
16 128
16 130
16 134
16 136
16 141
16 145
16 146
16 151
16 152
16 153
16 154
16 155
16 157
16 158
16 159
16 160
16 161
16 162
16 163
16 165
16 168
16 169
16 170
16 171
16 173
16 174
16 175
16 176
16 177
16 179
16 180
16 182
16 183
16 184
16 185
16 186
16 187
16 188
16 189
16 202
16 213
16 215
16 225
16 236
16 240
16 249
16 259
16 267
16 271
16 272
16 274
16 282
16 292
16 294
16 295
16 296
16 297
16 298
16 299
16 300
16 301
16 303
16 304
16 305
16 306
16 307
16 308
16 309
16 310
16 314
16 321
16 326
16 327
16 328
16 329
16 332
16 333
16 337
16 344
16 346
16 347
16 348
16 349
16 350
16 351
16 353
16 356
16 370
16 385
16 388
16 400
16 412
16 424
16 428
16 435
16 437
16 438
16 440
16 441
16 442
16 443
16 444
16 445
16 446
16 452
16 453
16 454
16 455
16 456
16 457
16 458
16 459
16 460
16 467
16 470
16 475
16 485
16 488
16 489
16 491
16 492
16 493
16 494
16 495
16 496
16 497
16 498
16 499
16 500
16 501
16 502
16 503
16 504
16 505
16 506
16 507
16 508
16 509
16 511
16 512
16 513
16 514
16 515
16 516
16 517
16 518
16 519
16 520
16 521
16 522
16 523
16 524
16 525
16 526
16 527
16 528
16 538
16 539
16 540
16 541
16 543
16 544
16 545
16 546
16 547
16 548
16 549
16 550
16 551
16 552
16 553
16 554
16 555
16 556
16 557
16 558
16 559
16 560
16 561
16 562
16 563
16 574
16 578
16 579
16 580
16 581
16 582
16 583
16 584
16 585
16 587
16 597
17 18
17 19
17 20
17 21
17 22
17 23
17 24
17 25
17 26
17 27
17 36
17 46
17 54
17 55
17 56
17 57
17 58
17 59
17 60
17 61
17 62
17 63
17 64
17 65
17 66
17 67
17 68
17 70
17 71
17 72
17 73
17 74
17 75
17 76
17 77
17 78
17 79
17 80
17 81
17 82
17 83
17 84
17 85
17 86
17 87
17 88
17 89
17 90
17 91
17 92
17 93
17 94
17 95
17 96
17 97
17 98
17 99
17 100
17 101
17 102
17 103
17 104
17 105
17 106
17 109
17 110
17 111
17 120
17 121
17 122
17 123
17 124
17 125
17 126
17 130
17 134
17 136
17 141
17 145
17 146
17 151
17 152
17 153
17 154
17 155
17 156
17 157
17 158
17 159
17 160
17 162
17 165
17 168
17 169
17 171
17 172
17 173
17 174
17 175
17 176
17 177
17 178
17 180
17 181
17 182
17 183
17 185
17 186
17 189
17 202
17 213
17 215
17 225
17 236
17 240
17 249
17 259
17 267
17 271
17 272
17 274
17 282
17 292
17 294
17 295
17 296
17 297
17 298
17 299
17 300
17 301
17 303
17 305
17 306
17 307
17 308
17 309
17 310
17 311
17 314
17 321
17 326
17 327
17 328
17 329
17 332
17 333
17 337
17 344
17 346
17 347
17 348
17 349
17 350
17 351
17 353
17 356
17 370
17 385
17 388
17 400
17 412
17 424
17 428
17 435
17 438
17 439
17 440
17 441
17 443
17 444
17 445
17 446
17 452
17 453
17 455
17 456
17 457
17 458
17 459
17 460
17 461
17 467
17 470
17 475
17 485
17 488
17 489
17 490
17 492
17 493
17 494
17 495
17 496
17 497
17 498
17 499
17 500
17 501
17 502
17 503
17 504
17 505
17 506
17 507
17 508
17 509
17 510
17 512
17 513
17 514
17 515
17 516
17 517
17 518
17 519
17 520
17 521
17 522
17 523
17 524
17 525
17 526
17 527
17 528
17 538
17 539
17 540
17 541
17 542
17 544
17 545
17 546
17 547
17 548
17 549
17 550
17 551
17 552
17 553
17 554
17 555
17 556
17 557
17 558
17 559
17 560
17 561
17 562
17 563
17 574
17 578
17 579
17 581
17 582
17 583
17 584
17 585
17 586
17 587
17 588
17 597
18 19
18 20
18 21
18 22
18 23
18 24
18 25
18 26
18 27
18 36
18 46
18 54
18 55
18 56
18 57
18 58
18 59
18 60
18 61
18 62
18 63
18 64
18 65
18 66
18 67
18 68
18 69
18 70
18 71
18 72
18 73
18 74
18 75
18 77
18 78
18 79
18 80
18 81
18 82
18 83
18 84
18 85
18 86
18 87
18 88
18 89
18 90
18 91
18 92
18 93
18 94
18 95
18 96
18 97
18 98
18 99
18 100
18 101
18 102
18 103
18 104
18 105
18 106
18 109
18 110
18 111
18 120
18 121
18 122
18 123
18 124
18 125
18 126
18 130
18 134
18 136
18 141
18 145
18 146
18 151
18 152
18 153
18 154
18 155
18 156
18 157
18 158
18 159
18 160
18 162
18 165
18 168
18 169
18 170
18 172
18 173
18 174
18 175
18 176
18 177
18 178
18 180
18 181
18 182
18 183
18 185
18 186
18 189
18 202
18 213
18 215
18 225
18 236
18 240
18 249
18 259
18 267
18 271
18 272
18 274
18 282
18 292
18 294
18 296
18 297
18 298
18 299
18 300
18 301
18 302
18 303
18 304
18 306
18 307
18 308
18 309
18 310
18 311
18 314
18 321
18 326
18 327
18 328
18 329
18 332
18 333
18 337
18 344
18 346
18 347
18 348
18 349
18 350
18 351
18 353
18 356
18 370
18 385
18 388
18 400
18 412
18 424
18 428
18 435
18 437
18 438
18 439
18 441
18 442
18 443
18 444
18 445
18 446
18 452
18 453
18 454
18 456
18 457
18 458
18 459
18 460
18 461
18 467
18 470
18 475
18 485
18 488
18 489
18 490
18 491
18 492
18 494
18 495
18 496
18 497
18 498
18 499
18 500
18 501
18 502
18 503
18 504
18 505
18 506
18 507
18 508
18 509
18 510
18 511
18 512
18 514
18 515
18 516
18 517
18 518
18 519
18 520
18 521
18 522
18 523
18 524
18 525
18 526
18 527
18 528
18 538
18 539
18 540
18 541
18 542
18 543
18 544
18 546
18 547
18 548
18 549
18 550
18 551
18 552
18 553
18 554
18 555
18 556
18 557
18 558
18 559
18 560
18 561
18 562
18 563
18 574
18 578
18 579
18 580
18 581
18 582
18 583
18 584
18 585
18 587
18 597
19 20
19 21
19 22
19 23
19 24
19 25
19 26
19 27
19 36
19 46
19 54
19 55
19 56
19 57
19 58
19 59
19 60
19 61
19 62
19 63
19 64
19 65
19 66
19 67
19 68
19 69
19 70
19 71
19 72
19 73
19 74
19 75
19 76
19 77
19 78
19 79
19 80
19 81
19 82
19 83
19 85
19 86
19 87
19 88
19 89
19 90
19 91
19 92
19 93
19 94
19 95
19 96
19 97
19 98
19 99
19 100
19 101
19 102
19 103
19 104
19 105
19 106
19 108
19 110
19 111
19 112
19 120
19 121
19 123
19 124
19 125
19 126
19 127
19 128
19 130
19 134
19 135
19 136
19 137
19 138
19 139
19 140
19 142
19 143
19 144
19 145
19 146
19 147
19 148
19 149
19 150
19 152
19 153
19 154
19 155
19 156
19 158
19 159
19 160
19 161
19 162
19 163
19 165
19 168
19 169
19 170
19 171
19 172
19 174
19 175
19 176
19 177
19 178
19 179
19 180
19 181
19 183
19 184
19 185
19 186
19 187
19 188
19 189
19 202
19 213
19 215
19 225
19 236
19 240
19 249
19 259
19 267
19 270
19 272
19 273
19 274
19 282
19 292
19 294
19 295
19 297
19 298
19 299
19 300
19 301
19 302
19 303
19 304
19 305
19 307
19 308
19 309
19 310
19 311
19 314
19 321
19 326
19 327
19 329
19 330
19 331
19 332
19 333
19 334
19 335
19 337
19 344
19 346
19 348
19 349
19 350
19 351
19 352
19 353
19 354
19 356
19 370
19 385
19 388
19 400
19 412
19 424
19 428
19 435
19 437
19 438
19 439
19 440
19 442
19 443
19 444
19 445
19 446
19 452
19 453
19 454
19 455
19 457
19 458
19 459
19 460
19 461
19 467
19 470
19 475
19 485
19 489
19 490
19 491
19 493
19 495
19 497
19 499
19 500
19 501
19 502
19 504
19 505
19 508
19 509
19 510
19 511
19 512
19 513
19 514
19 516
19 517
19 518
19 519
19 520
19 521
19 522
19 523
19 524
19 525
19 526
19 527
19 528
19 538
19 539
19 540
19 541
19 542
19 543
19 544
19 545
19 546
19 548
19 549
19 550
19 551
19 552
19 553
19 554
19 555
19 556
19 557
19 558
19 559
19 560
19 561
19 562
19 563
19 574
19 578
19 579
19 580
19 582
19 583
19 584
19 585
19 586
19 587
19 588
19 597
20 21
20 22
20 23
20 24
20 25
20 26
20 27
20 36
20 46
20 57
20 63
20 69
20 76
20 84
20 88
20 94
20 95
20 97
20 102
20 103
20 108
20 109
20 111
20 112
20 120
20 121
20 122
20 124
20 125
20 126
20 127
20 128
20 130
20 134
20 136
20 141
20 145
20 146
20 151
20 152
20 153
20 154
20 155
20 156
20 157
20 159
20 160
20 161
20 162
20 163
20 165
20 168
20 169
20 170
20 171
20 173
20 174
20 175
20 176
20 177
20 180
20 181
20 182
20 183
20 185
20 186
20 189
20 202
20 213
20 215
20 225
20 236
20 240
20 249
20 259
20 267
20 270
20 271
20 273
20 274
20 282
20 292
20 294
20 295
20 296
20 297
20 298
20 299
20 300
20 301
20 303
20 304
20 305
20 306
20 307
20 308
20 309
20 310
20 314
20 321
20 326
20 327
20 328
20 330
20 331
20 332
20 333
20 334
20 335
20 337
20 344
20 346
20 347
20 349
20 350
20 351
20 352
20 353
20 354
20 356
20 370
20 385
20 388
20 400
20 412
20 424
20 428
20 435
20 438
20 439
20 440
20 441
20 443
20 444
20 445
20 446
20 452
20 453
20 454
20 455
20 456
20 457
20 458
20 459
20 460
20 467
20 470
20 475
20 485
20 488
20 489
20 490
20 491
20 492
20 493
20 494
20 496
20 497
20 498
20 499
20 500
20 501
20 502
20 503
20 504
20 505
20 506
20 507
20 508
20 509
20 510
20 511
20 512
20 513
20 514
20 515
20 517
20 518
20 519
20 520
20 521
20 522
20 523
20 524
20 525
20 526
20 527
20 528
20 538
20 539
20 540
20 541
20 542
20 543
20 544
20 545
20 546
20 547
20 549
20 550
20 551
20 552
20 553
20 554
20 555
20 556
20 557
20 558
20 559
20 560
20 561
20 562
20 563
20 574
20 578
20 579
20 580
20 581
20 582
20 583
20 584
20 585
20 587
20 597
21 22
21 23
21 24
21 25
21 26
21 27
21 36
21 46
21 54
21 55
21 56
21 57
21 58
21 59
21 60
21 61
21 62
21 63
21 64
21 65
21 66
21 67
21 68
21 69
21 70
21 71
21 72
21 73
21 74
21 75
21 76
21 77
21 78
21 79
21 80
21 81
21 82
21 83
21 84
21 85
21 86
21 87
21 89
21 90
21 91
21 92
21 93
21 94
21 95
21 96
21 97
21 98
21 99
21 100
21 101
21 102
21 103
21 104
21 105
21 106
21 109
21 110
21 111
21 120
21 121
21 122
21 123
21 125
21 126
21 127
21 128
21 130
21 134
21 136
21 141
21 145
21 146
21 151
21 152
21 153
21 154
21 155
21 156
21 157
21 158
21 159
21 160
21 162
21 165
21 168
21 169
21 170
21 171
21 173
21 174
21 175
21 176
21 177
21 179
21 180
21 181
21 182
21 184
21 185
21 186
21 187
21 188
21 189
21 202
21 213
21 215
21 225
21 236
21 240
21 249
21 259
21 267
21 271
21 272
21 274
21 282
21 292
21 294
21 295
21 296
21 297
21 298
21 299
21 300
21 301
21 303
21 304
21 305
21 306
21 307
21 308
21 309
21 310
21 314
21 321
21 326
21 327
21 328
21 329
21 332
21 333
21 337
21 344
21 346
21 347
21 348
21 350
21 351
21 352
21 353
21 354
21 356
21 370
21 385
21 388
21 400
21 412
21 424
21 428
21 435
21 437
21 438
21 439
21 440
21 441
21 442
21 444
21 445
21 446
21 452
21 453
21 454
21 455
21 456
21 457
21 458
21 459
21 460
21 467
21 470
21 475
21 485
21 488
21 489
21 490
21 491
21 492
21 493
21 494
21 495
21 496
21 498
21 499
21 500
21 501
21 502
21 503
21 504
21 505
21 506
21 507
21 508
21 509
21 510
21 511
21 512
21 513
21 514
21 515
21 516
21 517
21 519
21 520
21 521
21 522
21 523
21 524
21 525
21 526
21 527
21 528
21 538
21 539
21 540
21 541
21 542
21 543
21 544
21 545
21 546
21 547
21 548
21 549
21 550
21 552
21 553
21 554
21 555
21 556
21 557
21 558
21 559
21 560
21 561
21 562
21 563
21 574
21 578
21 579
21 580
21 581
21 582
21 583
21 584
21 585
21 587
21 597
22 23
22 24
22 25
22 26
22 27
22 28
22 29
22 30
22 31
22 32
22 33
22 34
22 35
22 37
22 38
22 39
22 40
22 41
22 42
22 43
22 44
22 45
22 57
22 63
22 69
22 76
22 84
22 88
22 94
22 95
22 97
22 102
22 103
22 109
22 110
22 111
22 120
22 121
22 122
22 123
22 124
22 126
22 127
22 128
22 129
22 130
22 131
22 132
22 133
22 135
22 136
22 137
22 138
22 139
22 140
22 141
22 142
22 143
22 144
22 146
22 147
22 148
22 149
22 150
22 151
22 153
22 154
22 155
22 156
22 157
22 158
22 160
22 161
22 162
22 163
22 165
22 167
22 169
22 170
22 171
22 172
22 173
22 175
22 176
22 177
22 178
22 180
22 181
22 182
22 183
22 185
22 186
22 189
22 190
22 191
22 192
22 193
22 194
22 195
22 196
22 197
22 198
22 199
22 200
22 201
22 203
22 204
22 205
22 206
22 207
22 208
22 209
22 210
22 211
22 212
22 214
22 216
22 217
22 218
22 219
22 220
22 221
22 222
22 223
22 224
22 226
22 227
22 228
22 229
22 230
22 231
22 232
22 233
22 234
22 235
22 237
22 238
22 239
22 241
22 242
22 243
22 244
22 245
22 246
22 247
22 248
22 250
22 251
22 252
22 253
22 254
22 255
22 256
22 257
22 258
22 260
22 261
22 262
22 263
22 264
22 265
22 266
22 268
22 271
22 272
22 274
22 282
22 284
22 285
22 286
22 287
22 288
22 289
22 290
22 291
22 293
22 294
22 295
22 296
22 298
22 299
22 300
22 301
22 302
22 303
22 304
22 305
22 306
22 308
22 309
22 310
22 311
22 312
22 313
22 315
22 316
22 317
22 318
22 319
22 320
22 322
22 323
22 324
22 325
22 327
22 328
22 329
22 330
22 331
22 333
22 334
22 335
22 336
22 338
22 339
22 340
22 341
22 342
22 343
22 345
22 346
22 347
22 348
22 349
22 351
22 352
22 353
22 354
22 355
22 356
22 357
22 358
22 359
22 360
22 361
22 362
22 363
22 364
22 365
22 366
22 367
22 368
22 369
22 371
22 372
22 373
22 376
22 377
22 378
22 379
22 380
22 381
22 382
22 383
22 384
22 386
22 387
22 388
22 389
22 390
22 391
22 392
22 393
22 394
22 395
22 396
22 397
22 398
22 399
22 401
22 402
22 403
22 404
22 405
22 406
22 407
22 408
22 409
22 410
22 411
22 413
22 416
22 417
22 418
22 419
22 420
22 421
22 422
22 423
22 425
22 426
22 427
22 429
22 430
22 431
22 432
22 433
22 434
22 436
22 437
22 438
22 439
22 440
22 441
22 442
22 443
22 445
22 446
22 449
22 450
22 451
22 453
22 454
22 455
22 456
22 458
22 459
22 460
22 461
22 462
22 463
22 464
22 465
22 466
22 468
22 469
22 472
22 473
22 474
22 476
22 477
22 478
22 479
22 480
22 481
22 482
22 483
22 484
22 486
22 488
22 489
22 490
22 491
22 492
22 493
22 494
22 495
22 496
22 497
22 498
22 500
22 501
22 502
22 503
22 504
22 505
22 506
22 507
22 508
22 509
22 510
22 511
22 512
22 513
22 514
22 515
22 516
22 517
22 518
22 519
22 521
22 522
22 523
22 524
22 525
22 526
22 527
22 528
22 531
22 532
22 533
22 534
22 535
22 536
22 537
22 539
22 540
22 541
22 542
22 543
22 544
22 545
22 546
22 547
22 548
22 549
22 550
22 551
22 552
22 554
22 555
22 556
22 557
22 558
22 559
22 560
22 561
22 562
22 563
22 564
22 565
22 566
22 567
22 568
22 569
22 570
22 571
22 572
22 573
22 579
22 580
22 581
22 583
22 584
22 585
22 586
22 587
22 588
22 589
22 590
22 591
22 592
22 593
22 594
22 595
22 596
22 598
23 24
23 25
23 26
23 27
23 36
23 46
23 54
23 55
23 56
23 57
23 58
23 59
23 60
23 61
23 62
23 63
23 64
23 65
23 66
23 67
23 68
23 69
23 70
23 71
23 72
23 73
23 74
23 75
23 76
23 77
23 78
23 79
23 80
23 81
23 82
23 83
23 84
23 85
23 86
23 87
23 88
23 89
23 90
23 91
23 92
23 93
23 95
23 96
23 97
23 98
23 99
23 100
23 101
23 102
23 103
23 104
23 105
23 106
23 109
23 110
23 111
23 120
23 121
23 122
23 123
23 124
23 125
23 126
23 130
23 134
23 136
23 141
23 145
23 146
23 151
23 152
23 153
23 154
23 155
23 156
23 157
23 158
23 159
23 160
23 162
23 165
23 168
23 169
23 170
23 171
23 172
23 173
23 174
23 176
23 177
23 178
23 180
23 181
23 182
23 183
23 185
23 186
23 189
23 202
23 213
23 215
23 225
23 236
23 240
23 249
23 259
23 267
23 271
23 272
23 274
23 282
23 292
23 294
23 295
23 296
23 297
23 299
23 300
23 301
23 302
23 303
23 304
23 305
23 306
23 307
23 308
23 309
23 310
23 314
23 321
23 326
23 327
23 328
23 329
23 332
23 333
23 337
23 344
23 346
23 347
23 348
23 349
23 350
23 351
23 353
23 356
23 370
23 385
23 388
23 400
23 412
23 424
23 428
23 435
23 438
23 439
23 440
23 441
23 443
23 444
23 445
23 446
23 452
23 453
23 454
23 455
23 456
23 457
23 459
23 460
23 461
23 467
23 470
23 475
23 485
23 488
23 489
23 490
23 491
23 492
23 493
23 494
23 495
23 496
23 497
23 498
23 499
23 501
23 502
23 503
23 504
23 505
23 506
23 507
23 508
23 509
23 510
23 511
23 512
23 513
23 514
23 515
23 516
23 517
23 518
23 519
23 520
23 522
23 523
23 524
23 525
23 526
23 527
23 528
23 538
23 539
23 540
23 541
23 542
23 543
23 544
23 545
23 546
23 547
23 548
23 549
23 550
23 551
23 552
23 553
23 555
23 556
23 557
23 558
23 559
23 560
23 561
23 562
23 563
23 574
23 578
23 579
23 580
23 581
23 582
23 584
23 585
23 586
23 587
23 588
23 597
24 25
24 26
24 27
24 36
24 46
24 54
24 55
24 56
24 57
24 58
24 59
24 60
24 61
24 62
24 63
24 64
24 65
24 66
24 67
24 68
24 69
24 70
24 71
24 72
24 73
24 74
24 75
24 76
24 77
24 78
24 79
24 80
24 81
24 82
24 83
24 84
24 85
24 86
24 87
24 88
24 89
24 90
24 91
24 92
24 93
24 94
24 96
24 97
24 98
24 99
24 100
24 101
24 102
24 103
24 104
24 105
24 106
24 108
24 109
24 110
24 112
24 120
24 121
24 122
24 123
24 124
24 125
24 127
24 128
24 130
24 134
24 135
24 136
24 137
24 138
24 139
24 140
24 141
24 142
24 143
24 144
24 145
24 147
24 148
24 149
24 150
24 151
24 152
24 154
24 155
24 156
24 157
24 158
24 159
24 161
24 162
24 163
24 165
24 168
24 169
24 170
24 171
24 172
24 173
24 174
24 175
24 177
24 178
24 179
24 180
24 181
24 182
24 183
24 184
24 186
24 187
24 188
24 189
24 202
24 213
24 215
24 225
24 236
24 240
24 249
24 259
24 267
24 270
24 271
24 272
24 273
24 282
24 292
24 294
24 295
24 296
24 297
24 298
24 300
24 301
24 302
24 303
24 304
24 305
24 306
24 307
24 309
24 310
24 311
24 314
24 321
24 326
24 327
24 328
24 329
24 330
24 331
24 332
24 334
24 335
24 337
24 344
24 346
24 347
24 348
24 349
24 350
24 352
24 353
24 354
24 356
24 370
24 385
24 388
24 400
24 412
24 424
24 428
24 435
24 437
24 438
24 439
24 440
24 441
24 442
24 443
24 444
24 446
24 452
24 453
24 454
24 455
24 456
24 457
24 458
24 460
24 461
24 467
24 470
24 475
24 485
24 488
24 489
24 490
24 491
24 492
24 493
24 494
24 495
24 496
24 497
24 498
24 499
24 500
24 502
24 503
24 504
24 505
24 506
24 507
24 509
24 510
24 511
24 513
24 515
24 516
24 518
24 520
24 521
24 522
24 524
24 525
24 528
24 538
24 539
24 540
24 541
24 542
24 543
24 544
24 545
24 546
24 547
24 548
24 549
24 550
24 551
24 552
24 553
24 554
24 556
24 557
24 558
24 559
24 560
24 561
24 562
24 563
24 574
24 578
24 579
24 580
24 581
24 582
24 583
24 585
24 586
24 587
24 588
24 597
25 26
25 27
25 36
25 46
25 54
25 55
25 56
25 57
25 58
25 59
25 60
25 61
25 62
25 63
25 64
25 65
25 66
25 67
25 68
25 69
25 70
25 71
25 72
25 73
25 74
25 75
25 76
25 77
25 78
25 79
25 80
25 81
25 82
25 83
25 84
25 85
25 86
25 87
25 88
25 89
25 90
25 91
25 92
25 93
25 94
25 95
25 96
25 98
25 99
25 100
25 101
25 102
25 103
25 104
25 105
25 106
25 109
25 110
25 111
25 120
25 121
25 122
25 123
25 124
25 125
25 126
25 130
25 134
25 136
25 141
25 145
25 146
25 151
25 152
25 153
25 155
25 156
25 157
25 158
25 159
25 160
25 162
25 165
25 168
25 169
25 170
25 171
25 173
25 174
25 175
25 176
25 177
25 180
25 181
25 182
25 183
25 185
25 186
25 189
25 202
25 213
25 215
25 225
25 236
25 240
25 249
25 259
25 267
25 271
25 272
25 274
25 282
25 292
25 294
25 295
25 296
25 297
25 298
25 299
25 301
25 302
25 303
25 304
25 305
25 306
25 307
25 308
25 310
25 311
25 314
25 321
25 326
25 327
25 328
25 329
25 332
25 333
25 337
25 344
25 346
25 347
25 348
25 349
25 350
25 351
25 353
25 356
25 370
25 385
25 388
25 400
25 412
25 424
25 428
25 435
25 438
25 439
25 440
25 441
25 443
25 444
25 445
25 446
25 452
25 453
25 454
25 455
25 456
25 457
25 458
25 459
25 461
25 467
25 470
25 475
25 485
25 488
25 489
25 490
25 491
25 492
25 493
25 494
25 495
25 496
25 497
25 498
25 499
25 500
25 501
25 503
25 504
25 505
25 506
25 507
25 508
25 509
25 510
25 511
25 512
25 513
25 514
25 515
25 516
25 517
25 518
25 519
25 520
25 521
25 523
25 524
25 525
25 526
25 527
25 528
25 538
25 539
25 540
25 541
25 542
25 543
25 544
25 545
25 546
25 547
25 548
25 549
25 550
25 551
25 552
25 553
25 554
25 555
25 557
25 558
25 559
25 560
25 561
25 562
25 563
25 574
25 578
25 579
25 580
25 581
25 582
25 583
25 584
25 586
25 587
25 588
25 597
26 27
26 36
26 46
26 54
26 55
26 56
26 57
26 58
26 59
26 60
26 61
26 62
26 63
26 64
26 65
26 66
26 67
26 68
26 69
26 70
26 71
26 72
26 73
26 74
26 75
26 76
26 77
26 78
26 79
26 80
26 81
26 82
26 83
26 84
26 85
26 86
26 87
26 88
26 89
26 90
26 91
26 92
26 93
26 94
26 95
26 96
26 97
26 98
26 99
26 100
26 101
26 103
26 104
26 105
26 106
26 109
26 110
26 111
26 120
26 121
26 122
26 123
26 124
26 125
26 126
26 130
26 134
26 136
26 141
26 145
26 146
26 151
26 152
26 153
26 154
26 155
26 156
26 157
26 158
26 159
26 160
26 161
26 163
26 165
26 168
26 169
26 170
26 171
26 173
26 174
26 175
26 176
26 177
26 179
26 180
26 181
26 182
26 183
26 184
26 185
26 187
26 188
26 189
26 202
26 213
26 215
26 225
26 236
26 240
26 249
26 259
26 267
26 271
26 272
26 274
26 282
26 292
26 294
26 295
26 296
26 297
26 298
26 299
26 300
26 301
26 303
26 304
26 305
26 306
26 307
26 308
26 309
26 310
26 314
26 321
26 326
26 327
26 328
26 329
26 332
26 333
26 337
26 344
26 346
26 347
26 348
26 349
26 350
26 351
26 352
26 354
26 356
26 370
26 385
26 388
26 400
26 412
26 424
26 428
26 435
26 437
26 438
26 439
26 440
26 441
26 442
26 443
26 444
26 445
26 452
26 453
26 454
26 455
26 456
26 457
26 458
26 459
26 460
26 467
26 470
26 475
26 485
26 488
26 489
26 490
26 491
26 492
26 493
26 494
26 495
26 496
26 497
26 498
26 499
26 500
26 501
26 502
26 503
26 505
26 506
26 507
26 508
26 509
26 510
26 511
26 512
26 513
26 514
26 515
26 516
26 517
26 518
26 519
26 520
26 521
26 522
26 523
26 525
26 526
26 527
26 528
26 538
26 539
26 540
26 541
26 542
26 543
26 544
26 545
26 546
26 547
26 548
26 549
26 550
26 551
26 552
26 553
26 554
26 555
26 556
26 557
26 558
26 560
26 561
26 562
26 563
26 574
26 578
26 579
26 580
26 581
26 582
26 583
26 584
26 585
26 587
26 597
27 36
27 46
27 54
27 55
27 56
27 57
27 58
27 59
27 60
27 61
27 62
27 63
27 64
27 65
27 66
27 67
27 68
27 69
27 70
27 71
27 72
27 73
27 74
27 75
27 76
27 77
27 78
27 79
27 80
27 81
27 82
27 83
27 84
27 85
27 86
27 87
27 88
27 89
27 90
27 91
27 92
27 93
27 94
27 95
27 96
27 97
27 98
27 99
27 100
27 101
27 102
27 104
27 105
27 106
27 109
27 110
27 111
27 120
27 121
27 122
27 123
27 124
27 125
27 126
27 130
27 134
27 136
27 141
27 145
27 146
27 151
27 152
27 153
27 154
27 155
27 156
27 157
27 158
27 159
27 160
27 162
27 165
27 168
27 169
27 170
27 171
27 172
27 173
27 174
27 175
27 176
27 178
27 180
27 181
27 182
27 183
27 185
27 186
27 189
27 202
27 213
27 215
27 225
27 236
27 240
27 249
27 259
27 267
27 271
27 272
27 274
27 282
27 292
27 294
27 295
27 296
27 297
27 298
27 299
27 300
27 302
27 303
27 304
27 305
27 306
27 307
27 308
27 309
27 311
27 314
27 321
27 326
27 327
27 328
27 329
27 332
27 333
27 337
27 344
27 346
27 347
27 348
27 349
27 350
27 351
27 353
27 356
27 370
27 385
27 388
27 400
27 412
27 424
27 428
27 435
27 438
27 439
27 440
27 441
27 443
27 444
27 445
27 446
27 452
27 453
27 454
27 455
27 456
27 457
27 458
27 459
27 460
27 467
27 470
27 475
27 485
27 488
27 489
27 490
27 491
27 492
27 493
27 494
27 495
27 496
27 497
27 498
27 499
27 500
27 501
27 502
27 503
27 504
27 506
27 507
27 508
27 509
27 510
27 511
27 512
27 513
27 514
27 515
27 516
27 517
27 518
27 519
27 520
27 521
27 522
27 523
27 524
27 526
27 527
27 528
27 538
27 539
27 540
27 541
27 542
27 543
27 544
27 545
27 546
27 547
27 548
27 549
27 550
27 551
27 552
27 553
27 554
27 555
27 556
27 557
27 558
27 559
27 561
27 562
27 563
27 574
27 578
27 579
27 580
27 581
27 582
27 583
27 584
27 585
27 586
27 588
27 597
28 29
28 30
28 31
28 32
28 33
28 34
28 35
28 36
28 46
28 47
28 48
28 49
28 51
28 52
28 53
28 60
28 68
28 74
28 86
28 91
28 114
28 115
28 116
28 117
28 118
28 119
28 125
28 131
28 134
28 137
28 139
28 143
28 145
28 152
28 159
28 168
28 174
28 191
28 199
28 202
28 213
28 215
28 225
28 228
28 229
28 230
28 231
28 232
28 233
28 234
28 235
28 236
28 238
28 239
28 240
28 249
28 259
28 267
28 276
28 277
28 278
28 279
28 280
28 281
28 292
28 297
28 307
28 312
28 314
28 321
28 323
28 324
28 326
28 332
28 337
28 344
28 350
28 358
28 368
28 370
28 376
28 378
28 379
28 380
28 381
28 382
28 383
28 384
28 385
28 386
28 387
28 388
28 390
28 391
28 392
28 393
28 394
28 395
28 396
28 397
28 398
28 399
28 400
28 401
28 402
28 403
28 412
28 424
28 428
28 435
28 444
28 449
28 452
28 457
28 463
28 467
28 469
28 470
28 473
28 475
28 485
28 499
28 520
28 538
28 541
28 553
28 564
28 566
28 567
28 568
28 569
28 570
28 571
28 572
28 573
28 574
28 578
28 582
28 597
29 30
29 31
29 32
29 33
29 34
29 35
29 36
29 46
29 48
29 49
29 50
29 51
29 52
29 53
29 54
29 55
29 56
29 57
29 58
29 59
29 61
29 62
29 63
29 64
29 65
29 66
29 67
29 68
29 69
29 70
29 71
29 72
29 73
29 74
29 75
29 76
29 77
29 78
29 79
29 80
29 81
29 82
29 83
29 84
29 85
29 86
29 87
29 88
29 89
29 90
29 91
29 92
29 93
29 94
29 95
29 96
29 97
29 98
29 99
29 100
29 101
29 102
29 103
29 104
29 105
29 106
29 113
29 115
29 116
29 117
29 118
29 119
29 125
29 129
29 130
29 132
29 133
29 134
29 135
29 136
29 138
29 139
29 140
29 141
29 142
29 143
29 144
29 145
29 146
29 147
29 148
29 149
29 150
29 152
29 159
29 168
29 174
29 189
29 190
29 192
29 193
29 194
29 195
29 196
29 197
29 198
29 199
29 200
29 201
29 202
29 203
29 204
29 205
29 206
29 213
29 215
29 225
29 227
29 229
29 230
29 231
29 232
29 233
29 234
29 235
29 236
29 237
29 239
29 240
29 249
29 259
29 267
29 275
29 277
29 278
29 279
29 280
29 281
29 292
29 297
29 307
29 313
29 314
29 321
29 324
29 325
29 326
29 332
29 337
29 344
29 350
29 355
29 356
29 357
29 359
29 360
29 361
29 362
29 363
29 364
29 365
29 366
29 367
29 368
29 369
29 370
29 371
29 372
29 373
29 376
29 377
29 379
29 380
29 381
29 382
29 383
29 384
29 385
29 389
29 391
29 392
29 395
29 396
29 398
29 400
29 412
29 424
29 428
29 435
29 444
29 449
29 452
29 457
29 462
29 464
29 465
29 466
29 467
29 469
29 470
29 472
29 474
29 475
29 476
29 485
29 499
29 520
29 538
29 539
29 540
29 542
29 543
29 544
29 545
29 546
29 547
29 548
29 549
29 550
29 551
29 552
29 553
29 554
29 555
29 556
29 557
29 558
29 559
29 560
29 561
29 562
29 563
29 564
29 565
29 567
29 568
29 569
29 570
29 571
29 572
29 573
29 574
29 578
29 582
29 597
30 31
30 32
30 33
30 34
30 35
30 36
30 46
30 47
30 49
30 50
30 51
30 52
30 53
30 60
30 68
30 74
30 86
30 91
30 113
30 114
30 115
30 117
30 118
30 119
30 125
30 131
30 134
30 137
30 139
30 143
30 145
30 152
30 159
30 168
30 174
30 191
30 199
30 202
30 213
30 215
30 225
30 227
30 228
30 230
30 231
30 232
30 233
30 234
30 235
30 236
30 238
30 239
30 240
30 249
30 259
30 267
30 275
30 276
30 278
30 279
30 280
30 281
30 292
30 297
30 307
30 312
30 314
30 321
30 323
30 324
30 326
30 332
30 337
30 344
30 350
30 358
30 368
30 370
30 376
30 377
30 378
30 380
30 381
30 382
30 383
30 384
30 385
30 386
30 387
30 388
30 389
30 390
30 392
30 393
30 394
30 395
30 396
30 397
30 398
30 399
30 400
30 401
30 402
30 403
30 412
30 424
30 428
30 435
30 444
30 449
30 452
30 457
30 463
30 467
30 469
30 470
30 473
30 475
30 485
30 499
30 520
30 538
30 541
30 553
30 564
30 565
30 566
30 568
30 569
30 570
30 571
30 572
30 573
30 574
30 578
30 582
30 597
31 32
31 33
31 34
31 35
31 36
31 46
31 47
31 48
31 50
31 51
31 52
31 53
31 54
31 55
31 56
31 57
31 58
31 59
31 60
31 61
31 62
31 63
31 64
31 65
31 66
31 67
31 69
31 70
31 71
31 72
31 73
31 74
31 75
31 76
31 77
31 78
31 79
31 80
31 81
31 82
31 83
31 84
31 85
31 86
31 87
31 88
31 89
31 90
31 91
31 92
31 93
31 94
31 95
31 96
31 97
31 98
31 99
31 100
31 101
31 102
31 103
31 104
31 105
31 106
31 113
31 114
31 116
31 117
31 118
31 119
31 125
31 131
31 134
31 135
31 136
31 137
31 138
31 140
31 141
31 142
31 143
31 144
31 145
31 146
31 147
31 148
31 149
31 150
31 152
31 159
31 168
31 174
31 191
31 199
31 202
31 213
31 215
31 225
31 227
31 228
31 229
31 231
31 233
31 234
31 235
31 236
31 238
31 239
31 240
31 249
31 259
31 267
31 275
31 276
31 277
31 279
31 280
31 281
31 292
31 297
31 307
31 312
31 314
31 321
31 323
31 324
31 326
31 332
31 337
31 344
31 350
31 358
31 368
31 370
31 376
31 377
31 378
31 379
31 381
31 382
31 383
31 384
31 385
31 386
31 387
31 388
31 389
31 390
31 391
31 393
31 394
31 395
31 396
31 397
31 398
31 399
31 400
31 401
31 402
31 403
31 412
31 424
31 428
31 435
31 444
31 450
31 451
31 452
31 457
31 463
31 467
31 469
31 470
31 473
31 475
31 485
31 499
31 520
31 538
31 541
31 553
31 564
31 565
31 566
31 567
31 569
31 570
31 571
31 572
31 573
31 574
31 578
31 582
31 597
32 33
32 34
32 35
32 36
32 46
32 47
32 48
32 49
32 51
32 52
32 53
32 54
32 55
32 56
32 57
32 58
32 59
32 60
32 61
32 62
32 63
32 64
32 65
32 66
32 67
32 68
32 69
32 70
32 71
32 72
32 73
32 75
32 76
32 77
32 78
32 79
32 80
32 81
32 82
32 83
32 84
32 85
32 86
32 87
32 88
32 89
32 90
32 91
32 92
32 93
32 94
32 95
32 96
32 97
32 98
32 99
32 100
32 101
32 102
32 103
32 104
32 105
32 106
32 113
32 114
32 115
32 117
32 118
32 119
32 125
32 131
32 134
32 137
32 139
32 143
32 145
32 152
32 159
32 168
32 174
32 191
32 199
32 202
32 213
32 215
32 225
32 227
32 228
32 229
32 230
32 232
32 233
32 234
32 235
32 236
32 238
32 239
32 240
32 249
32 259
32 267
32 275
32 276
32 277
32 278
32 280
32 281
32 292
32 297
32 307
32 312
32 314
32 321
32 323
32 324
32 326
32 332
32 337
32 344
32 350
32 358
32 368
32 370
32 377
32 378
32 379
32 380
32 382
32 383
32 385
32 389
32 391
32 392
32 395
32 396
32 398
32 400
32 412
32 424
32 428
32 435
32 444
32 449
32 452
32 457
32 463
32 467
32 468
32 470
32 473
32 475
32 485
32 499
32 520
32 538
32 541
32 553
32 565
32 566
32 567
32 568
32 571
32 573
32 574
32 578
32 582
32 597
33 34
33 35
33 36
33 46
33 47
33 48
33 49
33 50
33 52
33 53
33 60
33 68
33 74
33 86
33 91
33 113
33 114
33 115
33 116
33 118
33 119
33 125
33 131
33 134
33 137
33 139
33 143
33 145
33 152
33 159
33 168
33 174
33 191
33 199
33 202
33 213
33 215
33 225
33 227
33 228
33 229
33 230
33 231
33 232
33 234
33 235
33 236
33 238
33 239
33 240
33 249
33 259
33 267
33 275
33 276
33 277
33 278
33 280
33 281
33 292
33 297
33 307
33 312
33 314
33 321
33 323
33 324
33 326
33 332
33 337
33 344
33 350
33 358
33 368
33 370
33 376
33 377
33 378
33 379
33 380
33 381
33 383
33 384
33 385
33 386
33 387
33 388
33 389
33 390
33 391
33 392
33 393
33 394
33 396
33 397
33 398
33 399
33 400
33 401
33 402
33 403
33 412
33 424
33 428
33 435
33 444
33 449
33 452
33 457
33 463
33 467
33 469
33 470
33 473
33 475
33 485
33 499
33 520
33 538
33 541
33 553
33 564
33 565
33 566
33 567
33 568
33 569
33 570
33 572
33 573
33 574
33 578
33 582
33 597
34 35
34 36
34 46
34 47
34 48
34 49
34 50
34 51
34 53
34 54
34 55
34 56
34 57
34 58
34 59
34 60
34 61
34 62
34 63
34 64
34 65
34 66
34 67
34 68
34 69
34 70
34 71
34 72
34 73
34 74
34 75
34 76
34 77
34 78
34 79
34 80
34 81
34 82
34 83
34 84
34 85
34 87
34 88
34 89
34 90
34 91
34 92
34 93
34 94
34 95
34 96
34 97
34 98
34 99
34 100
34 101
34 102
34 103
34 104
34 105
34 106
34 113
34 114
34 115
34 116
34 117
34 119
34 125
34 131
34 134
34 135
34 136
34 137
34 138
34 139
34 140
34 141
34 142
34 144
34 145
34 146
34 147
34 148
34 149
34 150
34 152
34 159
34 168
34 174
34 189
34 190
34 191
34 192
34 193
34 194
34 195
34 196
34 197
34 198
34 200
34 201
34 202
34 203
34 204
34 205
34 206
34 213
34 215
34 225
34 227
34 228
34 229
34 230
34 231
34 232
34 233
34 235
34 236
34 238
34 239
34 240
34 249
34 259
34 267
34 275
34 276
34 277
34 278
34 279
34 281
34 292
34 297
34 307
34 312
34 314
34 321
34 323
34 324
34 326
34 332
34 337
34 344
34 350
34 355
34 356
34 357
34 358
34 359
34 360
34 361
34 362
34 363
34 364
34 365
34 366
34 367
34 369
34 370
34 371
34 372
34 373
34 376
34 377
34 378
34 379
34 380
34 381
34 382
34 384
34 385
34 386
34 387
34 388
34 389
34 390
34 391
34 392
34 393
34 394
34 395
34 397
34 398
34 399
34 400
34 401
34 402
34 403
34 412
34 424
34 428
34 435
34 444
34 449
34 452
34 457
34 463
34 467
34 469
34 470
34 473
34 475
34 485
34 499
34 520
34 538
34 541
34 553
34 565
34 566
34 567
34 568
34 571
34 573
34 574
34 578
34 582
34 597
35 36
35 46
35 47
35 48
35 49
35 50
35 51
35 52
35 54
35 55
35 56
35 57
35 58
35 59
35 60
35 61
35 62
35 63
35 64
35 65
35 66
35 67
35 68
35 69
35 70
35 71
35 72
35 73
35 74
35 75
35 76
35 77
35 78
35 79
35 80
35 81
35 82
35 83
35 84
35 85
35 86
35 87
35 88
35 89
35 90
35 92
35 93
35 94
35 95
35 96
35 97
35 98
35 99
35 100
35 101
35 102
35 103
35 104
35 105
35 106
35 113
35 114
35 115
35 116
35 117
35 118
35 125
35 131
35 134
35 137
35 139
35 143
35 145
35 152
35 159
35 168
35 174
35 191
35 199
35 202
35 213
35 215
35 225
35 227
35 228
35 229
35 230
35 231
35 232
35 233
35 234
35 236
35 237
35 238
35 240
35 249
35 259
35 267
35 275
35 276
35 277
35 278
35 279
35 280
35 292
35 297
35 307
35 312
35 314
35 321
35 323
35 325
35 326
35 332
35 337
35 344
35 350
35 358
35 368
35 370
35 377
35 378
35 379
35 380
35 382
35 383
35 385
35 386
35 387
35 388
35 389
35 390
35 391
35 392
35 393
35 394
35 395
35 396
35 397
35 399
35 400
35 401
35 402
35 403
35 412
35 424
35 428
35 435
35 444
35 449
35 452
35 457
35 463
35 467
35 469
35 470
35 473
35 475
35 485
35 499
35 520
35 538
35 541
35 553
35 564
35 565
35 566
35 567
35 568
35 569
35 570
35 571
35 572
35 574
35 578
35 582
35 597
36 37
36 38
36 39
36 40
36 41
36 42
36 43
36 44
36 45
36 47
36 48
36 49
36 51
36 52
36 53
36 60
36 68
36 74
36 86
36 91
36 113
36 114
36 115
36 117
36 118
36 119
36 120
36 121
36 122
36 123
36 124
36 126
36 127
36 128
36 129
36 130
36 131
36 132
36 133
36 135
36 136
36 137
36 138
36 139
36 140
36 141
36 142
36 143
36 144
36 146
36 147
36 148
36 149
36 150
36 151
36 153
36 154
36 155
36 156
36 157
36 158
36 160
36 161
36 162
36 163
36 167
36 169
36 170
36 171
36 172
36 173
36 175
36 176
36 177
36 178
36 189
36 190
36 191
36 192
36 193
36 194
36 195
36 196
36 197
36 198
36 199
36 200
36 201
36 203
36 204
36 205
36 206
36 207
36 208
36 209
36 210
36 211
36 212
36 214
36 216
36 217
36 218
36 219
36 220
36 221
36 222
36 223
36 224
36 226
36 227
36 228
36 229
36 230
36 231
36 232
36 233
36 234
36 235
36 237
36 238
36 239
36 241
36 242
36 243
36 244
36 245
36 246
36 247
36 248
36 250
36 251
36 252
36 253
36 254
36 255
36 256
36 257
36 258
36 260
36 261
36 262
36 263
36 264
36 265
36 266
36 268
36 275
36 276
36 277
36 278
36 280
36 281
36 284
36 285
36 286
36 287
36 288
36 289
36 290
36 291
36 293
36 294
36 295
36 296
36 298
36 299
36 300
36 301
36 302
36 303
36 304
36 305
36 306
36 308
36 309
36 310
36 311
36 312
36 313
36 315
36 316
36 317
36 318
36 319
36 320
36 322
36 323
36 324
36 325
36 327
36 328
36 329
36 330
36 331
36 333
36 334
36 335
36 336
36 338
36 339
36 340
36 341
36 342
36 343
36 345
36 346
36 347
36 348
36 349
36 351
36 352
36 353
36 354
36 355
36 356
36 357
36 358
36 359
36 360
36 361
36 362
36 363
36 364
36 365
36 366
36 367
36 368
36 369
36 371
36 372
36 373
36 376
36 377
36 378
36 379
36 380
36 381
36 382
36 383
36 384
36 386
36 387
36 388
36 389
36 390
36 391
36 392
36 393
36 394
36 395
36 396
36 397
36 398
36 399
36 401
36 402
36 403
36 404
36 405
36 406
36 407
36 408
36 409
36 410
36 411
36 413
36 416
36 417
36 418
36 419
36 420
36 421
36 422
36 423
36 425
36 426
36 427
36 429
36 430
36 431
36 432
36 433
36 434
36 436
36 437
36 438
36 439
36 440
36 441
36 442
36 443
36 445
36 446
36 449
36 450
36 451
36 453
36 454
36 455
36 456
36 458
36 459
36 460
36 461
36 462
36 463
36 464
36 465
36 466
36 468
36 469
36 472
36 473
36 474
36 476
36 477
36 478
36 479
36 480
36 481
36 482
36 483
36 484
36 486
36 488
36 489
36 490
36 491
36 492
36 493
36 494
36 495
36 496
36 497
36 498
36 500
36 501
36 502
36 503
36 504
36 505
36 506
36 507
36 508
36 509
36 510
36 511
36 512
36 513
36 514
36 515
36 516
36 517
36 518
36 519
36 521
36 522
36 523
36 524
36 525
36 526
36 527
36 531
36 532
36 533
36 534
36 535
36 536
36 537
36 539
36 540
36 541
36 542
36 543
36 544
36 545
36 546
36 547
36 548
36 549
36 550
36 551
36 552
36 554
36 555
36 556
36 557
36 558
36 559
36 560
36 561
36 562
36 563
36 564
36 565
36 566
36 567
36 568
36 569
36 570
36 571
36 572
36 573
36 579
36 580
36 581
36 583
36 584
36 585
36 586
36 587
36 588
36 589
36 590
36 591
36 592
36 593
36 594
36 595
36 596
36 598
37 38
37 39
37 40
37 41
37 42
37 43
37 44
37 45
37 46
37 55
37 56
37 57
37 58
37 59
37 60
37 61
37 62
37 63
37 64
37 65
37 66
37 67
37 68
37 69
37 70
37 71
37 72
37 73
37 74
37 75
37 76
37 77
37 78
37 79
37 80
37 81
37 82
37 83
37 84
37 85
37 86
37 87
37 88
37 89
37 90
37 91
37 92
37 93
37 94
37 95
37 96
37 97
37 98
37 99
37 100
37 101
37 102
37 103
37 104
37 105
37 106
37 125
37 130
37 131
37 132
37 133
37 134
37 136
37 137
37 138
37 139
37 140
37 141
37 142
37 143
37 144
37 145
37 146
37 147
37 148
37 149
37 150
37 152
37 159
37 165
37 166
37 168
37 174
37 190
37 193
37 194
37 196
37 197
37 198
37 200
37 201
37 202
37 213
37 215
37 218
37 219
37 220
37 221
37 222
37 223
37 224
37 225
37 226
37 236
37 240
37 242
37 243
37 244
37 245
37 246
37 247
37 248
37 249
37 250
37 252
37 253
37 254
37 255
37 256
37 257
37 258
37 259
37 260
37 267
37 285
37 286
37 287
37 288
37 289
37 290
37 291
37 292
37 293
37 297
37 307
37 314
37 321
37 326
37 332
37 337
37 344
37 350
37 356
37 357
37 358
37 359
37 360
37 361
37 362
37 363
37 364
37 365
37 366
37 367
37 368
37 369
37 370
37 371
37 372
37 373
37 374
37 385
37 387
37 388
37 389
37 390
37 391
37 392
37 393
37 394
37 395
37 396
37 397
37 398
37 399
37 400
37 401
37 402
37 403
37 405
37 406
37 407
37 408
37 409
37 410
37 411
37 412
37 413
37 417
37 418
37 419
37 420
37 421
37 422
37 423
37 424
37 425
37 428
37 435
37 444
37 452
37 457
37 463
37 464
37 465
37 466
37 467
37 470
37 473
37 474
37 475
37 476
37 478
37 479
37 480
37 481
37 482
37 483
37 484
37 485
37 486
37 499
37 520
37 538
37 540
37 541
37 542
37 543
37 544
37 545
37 546
37 547
37 548
37 549
37 550
37 551
37 552
37 553
37 554
37 555
37 556
37 557
37 558
37 559
37 560
37 561
37 562
37 563
37 565
37 566
37 567
37 568
37 569
37 570
37 571
37 572
37 573
37 574
37 577
37 578
37 582
37 597
38 39
38 40
38 41
38 42
38 43
38 44
38 45
38 46
38 54
38 55
38 56
38 57
38 59
38 60
38 61
38 62
38 63
38 64
38 65
38 66
38 67
38 68
38 69
38 70
38 71
38 72
38 73
38 74
38 75
38 76
38 77
38 78
38 79
38 80
38 81
38 82
38 83
38 84
38 85
38 86
38 87
38 88
38 89
38 90
38 91
38 92
38 93
38 94
38 95
38 96
38 97
38 98
38 99
38 100
38 101
38 102
38 103
38 104
38 105
38 106
38 125
38 129
38 133
38 134
38 135
38 144
38 145
38 152
38 159
38 164
38 168
38 174
38 189
38 191
38 192
38 193
38 194
38 195
38 196
38 197
38 198
38 199
38 200
38 201
38 202
38 203
38 204
38 205
38 206
38 213
38 215
38 217
38 219
38 220
38 221
38 222
38 223
38 224
38 225
38 226
38 236
38 240
38 241
38 242
38 243
38 244
38 245
38 246
38 247
38 248
38 249
38 251
38 253
38 254
38 255
38 256
38 257
38 258
38 259
38 260
38 267
38 284
38 286
38 287
38 288
38 289
38 290
38 291
38 292
38 293
38 297
38 307
38 314
38 321
38 326
38 332
38 337
38 344
38 350
38 355
38 356
38 358
38 359
38 360
38 361
38 362
38 363
38 364
38 365
38 366
38 367
38 368
38 369
38 370
38 371
38 372
38 373
38 374
38 385
38 386
38 397
38 400
38 404
38 406
38 407
38 408
38 409
38 410
38 411
38 412
38 413
38 416
38 418
38 419
38 420
38 421
38 422
38 423
38 424
38 425
38 428
38 435
38 444
38 452
38 457
38 462
38 466
38 467
38 470
38 472
38 474
38 475
38 477
38 479
38 480
38 481
38 482
38 483
38 484
38 485
38 486
38 499
38 520
38 538
38 539
38 552
38 553
38 564
38 572
38 574
38 577
38 578
38 582
38 597
39 40
39 41
39 42
39 43
39 44
39 45
39 46
39 54
39 55
39 56
39 57
39 58
39 59
39 60
39 61
39 63
39 64
39 65
39 66
39 67
39 68
39 69
39 70
39 71
39 72
39 73
39 74
39 75
39 76
39 77
39 78
39 79
39 80
39 81
39 82
39 83
39 84
39 85
39 86
39 87
39 88
39 89
39 90
39 91
39 92
39 93
39 94
39 95
39 96
39 97
39 98
39 99
39 100
39 101
39 102
39 103
39 104
39 105
39 106
39 125
39 129
39 133
39 134
39 135
39 144
39 145
39 152
39 159
39 164
39 168
39 174
39 189
39 190
39 191
39 192
39 194
39 195
39 196
39 197
39 198
39 199
39 200
39 201
39 202
39 203
39 204
39 205
39 206
39 213
39 215
39 217
39 218
39 220
39 221
39 222
39 223
39 224
39 225
39 226
39 236
39 240
39 241
39 243
39 244
39 245
39 246
39 247
39 248
39 249
39 250
39 251
39 252
39 254
39 255
39 256
39 257
39 258
39 259
39 260
39 267
39 284
39 285
39 287
39 288
39 289
39 290
39 291
39 292
39 293
39 297
39 307
39 314
39 321
39 326
39 332
39 337
39 344
39 350
39 355
39 356
39 357
39 358
39 359
39 361
39 362
39 363
39 364
39 365
39 366
39 367
39 368
39 369
39 370
39 371
39 372
39 373
39 374
39 385
39 386
39 397
39 400
39 404
39 405
39 407
39 408
39 409
39 410
39 411
39 412
39 413
39 416
39 417
39 419
39 420
39 421
39 422
39 423
39 424
39 425
39 428
39 435
39 444
39 452
39 457
39 462
39 466
39 467
39 470
39 472
39 474
39 475
39 477
39 478
39 479
39 480
39 481
39 482
39 483
39 484
39 485
39 499
39 520
39 538
39 539
39 552
39 553
39 564
39 572
39 574
39 577
39 578
39 582
39 597
40 41
40 42
40 43
40 44
40 45
40 46
40 54
40 55
40 56
40 57
40 58
40 59
40 60
40 61
40 62
40 63
40 65
40 66
40 67
40 68
40 69
40 70
40 71
40 72
40 73
40 74
40 75
40 76
40 77
40 78
40 79
40 80
40 81
40 82
40 83
40 84
40 85
40 86
40 87
40 88
40 89
40 90
40 91
40 92
40 93
40 94
40 95
40 96
40 97
40 98
40 99
40 100
40 101
40 102
40 103
40 104
40 105
40 106
40 125
40 129
40 133
40 134
40 135
40 144
40 145
40 152
40 159
40 164
40 168
40 174
40 189
40 190
40 191
40 192
40 193
40 195
40 196
40 197
40 198
40 199
40 200
40 201
40 202
40 203
40 204
40 205
40 206
40 213
40 215
40 217
40 218
40 219
40 221
40 222
40 223
40 224
40 225
40 226
40 236
40 240
40 241
40 242
40 244
40 245
40 246
40 247
40 248
40 249
40 250
40 251
40 252
40 253
40 255
40 256
40 257
40 258
40 259
40 260
40 267
40 284
40 285
40 286
40 288
40 289
40 290
40 291
40 292
40 293
40 297
40 307
40 314
40 321
40 326
40 332
40 337
40 344
40 350
40 355
40 356
40 357
40 358
40 359
40 360
40 362
40 363
40 364
40 365
40 366
40 367
40 368
40 369
40 370
40 371
40 372
40 373
40 374
40 385
40 386
40 397
40 400
40 404
40 405
40 406
40 407
40 408
40 409
40 410
40 411
40 412
40 416
40 417
40 418
40 420
40 421
40 422
40 423
40 424
40 425
40 428
40 435
40 444
40 452
40 457
40 462
40 466
40 467
40 470
40 472
40 474
40 475
40 477
40 478
40 480
40 481
40 482
40 483
40 484
40 485
40 486
40 499
40 520
40 538
40 539
40 552
40 553
40 564
40 572
40 574
40 577
40 578
40 582
40 597
41 42
41 43
41 44
41 45
41 46
41 54
41 55
41 56
41 57
41 58
41 59
41 60
41 61
41 62
41 63
41 64
41 65
41 66
41 67
41 68
41 69
41 70
41 71
41 72
41 73
41 74
41 76
41 77
41 78
41 79
41 80
41 81
41 82
41 83
41 84
41 85
41 86
41 87
41 88
41 89
41 90
41 91
41 92
41 93
41 94
41 95
41 96
41 97
41 98
41 99
41 100
41 101
41 102
41 103
41 104
41 105
41 106
41 125
41 129
41 133
41 134
41 135
41 144
41 145
41 152
41 159
41 164
41 168
41 174
41 189
41 190
41 191
41 192
41 193
41 194
41 195
41 197
41 198
41 199
41 200
41 201
41 202
41 203
41 204
41 205
41 206
41 213
41 215
41 217
41 218
41 219
41 220
41 222
41 223
41 224
41 225
41 226
41 236
41 240
41 241
41 242
41 243
41 245
41 246
41 247
41 248
41 249
41 250
41 251
41 252
41 253
41 254
41 256
41 257
41 258
41 259
41 260
41 267
41 284
41 285
41 286
41 287
41 289
41 290
41 291
41 292
41 293
41 297
41 307
41 314
41 321
41 326
41 332
41 337
41 344
41 350
41 355
41 356
41 357
41 358
41 359
41 360
41 361
41 362
41 364
41 365
41 366
41 367
41 368
41 369
41 370
41 371
41 372
41 373
41 374
41 385
41 386
41 397
41 400
41 404
41 405
41 406
41 408
41 409
41 410
41 411
41 412
41 413
41 416
41 417
41 418
41 419
41 420
41 421
41 422
41 423
41 424
41 428
41 435
41 444
41 452
41 457
41 462
41 466
41 467
41 470
41 472
41 474
41 475
41 477
41 478
41 479
41 481
41 482
41 483
41 484
41 485
41 486
41 499
41 520
41 538
41 539
41 552
41 553
41 564
41 572
41 574
41 577
41 578
41 582
41 597
42 43
42 44
42 45
42 46
42 54
42 55
42 56
42 57
42 58
42 59
42 60
42 61
42 62
42 63
42 64
42 65
42 66
42 67
42 68
42 69
42 70
42 71
42 72
42 73
42 74
42 75
42 76
42 78
42 79
42 80
42 81
42 82
42 83
42 84
42 85
42 86
42 87
42 88
42 89
42 90
42 91
42 92
42 93
42 94
42 95
42 96
42 97
42 98
42 99
42 100
42 101
42 102
42 103
42 104
42 105
42 106
42 125
42 129
42 133
42 134
42 135
42 144
42 145
42 152
42 159
42 164
42 168
42 174
42 189
42 190
42 191
42 192
42 193
42 194
42 195
42 196
42 198
42 199
42 200
42 201
42 202
42 203
42 204
42 205
42 206
42 213
42 215
42 217
42 218
42 219
42 220
42 221
42 222
42 223
42 224
42 225
42 236
42 240
42 241
42 242
42 243
42 244
42 246
42 247
42 248
42 249
42 250
42 251
42 252
42 253
42 254
42 255
42 257
42 258
42 259
42 260
42 267
42 284
42 285
42 286
42 287
42 288
42 290
42 291
42 292
42 293
42 297
42 307
42 314
42 321
42 326
42 332
42 337
42 344
42 350
42 355
42 356
42 357
42 358
42 359
42 360
42 361
42 362
42 363
42 365
42 366
42 367
42 368
42 369
42 370
42 371
42 372
42 373
42 374
42 385
42 386
42 397
42 400
42 404
42 405
42 406
42 407
42 409
42 410
42 411
42 412
42 413
42 416
42 417
42 418
42 419
42 421
42 422
42 423
42 424
42 425
42 428
42 435
42 444
42 452
42 457
42 462
42 466
42 467
42 470
42 472
42 474
42 475
42 477
42 478
42 479
42 480
42 482
42 483
42 484
42 485
42 486
42 499
42 520
42 538
42 539
42 552
42 553
42 564
42 572
42 574
42 577
42 578
42 582
42 597
43 44
43 45
43 46
43 54
43 55
43 56
43 57
43 58
43 59
43 60
43 61
43 62
43 63
43 64
43 65
43 66
43 67
43 68
43 69
43 70
43 71
43 72
43 73
43 74
43 75
43 76
43 77
43 78
43 79
43 80
43 81
43 82
43 84
43 85
43 86
43 87
43 88
43 89
43 90
43 91
43 92
43 93
43 94
43 95
43 96
43 97
43 98
43 99
43 100
43 101
43 102
43 103
43 104
43 105
43 106
43 125
43 129
43 133
43 134
43 135
43 144
43 145
43 152
43 159
43 164
43 168
43 174
43 189
43 190
43 191
43 192
43 193
43 194
43 195
43 196
43 197
43 199
43 200
43 201
43 202
43 203
43 204
43 205
43 206
43 213
43 215
43 217
43 218
43 219
43 220
43 221
43 223
43 224
43 225
43 226
43 236
43 240
43 241
43 242
43 243
43 244
43 245
43 247
43 248
43 249
43 250
43 251
43 252
43 253
43 254
43 255
43 256
43 257
43 258
43 259
43 267
43 284
43 285
43 286
43 287
43 288
43 289
43 291
43 292
43 293
43 297
43 307
43 314
43 321
43 326
43 332
43 337
43 344
43 350
43 355
43 356
43 357
43 358
43 359
43 360
43 361
43 362
43 363
43 364
43 365
43 366
43 368
43 369
43 370
43 371
43 372
43 373
43 374
43 385
43 386
43 397
43 400
43 404
43 405
43 406
43 407
43 408
43 410
43 411
43 412
43 413
43 416
43 417
43 418
43 419
43 420
43 422
43 423
43 424
43 425
43 428
43 435
43 444
43 452
43 457
43 462
43 466
43 467
43 470
43 472
43 474
43 475
43 477
43 478
43 479
43 480
43 481
43 483
43 484
43 485
43 486
43 499
43 520
43 538
43 539
43 552
43 553
43 564
43 572
43 574
43 577
43 578
43 582
43 597
44 45
44 46
44 54
44 55
44 56
44 57
44 58
44 59
44 60
44 61
44 62
44 63
44 64
44 65
44 66
44 67
44 68
44 69
44 70
44 71
44 72
44 73
44 74
44 75
44 76
44 77
44 78
44 79
44 80
44 81
44 82
44 83
44 84
44 85
44 86
44 87
44 88
44 90
44 91
44 92
44 93
44 94
44 95
44 96
44 97
44 98
44 99
44 100
44 101
44 102
44 103
44 104
44 105
44 106
44 125
44 129
44 130
44 131
44 132
44 134
44 135
44 136
44 137
44 138
44 139
44 140
44 141
44 142
44 143
44 145
44 146
44 147
44 148
44 149
44 150
44 152
44 159
44 164
44 168
44 174
44 189
44 190
44 191
44 192
44 193
44 194
44 195
44 196
44 197
44 198
44 199
44 201
44 202
44 203
44 204
44 205
44 206
44 213
44 215
44 217
44 218
44 219
44 220
44 221
44 222
44 224
44 225
44 226
44 236
44 240
44 241
44 242
44 243
44 244
44 245
44 246
44 248
44 249
44 250
44 251
44 252
44 253
44 254
44 255
44 256
44 258
44 259
44 260
44 267
44 284
44 285
44 286
44 287
44 288
44 289
44 290
44 292
44 293
44 297
44 307
44 314
44 321
44 326
44 332
44 337
44 344
44 350
44 355
44 357
44 360
44 361
44 363
44 364
44 367
44 369
44 370
44 375
44 385
44 386
44 387
44 388
44 389
44 390
44 391
44 392
44 393
44 394
44 395
44 396
44 398
44 399
44 400
44 401
44 402
44 403
44 404
44 405
44 406
44 407
44 408
44 409
44 411
44 412
44 413
44 416
44 417
44 418
44 419
44 420
44 421
44 423
44 424
44 425
44 428
44 435
44 444
44 452
44 457
44 462
44 463
44 464
44 465
44 467
44 470
44 472
44 473
44 475
44 476
44 477
44 478
44 479
44 480
44 481
44 482
44 484
44 485
44 486
44 499
44 520
44 538
44 539
44 540
44 541
44 542
44 543
44 544
44 545
44 546
44 547
44 548
44 549
44 550
44 551
44 553
44 554
44 555
44 556
44 557
44 558
44 559
44 560
44 561
44 562
44 563
44 564
44 565
44 566
44 567
44 568
44 569
44 570
44 571
44 573
44 574
44 578
44 582
44 597
45 46
45 54
45 55
45 56
45 57
45 58
45 59
45 60
45 61
45 62
45 63
45 64
45 65
45 66
45 67
45 68
45 69
45 70
45 71
45 72
45 73
45 74
45 75
45 76
45 77
45 78
45 79
45 80
45 81
45 82
45 83
45 84
45 85
45 86
45 87
45 88
45 89
45 91
45 92
45 93
45 94
45 95
45 96
45 97
45 98
45 99
45 100
45 101
45 102
45 103
45 104
45 105
45 106
45 125
45 129
45 133
45 134
45 135
45 144
45 145
45 152
45 159
45 164
45 168
45 174
45 189
45 190
45 191
45 192
45 193
45 194
45 195
45 196
45 197
45 198
45 199
45 200
45 202
45 203
45 204
45 205
45 206
45 213
45 215
45 217
45 218
45 219
45 220
45 221
45 222
45 223
45 225
45 226
45 236
45 240
45 241
45 242
45 243
45 244
45 245
45 246
45 247
45 249
45 250
45 251
45 252
45 253
45 254
45 255
45 256
45 257
45 259
45 260
45 267
45 284
45 285
45 286
45 287
45 288
45 289
45 290
45 291
45 292
45 297
45 307
45 314
45 321
45 326
45 332
45 337
45 344
45 350
45 355
45 356
45 357
45 358
45 359
45 360
45 361
45 362
45 363
45 364
45 365
45 366
45 367
45 368
45 370
45 371
45 372
45 373
45 374
45 385
45 386
45 397
45 400
45 404
45 405
45 406
45 407
45 408
45 409
45 410
45 412
45 413
45 416
45 417
45 418
45 419
45 420
45 421
45 422
45 424
45 425
45 428
45 435
45 444
45 452
45 457
45 462
45 466
45 467
45 470
45 472
45 474
45 475
45 477
45 478
45 479
45 480
45 481
45 482
45 483
45 485
45 486
45 499
45 520
45 538
45 539
45 552
45 553
45 564
45 572
45 574
45 577
45 578
45 582
45 597
46 54
46 58
46 62
46 64
46 75
46 77
46 83
46 89
46 90
46 120
46 121
46 122
46 123
46 124
46 126
46 127
46 128
46 129
46 130
46 131
46 132
46 133
46 135
46 136
46 137
46 138
46 139
46 140
46 141
46 142
46 143
46 144
46 146
46 147
46 148
46 149
46 150
46 151
46 153
46 154
46 155
46 156
46 157
46 158
46 160
46 161
46 162
46 163
46 164
46 167
46 169
46 170
46 171
46 172
46 173
46 175
46 176
46 177
46 178
46 189
46 190
46 191
46 192
46 193
46 194
46 195
46 196
46 197
46 198
46 199
46 200
46 201
46 203
46 204
46 205
46 206
46 207
46 208
46 209
46 210
46 211
46 212
46 214
46 216
46 217
46 218
46 219
46 220
46 221
46 222
46 223
46 224
46 226
46 227
46 228
46 229
46 230
46 231
46 232
46 233
46 234
46 235
46 237
46 238
46 239
46 241
46 242
46 243
46 244
46 245
46 246
46 247
46 248
46 250
46 251
46 252
46 253
46 254
46 255
46 256
46 257
46 258
46 260
46 261
46 262
46 263
46 264
46 265
46 266
46 268
46 284
46 285
46 286
46 287
46 288
46 289
46 290
46 291
46 293
46 294
46 295
46 296
46 298
46 299
46 300
46 301
46 302
46 303
46 304
46 305
46 306
46 308
46 309
46 310
46 311
46 312
46 313
46 315
46 316
46 317
46 318
46 319
46 320
46 322
46 323
46 324
46 325
46 327
46 328
46 329
46 330
46 331
46 333
46 334
46 335
46 336
46 338
46 339
46 340
46 341
46 342
46 343
46 345
46 346
46 347
46 348
46 349
46 351
46 352
46 353
46 354
46 355
46 356
46 357
46 358
46 359
46 360
46 361
46 362
46 363
46 364
46 365
46 366
46 367
46 368
46 369
46 371
46 372
46 373
46 374
46 376
46 377
46 378
46 379
46 380
46 381
46 382
46 383
46 384
46 386
46 387
46 388
46 389
46 390
46 391
46 392
46 393
46 394
46 395
46 396
46 397
46 398
46 399
46 401
46 402
46 403
46 404
46 405
46 406
46 407
46 408
46 409
46 410
46 411
46 413
46 416
46 417
46 418
46 419
46 420
46 421
46 422
46 423
46 425
46 426
46 427
46 429
46 430
46 431
46 432
46 433
46 434
46 436
46 437
46 438
46 439
46 440
46 441
46 442
46 443
46 445
46 446
46 449
46 450
46 451
46 453
46 454
46 455
46 456
46 458
46 459
46 460
46 461
46 462
46 463
46 464
46 465
46 466
46 468
46 469
46 472
46 473
46 474
46 476
46 477
46 478
46 479
46 480
46 481
46 482
46 483
46 484
46 486
46 488
46 489
46 490
46 491
46 492
46 493
46 494
46 495
46 496
46 497
46 498
46 500
46 501
46 502
46 503
46 504
46 505
46 506
46 507
46 508
46 509
46 510
46 511
46 512
46 513
46 514
46 515
46 516
46 517
46 518
46 519
46 521
46 522
46 523
46 524
46 525
46 526
46 527
46 531
46 532
46 533
46 534
46 535
46 536
46 537
46 539
46 540
46 541
46 542
46 543
46 544
46 545
46 546
46 547
46 548
46 549
46 550
46 551
46 552
46 554
46 555
46 556
46 557
46 558
46 559
46 560
46 561
46 562
46 563
46 564
46 565
46 566
46 567
46 568
46 569
46 570
46 571
46 572
46 573
46 577
46 579
46 580
46 581
46 583
46 584
46 585
46 586
46 587
46 588
46 589
46 590
46 591
46 592
46 593
46 594
46 595
46 596
46 598
47 48
47 49
47 50
47 51
47 52
47 53
47 54
47 55
47 56
47 57
47 58
47 59
47 61
47 62
47 63
47 64
47 65
47 66
47 67
47 68
47 69
47 70
47 71
47 72
47 73
47 74
47 75
47 76
47 77
47 78
47 79
47 80
47 81
47 82
47 83
47 84
47 85
47 86
47 87
47 88
47 89
47 90
47 91
47 92
47 93
47 94
47 95
47 96
47 97
47 98
47 99
47 100
47 101
47 102
47 103
47 104
47 105
47 106
47 113
47 115
47 116
47 117
47 118
47 119
47 129
47 130
47 132
47 133
47 134
47 135
47 136
47 138
47 139
47 140
47 141
47 142
47 143
47 144
47 145
47 146
47 147
47 148
47 149
47 150
47 189
47 190
47 192
47 193
47 194
47 195
47 196
47 197
47 198
47 199
47 200
47 201
47 202
47 203
47 204
47 205
47 206
47 227
47 229
47 230
47 231
47 232
47 233
47 234
47 235
47 236
47 237
47 239
47 240
47 275
47 277
47 278
47 279
47 280
47 281
47 313
47 314
47 324
47 325
47 326
47 355
47 356
47 357
47 359
47 360
47 361
47 362
47 363
47 364
47 365
47 366
47 367
47 368
47 369
47 370
47 371
47 372
47 373
47 376
47 377
47 379
47 380
47 381
47 382
47 383
47 384
47 385
47 391
47 392
47 394
47 395
47 396
47 398
47 449
47 450
47 462
47 464
47 465
47 466
47 467
47 472
47 474
47 475
47 476
47 539
47 540
47 542
47 543
47 544
47 545
47 546
47 547
47 548
47 549
47 550
47 551
47 552
47 553
47 554
47 555
47 556
47 557
47 558
47 559
47 560
47 561
47 562
47 563
47 564
47 565
47 567
47 568
47 569
47 570
47 571
47 572
47 573
47 574
48 49
48 50
48 51
48 52
48 53
48 60
48 68
48 79
48 86
48 91
48 114
48 115
48 116
48 117
48 118
48 119
48 131
48 137
48 139
48 143
48 191
48 199
48 227
48 228
48 230
48 231
48 232
48 233
48 234
48 235
48 236
48 238
48 239
48 275
48 276
48 278
48 279
48 280
48 281
48 312
48 323
48 324
48 358
48 368
48 376
48 377
48 378
48 380
48 381
48 382
48 383
48 384
48 385
48 386
48 387
48 388
48 389
48 390
48 392
48 393
48 394
48 395
48 396
48 397
48 398
48 399
48 400
48 401
48 402
48 403
48 449
48 450
48 463
48 473
48 541
48 564
48 565
48 566
48 568
48 569
48 570
48 571
48 572
48 573
48 574
49 50
49 51
49 52
49 53
49 54
49 55
49 56
49 57
49 58
49 59
49 60
49 61
49 62
49 63
49 64
49 65
49 66
49 67
49 69
49 70
49 71
49 72
49 73
49 74
49 75
49 76
49 77
49 78
49 79
49 80
49 81
49 82
49 83
49 84
49 85
49 86
49 87
49 88
49 89
49 90
49 91
49 92
49 93
49 94
49 95
49 96
49 97
49 98
49 99
49 100
49 101
49 102
49 103
49 104
49 105
49 106
49 113
49 114
49 116
49 117
49 118
49 119
49 131
49 135
49 136
49 137
49 138
49 140
49 141
49 142
49 143
49 144
49 145
49 146
49 147
49 148
49 149
49 150
49 191
49 199
49 228
49 229
49 232
49 233
49 234
49 235
49 238
49 239
49 275
49 276
49 277
49 279
49 280
49 281
49 312
49 323
49 324
49 358
49 368
49 376
49 377
49 378
49 379
49 381
49 382
49 383
49 384
49 385
49 386
49 387
49 388
49 389
49 390
49 391
49 393
49 394
49 395
49 396
49 397
49 398
49 399
49 400
49 401
49 402
49 403
49 450
49 451
49 452
49 463
49 473
49 541
49 564
49 565
49 566
49 567
49 569
49 570
49 571
49 572
49 573
49 574
50 51
50 52
50 53
50 54
50 55
50 56
50 57
50 58
50 59
50 60
50 61
50 62
50 63
50 64
50 65
50 66
50 67
50 68
50 69
50 70
50 71
50 72
50 73
50 74
50 75
50 76
50 77
50 78
50 80
50 81
50 82
50 83
50 84
50 85
50 86
50 87
50 88
50 89
50 90
50 91
50 92
50 93
50 94
50 95
50 96
50 97
50 98
50 99
50 100
50 101
50 102
50 103
50 104
50 105
50 106
50 113
50 114
50 115
50 117
50 118
50 119
50 131
50 137
50 139
50 143
50 191
50 199
50 227
50 228
50 229
50 230
50 231
50 233
50 234
50 235
50 236
50 238
50 239
50 275
50 276
50 277
50 278
50 280
50 281
50 312
50 323
50 324
50 358
50 368
50 376
50 377
50 378
50 379
50 380
50 382
50 383
50 384
50 385
50 386
50 387
50 388
50 389
50 390
50 391
50 392
50 393
50 395
50 396
50 397
50 398
50 399
50 400
50 401
50 402
50 403
50 449
50 451
50 452
50 463
50 473
50 541
50 564
50 565
50 566
50 567
50 568
50 569
50 571
50 572
50 573
50 574
51 52
51 53
51 60
51 68
51 79
51 86
51 91
51 113
51 114
51 115
51 116
51 118
51 119
51 131
51 137
51 139
51 143
51 191
51 199
51 227
51 228
51 229
51 230
51 231
51 232
51 234
51 235
51 236
51 238
51 239
51 276
51 277
51 278
51 279
51 280
51 281
51 312
51 323
51 324
51 358
51 368
51 376
51 377
51 378
51 379
51 380
51 381
51 383
51 384
51 385
51 386
51 387
51 388
51 389
51 390
51 391
51 392
51 393
51 394
51 396
51 397
51 398
51 399
51 400
51 401
51 402
51 403
51 449
51 450
51 463
51 473
51 541
51 564
51 565
51 566
51 567
51 568
51 569
51 570
51 572
51 573
51 574
52 53
52 54
52 55
52 56
52 57
52 58
52 59
52 60
52 61
52 62
52 63
52 64
52 65
52 66
52 67
52 68
52 69
52 70
52 71
52 72
52 73
52 74
52 75
52 76
52 77
52 78
52 79
52 80
52 81
52 82
52 83
52 84
52 85
52 87
52 88
52 89
52 90
52 91
52 92
52 93
52 94
52 95
52 96
52 97
52 98
52 99
52 100
52 101
52 102
52 103
52 104
52 105
52 106
52 113
52 114
52 115
52 116
52 117
52 119
52 131
52 135
52 136
52 137
52 138
52 139
52 140
52 141
52 142
52 144
52 145
52 146
52 147
52 148
52 149
52 150
52 189
52 190
52 191
52 192
52 193
52 194
52 195
52 196
52 197
52 198
52 200
52 201
52 202
52 203
52 204
52 205
52 206
52 227
52 228
52 229
52 230
52 231
52 232
52 233
52 235
52 236
52 238
52 239
52 275
52 276
52 277
52 278
52 279
52 281
52 312
52 323
52 324
52 355
52 356
52 357
52 358
52 359
52 360
52 361
52 362
52 363
52 364
52 365
52 366
52 367
52 369
52 370
52 371
52 372
52 373
52 376
52 377
52 378
52 379
52 380
52 381
52 382
52 384
52 385
52 386
52 387
52 388
52 389
52 390
52 391
52 392
52 393
52 394
52 395
52 397
52 398
52 399
52 400
52 401
52 402
52 403
52 449
52 450
52 463
52 473
52 541
52 566
52 567
52 568
52 570
52 571
52 573
53 54
53 55
53 56
53 57
53 58
53 59
53 60
53 61
53 62
53 63
53 64
53 65
53 66
53 67
53 68
53 69
53 70
53 71
53 72
53 73
53 74
53 75
53 76
53 77
53 78
53 79
53 80
53 81
53 82
53 83
53 84
53 85
53 86
53 87
53 88
53 89
53 90
53 92
53 93
53 94
53 95
53 96
53 97
53 98
53 99
53 100
53 101
53 102
53 103
53 104
53 105
53 106
53 113
53 114
53 115
53 116
53 117
53 118
53 131
53 137
53 139
53 143
53 191
53 199
53 227
53 228
53 229
53 230
53 231
53 232
53 233
53 234
53 236
53 237
53 238
53 240
53 275
53 276
53 277
53 278
53 279
53 280
53 312
53 323
53 325
53 326
53 358
53 368
53 378
53 379
53 380
53 381
53 382
53 383
53 386
53 387
53 388
53 389
53 390
53 391
53 392
53 393
53 394
53 395
53 396
53 397
53 399
53 400
53 401
53 402
53 403
53 449
53 450
53 463
53 473
53 541
53 564
53 565
53 566
53 567
53 568
53 569
53 570
53 571
53 572
53 574
54 55
54 56
54 57
54 58
54 59
54 60
54 61
54 62
54 63
54 64
54 65
54 66
54 67
54 68
54 69
54 70
54 71
54 72
54 73
54 74
54 75
54 76
54 77
54 78
54 79
54 80
54 81
54 82
54 83
54 84
54 85
54 86
54 87
54 88
54 89
54 90
54 91
54 92
54 93
54 94
54 95
54 96
54 97
54 98
54 99
54 100
54 101
54 102
54 103
54 104
54 105
54 106
54 108
54 109
54 111
54 114
54 115
54 116
54 118
54 119
54 120
54 121
54 122
54 124
54 126
54 127
54 128
54 130
54 131
54 132
54 133
54 134
54 136
54 137
54 138
54 139
54 140
54 141
54 142
54 143
54 144
54 145
54 146
54 147
54 148
54 149
54 150
54 151
54 153
54 154
54 155
54 156
54 157
54 160
54 161
54 162
54 163
54 165
54 166
54 167
54 169
54 170
54 171
54 172
54 173
54 175
54 176
54 177
54 178
54 179
54 180
54 181
54 182
54 183
54 185
54 186
54 187
54 189
54 190
54 191
54 192
54 193
54 194
54 195
54 196
54 197
54 198
54 199
54 200
54 201
54 203
54 205
54 206
54 207
54 208
54 209
54 210
54 211
54 212
54 214
54 216
54 218
54 219
54 220
54 221
54 222
54 223
54 224
54 225
54 226
54 228
54 230
54 231
54 232
54 234
54 235
54 237
54 238
54 239
54 242
54 243
54 244
54 245
54 246
54 247
54 248
54 249
54 250
54 252
54 253
54 254
54 255
54 256
54 257
54 258
54 259
54 260
54 261
54 262
54 263
54 264
54 265
54 266
54 268
54 269
54 270
54 271
54 274
54 276
54 278
54 279
54 280
54 281
54 282
54 285
54 286
54 287
54 288
54 289
54 290
54 291
54 292
54 293
54 294
54 295
54 296
54 298
54 299
54 300
54 301
54 302
54 303
54 304
54 305
54 306
54 308
54 309
54 310
54 311
54 312
54 313
54 315
54 316
54 317
54 318
54 319
54 320
54 322
54 323
54 324
54 325
54 327
54 328
54 330
54 333
54 334
54 336
54 338
54 339
54 340
54 341
54 342
54 343
54 345
54 346
54 347
54 349
54 351
54 352
54 353
54 354
54 356
54 357
54 358
54 359
54 360
54 361
54 362
54 363
54 364
54 365
54 366
54 367
54 368
54 369
54 370
54 371
54 372
54 373
54 374
54 375
54 376
54 378
54 380
54 381
54 383
54 384
54 387
54 388
54 389
54 390
54 391
54 392
54 393
54 394
54 395
54 396
54 397
54 398
54 399
54 400
54 401
54 402
54 403
54 405
54 406
54 407
54 408
54 409
54 410
54 411
54 412
54 413
54 417
54 418
54 419
54 420
54 421
54 422
54 423
54 424
54 425
54 426
54 427
54 429
54 430
54 431
54 432
54 433
54 434
54 436
54 437
54 438
54 439
54 440
54 441
54 442
54 443
54 445
54 446
54 449
54 450
54 451
54 453
54 454
54 455
54 456
54 458
54 459
54 460
54 461
54 463
54 464
54 465
54 466
54 467
54 468
54 469
54 473
54 474
54 475
54 476
54 478
54 479
54 480
54 481
54 482
54 483
54 484
54 485
54 486
54 487
54 488
54 489
54 490
54 491
54 492
54 493
54 494
54 496
54 497
54 500
54 501
54 502
54 503
54 504
54 505
54 506
54 508
54 509
54 510
54 511
54 512
54 513
54 514
54 515
54 517
54 518
54 521
54 522
54 523
54 524
54 525
54 526
54 528
54 531
54 532
54 533
54 534
54 535
54 536
54 537
54 540
54 541
54 542
54 543
54 544
54 545
54 546
54 547
54 548
54 549
54 550
54 551
54 552
54 553
54 554
54 555
54 556
54 557
54 558
54 559
54 560
54 561
54 562
54 563
54 565
54 566
54 567
54 568
54 569
54 570
54 571
54 572
54 573
54 574
54 577
54 579
54 580
54 581
54 583
54 584
54 585
54 586
54 587
54 588
54 589
54 590
54 591
54 592
54 594
54 595
54 596
54 598
55 56
55 57
55 58
55 59
55 60
55 61
55 62
55 63
55 64
55 65
55 66
55 67
55 68
55 69
55 70
55 71
55 72
55 73
55 74
55 75
55 76
55 77
55 78
55 79
55 80
55 81
55 82
55 83
55 84
55 85
55 86
55 87
55 88
55 89
55 90
55 91
55 92
55 93
55 94
55 95
55 96
55 97
55 98
55 99
55 100
55 101
55 102
55 103
55 104
55 105
55 106
55 109
55 110
55 111
55 112
55 114
55 115
55 116
55 118
55 119
55 120
55 121
55 122
55 124
55 126
55 127
55 128
55 129
55 130
55 131
55 132
55 133
55 135
55 136
55 137
55 138
55 139
55 141
55 142
55 143
55 144
55 146
55 149
55 150
55 151
55 153
55 154
55 155
55 156
55 157
55 160
55 161
55 162
55 163
55 164
55 165
55 166
55 167
55 169
55 170
55 171
55 172
55 173
55 175
55 176
55 177
55 178
55 180
55 181
55 182
55 183
55 184
55 185
55 186
55 187
55 188
55 189
55 190
55 191
55 192
55 193
55 194
55 195
55 196
55 197
55 198
55 199
55 200
55 201
55 203
55 205
55 206
55 207
55 208
55 209
55 210
55 211
55 212
55 214
55 216
55 217
55 218
55 219
55 220
55 221
55 222
55 223
55 224
55 226
55 228
55 230
55 231
55 232
55 234
55 235
55 237
55 238
55 239
55 241
55 242
55 243
55 244
55 245
55 246
55 247
55 248
55 250
55 251
55 252
55 253
55 254
55 255
55 256
55 257
55 258
55 260
55 261
55 262
55 263
55 264
55 265
55 266
55 268
55 269
55 271
55 272
55 273
55 274
55 276
55 278
55 279
55 280
55 281
55 282
55 284
55 285
55 286
55 287
55 288
55 289
55 290
55 291
55 293
55 294
55 295
55 296
55 298
55 299
55 300
55 301
55 302
55 303
55 304
55 305
55 306
55 308
55 309
55 310
55 311
55 312
55 313
55 315
55 316
55 317
55 318
55 319
55 320
55 322
55 323
55 324
55 325
55 327
55 328
55 330
55 333
55 334
55 336
55 338
55 339
55 340
55 341
55 342
55 343
55 345
55 346
55 347
55 349
55 351
55 352
55 353
55 354
55 355
55 356
55 357
55 358
55 359
55 360
55 361
55 362
55 363
55 364
55 367
55 368
55 369
55 371
55 372
55 373
55 374
55 375
55 376
55 378
55 380
55 381
55 383
55 384
55 386
55 387
55 388
55 390
55 392
55 393
55 394
55 396
55 397
55 398
55 399
55 401
55 402
55 403
55 404
55 405
55 406
55 407
55 408
55 409
55 410
55 411
55 413
55 416
55 417
55 418
55 419
55 420
55 421
55 422
55 423
55 425
55 426
55 427
55 429
55 430
55 431
55 432
55 433
55 434
55 436
55 438
55 439
55 440
55 441
55 442
55 443
55 444
55 445
55 446
55 449
55 450
55 451
55 453
55 454
55 455
55 456
55 458
55 459
55 460
55 461
55 462
55 463
55 464
55 466
55 468
55 469
55 472
55 473
55 474
55 476
55 477
55 478
55 479
55 480
55 481
55 482
55 483
55 484
55 486
55 487
55 489
55 490
55 491
55 492
55 493
55 494
55 495
55 496
55 497
55 498
55 499
55 500
55 501
55 502
55 503
55 504
55 505
55 506
55 507
55 509
55 510
55 511
55 512
55 513
55 514
55 515
55 516
55 517
55 518
55 519
55 520
55 521
55 522
55 523
55 524
55 525
55 526
55 527
55 528
55 531
55 532
55 533
55 534
55 535
55 536
55 537
55 539
55 541
55 542
55 543
55 544
55 545
55 546
55 547
55 548
55 549
55 550
55 551
55 552
55 553
55 554
55 555
55 556
55 557
55 558
55 559
55 560
55 561
55 562
55 563
55 564
55 566
55 568
55 569
55 570
55 572
55 573
55 577
55 579
55 580
55 581
55 583
55 584
55 585
55 586
55 587
55 588
55 589
55 590
55 591
55 592
55 594
55 595
55 596
55 598
56 57
56 58
56 59
56 60
56 61
56 62
56 63
56 64
56 65
56 66
56 67
56 68
56 69
56 70
56 71
56 72
56 73
56 74
56 75
56 76
56 77
56 78
56 79
56 80
56 81
56 82
56 83
56 84
56 85
56 86
56 87
56 88
56 89
56 90
56 91
56 92
56 93
56 94
56 95
56 96
56 97
56 98
56 99
56 100
56 101
56 102
56 103
56 104
56 105
56 106
56 108
56 109
56 111
56 114
56 115
56 116
56 118
56 119
56 120
56 121
56 122
56 124
56 126
56 127
56 128
56 129
56 130
56 131
56 132
56 133
56 135
56 136
56 137
56 138
56 139
56 141
56 142
56 143
56 144
56 146
56 149
56 150
56 151
56 153
56 154
56 155
56 156
56 157
56 160
56 161
56 162
56 163
56 164
56 165
56 166
56 167
56 169
56 170
56 171
56 172
56 173
56 175
56 176
56 177
56 178
56 179
56 180
56 181
56 182
56 183
56 185
56 186
56 187
56 189
56 190
56 191
56 192
56 193
56 194
56 195
56 196
56 197
56 198
56 199
56 200
56 201
56 203
56 205
56 206
56 207
56 208
56 209
56 210
56 211
56 212
56 214
56 216
56 217
56 218
56 219
56 220
56 221
56 222
56 223
56 224
56 226
56 228
56 230
56 231
56 232
56 234
56 235
56 238
56 239
56 240
56 241
56 242
56 243
56 244
56 245
56 246
56 247
56 248
56 250
56 251
56 252
56 253
56 254
56 255
56 256
56 257
56 258
56 260
56 261
56 262
56 263
56 264
56 265
56 266
56 268
56 269
56 270
56 271
56 274
56 276
56 278
56 279
56 280
56 281
56 282
56 284
56 285
56 286
56 287
56 288
56 289
56 290
56 291
56 293
56 294
56 295
56 296
56 298
56 299
56 300
56 301
56 302
56 303
56 304
56 305
56 306
56 308
56 309
56 310
56 311
56 312
56 313
56 315
56 316
56 317
56 318
56 319
56 320
56 322
56 323
56 324
56 325
56 327
56 328
56 330
56 333
56 334
56 336
56 338
56 339
56 340
56 341
56 342
56 343
56 345
56 346
56 347
56 349
56 351
56 352
56 353
56 354
56 355
56 356
56 357
56 358
56 359
56 360
56 361
56 362
56 363
56 364
56 367
56 368
56 369
56 371
56 372
56 373
56 374
56 375
56 377
56 378
56 379
56 380
56 381
56 382
56 383
56 384
56 385
56 386
56 388
56 389
56 390
56 391
56 392
56 393
56 394
56 395
56 396
56 397
56 398
56 399
56 400
56 401
56 402
56 403
56 404
56 405
56 406
56 407
56 408
56 409
56 410
56 411
56 413
56 416
56 417
56 418
56 419
56 420
56 421
56 422
56 423
56 425
56 426
56 427
56 429
56 430
56 431
56 432
56 433
56 434
56 436
56 437
56 438
56 439
56 440
56 441
56 442
56 443
56 445
56 446
56 449
56 450
56 451
56 453
56 454
56 455
56 456
56 458
56 459
56 460
56 461
56 462
56 463
56 464
56 466
56 468
56 469
56 472
56 473
56 474
56 476
56 477
56 478
56 479
56 480
56 481
56 482
56 483
56 484
56 486
56 487
56 488
56 489
56 490
56 491
56 492
56 493
56 494
56 496
56 497
56 500
56 501
56 502
56 503
56 504
56 505
56 506
56 508
56 509
56 510
56 511
56 512
56 513
56 514
56 515
56 517
56 518
56 521
56 522
56 523
56 524
56 525
56 526
56 528
56 531
56 532
56 533
56 534
56 535
56 536
56 537
56 539
56 540
56 541
56 542
56 543
56 544
56 545
56 547
56 550
56 551
56 552
56 554
56 555
56 556
56 557
56 559
56 560
56 561
56 563
56 564
56 566
56 568
56 569
56 570
56 572
56 573
56 577
56 579
56 580
56 581
56 583
56 584
56 585
56 586
56 587
56 588
56 589
56 590
56 591
56 592
56 594
56 595
56 596
56 598
57 58
57 59
57 60
57 61
57 62
57 63
57 64
57 65
57 66
57 67
57 68
57 69
57 70
57 71
57 72
57 73
57 74
57 75
57 76
57 77
57 78
57 79
57 80
57 81
57 82
57 83
57 84
57 85
57 86
57 87
57 88
57 89
57 90
57 91
57 92
57 93
57 94
57 95
57 96
57 97
57 98
57 99
57 100
57 101
57 102
57 103
57 104
57 105
57 106
57 108
57 109
57 111
57 114
57 115
57 116
57 118
57 119
57 121
57 122
57 123
57 124
57 125
57 126
57 127
57 128
57 129
57 131
57 132
57 133
57 134
57 135
57 137
57 138
57 139
57 140
57 141
57 142
57 143
57 144
57 145
57 146
57 147
57 148
57 149
57 150
57 151
57 153
57 154
57 156
57 157
57 158
57 159
57 160
57 161
57 162
57 163
57 164
57 166
57 167
57 170
57 171
57 172
57 173
57 174
57 175
57 176
57 177
57 178
57 179
57 181
57 182
57 183
57 184
57 185
57 186
57 187
57 188
57 190
57 191
57 192
57 193
57 194
57 195
57 196
57 197
57 198
57 199
57 200
57 201
57 202
57 203
57 204
57 205
57 206
57 207
57 208
57 209
57 210
57 211
57 212
57 214
57 216
57 217
57 218
57 219
57 220
57 221
57 222
57 223
57 224
57 226
57 228
57 230
57 231
57 232
57 234
57 235
57 237
57 238
57 239
57 241
57 242
57 243
57 244
57 245
57 246
57 247
57 248
57 250
57 251
57 252
57 253
57 254
57 255
57 256
57 257
57 258
57 260
57 261
57 262
57 263
57 264
57 265
57 266
57 268
57 269
57 270
57 271
57 274
57 276
57 278
57 279
57 280
57 281
57 283
57 284
57 285
57 286
57 287
57 288
57 289
57 290
57 291
57 293
57 295
57 296
57 297
57 298
57 299
57 300
57 301
57 302
57 304
57 305
57 306
57 307
57 308
57 309
57 310
57 311
57 312
57 313
57 315
57 316
57 317
57 318
57 319
57 320
57 322
57 323
57 324
57 325
57 328
57 329
57 330
57 331
57 332
57 333
57 334
57 335
57 336
57 338
57 339
57 340
57 341
57 342
57 343
57 345
57 347
57 348
57 349
57 350
57 351
57 352
57 353
57 354
57 355
57 357
57 358
57 359
57 360
57 361
57 362
57 363
57 364
57 365
57 366
57 367
57 368
57 369
57 370
57 371
57 372
57 373
57 374
57 375
57 376
57 378
57 380
57 381
57 383
57 384
57 386
57 387
57 389
57 390
57 391
57 392
57 393
57 394
57 395
57 396
57 397
57 398
57 399
57 400
57 401
57 402
57 403
57 404
57 405
57 406
57 407
57 408
57 409
57 410
57 411
57 413
57 416
57 417
57 418
57 419
57 420
57 421
57 422
57 423
57 425
57 426
57 427
57 429
57 430
57 431
57 432
57 433
57 434
57 436
57 437
57 439
57 440
57 441
57 442
57 443
57 444
57 445
57 446
57 449
57 450
57 451
57 454
57 455
57 456
57 457
57 458
57 459
57 460
57 461
57 462
57 463
57 464
57 466
57 468
57 469
57 472
57 473
57 474
57 476
57 477
57 478
57 479
57 480
57 481
57 482
57 483
57 484
57 486
57 487
57 488
57 490
57 491
57 492
57 493
57 494
57 495
57 496
57 497
57 498
57 499
57 500
57 501
57 502
57 503
57 504
57 505
57 506
57 507
57 508
57 510
57 511
57 512
57 513
57 514
57 515
57 516
57 517
57 518
57 519
57 520
57 521
57 522
57 523
57 524
57 525
57 526
57 527
57 529
57 530
57 531
57 532
57 533
57 534
57 535
57 536
57 537
57 539
57 540
57 541
57 542
57 543
57 544
57 545
57 547
57 550
57 551
57 552
57 554
57 555
57 556
57 557
57 559
57 560
57 561
57 563
57 564
57 566
57 568
57 569
57 570
57 572
57 573
57 577
57 580
57 581
57 582
57 583
57 584
57 585
57 586
57 587
57 588
57 589
57 590
57 591
57 592
57 594
57 595
57 596
57 598
58 59
58 60
58 61
58 62
58 63
58 64
58 65
58 66
58 67
58 68
58 69
58 70
58 71
58 72
58 73
58 74
58 75
58 76
58 77
58 78
58 79
58 80
58 81
58 82
58 83
58 84
58 85
58 86
58 87
58 88
58 89
58 90
58 91
58 92
58 93
58 94
58 95
58 96
58 97
58 98
58 99
58 100
58 101
58 102
58 103
58 104
58 105
58 106
58 108
58 109
58 111
58 114
58 115
58 116
58 118
58 119
58 120
58 121
58 122
58 124
58 126
58 127
58 128
58 129
58 130
58 131
58 132
58 133
58 135
58 136
58 137
58 138
58 139
58 141
58 142
58 143
58 144
58 146
58 149
58 150
58 151
58 153
58 154
58 155
58 156
58 157
58 160
58 161
58 162
58 163
58 164
58 165
58 166
58 167
58 169
58 170
58 171
58 172
58 173
58 175
58 176
58 177
58 178
58 179
58 180
58 181
58 182
58 183
58 185
58 186
58 187
58 189
58 191
58 192
58 193
58 194
58 195
58 196
58 197
58 198
58 199
58 200
58 201
58 202
58 203
58 204
58 205
58 206
58 207
58 208
58 209
58 210
58 211
58 212
58 214
58 216
58 217
58 219
58 220
58 221
58 222
58 223
58 224
58 225
58 226
58 228
58 230
58 231
58 232
58 234
58 235
58 237
58 238
58 239
58 241
58 242
58 243
58 244
58 245
58 246
58 247
58 248
58 250
58 251
58 253
58 254
58 255
58 256
58 257
58 258
58 259
58 260
58 261
58 262
58 263
58 264
58 265
58 266
58 268
58 269
58 270
58 271
58 274
58 276
58 278
58 279
58 280
58 281
58 282
58 284
58 286
58 287
58 288
58 289
58 290
58 291
58 292
58 293
58 294
58 295
58 296
58 298
58 299
58 300
58 301
58 302
58 303
58 304
58 305
58 306
58 308
58 309
58 310
58 311
58 312
58 313
58 315
58 316
58 317
58 318
58 319
58 320
58 322
58 323
58 324
58 325
58 327
58 328
58 330
58 333
58 334
58 336
58 338
58 339
58 340
58 341
58 342
58 343
58 345
58 346
58 347
58 349
58 351
58 352
58 353
58 354
58 355
58 356
58 358
58 359
58 360
58 361
58 362
58 363
58 364
58 365
58 366
58 367
58 368
58 369
58 370
58 371
58 372
58 373
58 374
58 375
58 376
58 378
58 380
58 381
58 383
58 384
58 386
58 387
58 388
58 390
58 392
58 393
58 394
58 396
58 397
58 398
58 399
58 401
58 402
58 403
58 404
58 406
58 407
58 408
58 409
58 410
58 411
58 412
58 413
58 416
58 418
58 419
58 420
58 421
58 422
58 423
58 424
58 425
58 426
58 427
58 429
58 430
58 431
58 432
58 433
58 434
58 436
58 437
58 438
58 439
58 440
58 441
58 442
58 443
58 445
58 446
58 449
58 450
58 451
58 453
58 454
58 455
58 456
58 458
58 459
58 460
58 461
58 462
58 463
58 464
58 466
58 468
58 469
58 472
58 473
58 474
58 476
58 477
58 479
58 480
58 481
58 482
58 483
58 484
58 485
58 486
58 487
58 488
58 489
58 490
58 491
58 492
58 493
58 494
58 496
58 497
58 500
58 501
58 502
58 503
58 504
58 505
58 506
58 508
58 509
58 510
58 511
58 512
58 513
58 514
58 515
58 517
58 518
58 521
58 522
58 523
58 524
58 525
58 526
58 528
58 531
58 532
58 533
58 534
58 535
58 536
58 537
58 539
58 540
58 541
58 542
58 543
58 544
58 545
58 547
58 550
58 551
58 552
58 554
58 555
58 556
58 557
58 559
58 560
58 561
58 563
58 564
58 566
58 568
58 569
58 570
58 572
58 573
58 577
58 579
58 580
58 581
58 583
58 584
58 585
58 586
58 587
58 588
58 589
58 590
58 591
58 592
58 594
58 595
58 596
58 598
59 60
59 61
59 62
59 63
59 64
59 65
59 66
59 67
59 68
59 69
59 70
59 71
59 72
59 73
59 74
59 75
59 76
59 77
59 78
59 79
59 80
59 81
59 82
59 83
59 84
59 85
59 86
59 87
59 88
59 89
59 90
59 91
59 92
59 93
59 94
59 95
59 96
59 97
59 98
59 99
59 100
59 101
59 102
59 103
59 104
59 105
59 106
59 108
59 109
59 111
59 114
59 115
59 116
59 118
59 119
59 120
59 121
59 122
59 124
59 126
59 127
59 128
59 129
59 130
59 131
59 132
59 133
59 135
59 136
59 137
59 138
59 139
59 141
59 142
59 143
59 144
59 146
59 149
59 150
59 151
59 153
59 154
59 155
59 156
59 157
59 160
59 161
59 162
59 163
59 164
59 165
59 166
59 167
59 169
59 170
59 171
59 172
59 173
59 175
59 176
59 177
59 178
59 179
59 180
59 181
59 182
59 183
59 185
59 186
59 187
59 189
59 190
59 191
59 192
59 193
59 194
59 195
59 196
59 197
59 198
59 199
59 200
59 201
59 203
59 205
59 206
59 207
59 208
59 209
59 210
59 211
59 212
59 214
59 216
59 217
59 218
59 219
59 220
59 221
59 222
59 223
59 224
59 226
59 228
59 230
59 231
59 232
59 234
59 235
59 237
59 238
59 239
59 241
59 242
59 243
59 244
59 245
59 246
59 247
59 248
59 250
59 251
59 252
59 253
59 254
59 255
59 256
59 257
59 258
59 260
59 262
59 263
59 264
59 265
59 266
59 267
59 268
59 269
59 270
59 271
59 274
59 276
59 278
59 279
59 280
59 281
59 282
59 284
59 285
59 286
59 287
59 288
59 289
59 290
59 291
59 293
59 294
59 295
59 296
59 298
59 299
59 300
59 301
59 302
59 303
59 304
59 305
59 306
59 308
59 309
59 310
59 311
59 312
59 313
59 316
59 317
59 318
59 319
59 320
59 321
59 322
59 323
59 324
59 325
59 327
59 328
59 330
59 333
59 334
59 336
59 339
59 340
59 341
59 342
59 343
59 344
59 345
59 346
59 347
59 349
59 351
59 352
59 353
59 354
59 355
59 356
59 357
59 358
59 359
59 360
59 361
59 362
59 363
59 364
59 367
59 368
59 369
59 371
59 372
59 373
59 374
59 375
59 376
59 378
59 380
59 381
59 383
59 384
59 386
59 387
59 388
59 390
59 392
59 393
59 394
59 396
59 397
59 398
59 399
59 401
59 402
59 403
59 404
59 405
59 406
59 407
59 408
59 409
59 410
59 411
59 413
59 416
59 417
59 418
59 419
59 420
59 421
59 422
59 423
59 425
59 426
59 427
59 430
59 431
59 432
59 433
59 434
59 435
59 436
59 437
59 438
59 439
59 440
59 441
59 442
59 443
59 445
59 446
59 449
59 450
59 451
59 453
59 454
59 455
59 456
59 458
59 459
59 460
59 461
59 462
59 463
59 464
59 466
59 468
59 469
59 472
59 473
59 474
59 476
59 477
59 478
59 479
59 480
59 481
59 482
59 483
59 484
59 486
59 487
59 488
59 489
59 490
59 491
59 492
59 493
59 494
59 496
59 497
59 500
59 501
59 502
59 503
59 504
59 505
59 506
59 508
59 509
59 510
59 511
59 512
59 513
59 514
59 515
59 517
59 518
59 521
59 522
59 523
59 524
59 525
59 526
59 528
59 532
59 533
59 534
59 535
59 536
59 537
59 538
59 539
59 540
59 541
59 542
59 543
59 544
59 545
59 547
59 550
59 551
59 552
59 554
59 555
59 556
59 557
59 559
59 560
59 561
59 563
59 564
59 566
59 568
59 569
59 570
59 572
59 573
59 577
59 579
59 580
59 581
59 583
59 584
59 585
59 586
59 587
59 588
59 590
59 591
59 592
59 593
59 594
59 595
59 596
59 597
59 598
60 61
60 62
60 63
60 64
60 65
60 66
60 67
60 68
60 69
60 70
60 71
60 72
60 73
60 74
60 75
60 76
60 77
60 78
60 79
60 80
60 81
60 82
60 83
60 84
60 85
60 86
60 87
60 88
60 89
60 90
60 91
60 92
60 93
60 94
60 95
60 96
60 97
60 98
60 99
60 100
60 101
60 102
60 103
60 104
60 105
60 106
60 108
60 109
60 111
60 113
60 115
60 116
60 117
60 118
60 119
60 120
60 121
60 122
60 124
60 126
60 127
60 128
60 129
60 130
60 132
60 133
60 134
60 135
60 136
60 138
60 139
60 140
60 141
60 142
60 143
60 144
60 145
60 146
60 147
60 148
60 149
60 150
60 151
60 153
60 154
60 155
60 156
60 157
60 160
60 161
60 162
60 163
60 164
60 165
60 166
60 167
60 169
60 170
60 171
60 172
60 173
60 175
60 176
60 177
60 178
60 179
60 180
60 181
60 182
60 183
60 185
60 186
60 187
60 189
60 190
60 192
60 193
60 194
60 195
60 196
60 197
60 198
60 199
60 200
60 201
60 202
60 203
60 204
60 205
60 206
60 207
60 208
60 209
60 210
60 211
60 212
60 214
60 216
60 217
60 218
60 219
60 220
60 221
60 222
60 223
60 224
60 226
60 227
60 229
60 230
60 231
60 232
60 233
60 234
60 235
60 236
60 237
60 239
60 240
60 241
60 242
60 243
60 244
60 245
60 246
60 247
60 248
60 250
60 251
60 252
60 253
60 254
60 255
60 256
60 257
60 258
60 260
60 261
60 262
60 263
60 264
60 265
60 266
60 268
60 269
60 270
60 271
60 274
60 275
60 277
60 278
60 279
60 280
60 281
60 282
60 284
60 285
60 286
60 287
60 288
60 289
60 290
60 291
60 293
60 294
60 295
60 296
60 298
60 299
60 300
60 301
60 302
60 303
60 304
60 305
60 306
60 308
60 309
60 310
60 311
60 313
60 314
60 315
60 316
60 317
60 318
60 319
60 320
60 322
60 324
60 325
60 326
60 327
60 328
60 330
60 333
60 334
60 336
60 338
60 339
60 340
60 341
60 342
60 343
60 345
60 346
60 347
60 349
60 351
60 352
60 353
60 354
60 355
60 356
60 357
60 359
60 360
60 361
60 362
60 363
60 364
60 365
60 366
60 367
60 368
60 369
60 370
60 371
60 372
60 373
60 374
60 375
60 376
60 377
60 379
60 380
60 381
60 382
60 383
60 384
60 385
60 386
60 387
60 388
60 390
60 392
60 393
60 394
60 396
60 397
60 398
60 399
60 401
60 402
60 403
60 404
60 405
60 406
60 407
60 408
60 409
60 410
60 411
60 413
60 416
60 417
60 418
60 419
60 420
60 421
60 422
60 423
60 425
60 426
60 427
60 429
60 430
60 431
60 432
60 433
60 434
60 436
60 437
60 438
60 439
60 440
60 441
60 442
60 443
60 445
60 446
60 449
60 450
60 451
60 453
60 454
60 455
60 456
60 458
60 459
60 460
60 461
60 462
60 464
60 465
60 466
60 467
60 468
60 469
60 472
60 474
60 475
60 476
60 477
60 478
60 479
60 480
60 481
60 482
60 483
60 484
60 486
60 487
60 488
60 489
60 490
60 491
60 492
60 493
60 494
60 496
60 497
60 500
60 501
60 502
60 503
60 504
60 505
60 506
60 508
60 509
60 510
60 511
60 512
60 513
60 514
60 515
60 517
60 518
60 521
60 522
60 523
60 524
60 525
60 526
60 528
60 531
60 532
60 533
60 534
60 535
60 536
60 537
60 539
60 540
60 542
60 543
60 544
60 545
60 546
60 547
60 548
60 549
60 550
60 551
60 552
60 553
60 554
60 555
60 556
60 557
60 558
60 559
60 560
60 561
60 562
60 563
60 564
60 565
60 567
60 568
60 569
60 570
60 571
60 572
60 573
60 574
60 577
60 579
60 580
60 581
60 583
60 584
60 585
60 586
60 587
60 588
60 589
60 590
60 591
60 592
60 594
60 595
60 596
60 598
61 62
61 63
61 64
61 65
61 66
61 67
61 68
61 69
61 70
61 71
61 72
61 73
61 74
61 75
61 76
61 77
61 78
61 79
61 80
61 81
61 82
61 83
61 84
61 85
61 86
61 87
61 88
61 89
61 90
61 91
61 92
61 93
61 94
61 95
61 96
61 97
61 98
61 99
61 100
61 101
61 102
61 103
61 104
61 105
61 106
61 108
61 109
61 111
61 114
61 115
61 116
61 118
61 119
61 120
61 121
61 122
61 124
61 126
61 127
61 128
61 129
61 130
61 131
61 132
61 133
61 135
61 136
61 137
61 138
61 139
61 141
61 142
61 143
61 144
61 146
61 149
61 150
61 151
61 153
61 154
61 155
61 156
61 157
61 160
61 161
61 162
61 163
61 164
61 165
61 166
61 167
61 169
61 170
61 171
61 172
61 173
61 175
61 176
61 177
61 178
61 179
61 180
61 181
61 182
61 183
61 185
61 186
61 187
61 189
61 190
61 191
61 193
61 194
61 195
61 196
61 197
61 198
61 199
61 200
61 201
61 202
61 203
61 204
61 205
61 206
61 207
61 208
61 209
61 210
61 211
61 212
61 214
61 216
61 217
61 218
61 219
61 220
61 221
61 222
61 223
61 224
61 226
61 228
61 230
61 231
61 232
61 234
61 235
61 237
61 238
61 239
61 241
61 242
61 243
61 244
61 245
61 246
61 247
61 248
61 250
61 251
61 252
61 253
61 254
61 255
61 256
61 257
61 258
61 260
61 261
61 262
61 263
61 264
61 265
61 266
61 268
61 269
61 270
61 271
61 274
61 276
61 278
61 279
61 280
61 281
61 282
61 284
61 285
61 286
61 287
61 288
61 289
61 290
61 291
61 293
61 294
61 295
61 296
61 298
61 299
61 300
61 301
61 302
61 303
61 304
61 305
61 306
61 308
61 309
61 310
61 311
61 312
61 313
61 315
61 316
61 317
61 318
61 319
61 320
61 322
61 323
61 324
61 325
61 327
61 328
61 330
61 333
61 334
61 336
61 338
61 339
61 340
61 341
61 342
61 343
61 345
61 346
61 347
61 349
61 351
61 352
61 353
61 354
61 355
61 356
61 357
61 358
61 360
61 361
61 362
61 363
61 364
61 365
61 366
61 367
61 368
61 369
61 370
61 371
61 372
61 373
61 374
61 375
61 376
61 378
61 380
61 381
61 383
61 384
61 386
61 387
61 388
61 389
61 391
61 392
61 393
61 394
61 395
61 396
61 397
61 398
61 399
61 400
61 401
61 402
61 403
61 404
61 405
61 406
61 407
61 408
61 409
61 410
61 411
61 413
61 416
61 417
61 418
61 419
61 420
61 421
61 422
61 423
61 425
61 426
61 427
61 429
61 430
61 431
61 432
61 433
61 434
61 436
61 437
61 438
61 439
61 440
61 441
61 442
61 443
61 445
61 446
61 449
61 450
61 451
61 453
61 454
61 455
61 456
61 458
61 459
61 460
61 461
61 462
61 463
61 465
61 466
61 467
61 468
61 469
61 472
61 473
61 474
61 476
61 477
61 478
61 479
61 480
61 481
61 482
61 483
61 484
61 486
61 487
61 488
61 489
61 490
61 491
61 492
61 493
61 494
61 496
61 497
61 500
61 501
61 502
61 503
61 504
61 505
61 506
61 508
61 509
61 510
61 511
61 512
61 513
61 514
61 515
61 517
61 518
61 521
61 522
61 523
61 524
61 525
61 526
61 528
61 531
61 532
61 533
61 534
61 535
61 536
61 537
61 539
61 540
61 541
61 542
61 543
61 544
61 545
61 547
61 550
61 551
61 552
61 554
61 555
61 556
61 557
61 559
61 560
61 561
61 563
61 564
61 566
61 568
61 569
61 570
61 572
61 573
61 577
61 579
61 580
61 581
61 583
61 584
61 585
61 586
61 587
61 588
61 589
61 590
61 591
61 592
61 594
61 595
61 596
61 598
62 63
62 64
62 65
62 66
62 67
62 68
62 69
62 70
62 71
62 72
62 73
62 74
62 75
62 76
62 77
62 78
62 79
62 80
62 81
62 82
62 83
62 84
62 85
62 86
62 87
62 88
62 89
62 90
62 91
62 92
62 93
62 94
62 95
62 96
62 97
62 98
62 99
62 100
62 101
62 102
62 103
62 104
62 105
62 106
62 108
62 109
62 111
62 114
62 115
62 116
62 118
62 119
62 120
62 121
62 122
62 124
62 126
62 127
62 128
62 129
62 130
62 131
62 132
62 133
62 135
62 136
62 137
62 138
62 139
62 141
62 142
62 143
62 144
62 146
62 149
62 150
62 151
62 153
62 154
62 155
62 156
62 157
62 160
62 161
62 162
62 163
62 164
62 165
62 166
62 167
62 169
62 170
62 171
62 172
62 173
62 175
62 176
62 177
62 178
62 179
62 180
62 181
62 182
62 183
62 185
62 186
62 187
62 189
62 190
62 191
62 192
62 194
62 195
62 196
62 197
62 198
62 199
62 200
62 201
62 202
62 203
62 204
62 205
62 206
62 207
62 208
62 209
62 210
62 211
62 212
62 214
62 216
62 217
62 218
62 220
62 221
62 222
62 223
62 224
62 225
62 226
62 228
62 230
62 231
62 232
62 234
62 235
62 237
62 238
62 239
62 241
62 243
62 244
62 245
62 246
62 247
62 248
62 249
62 250
62 251
62 252
62 254
62 255
62 256
62 257
62 258
62 259
62 260
62 261
62 262
62 263
62 264
62 265
62 266
62 268
62 269
62 270
62 271
62 274
62 276
62 278
62 279
62 280
62 281
62 282
62 284
62 285
62 287
62 288
62 289
62 290
62 291
62 292
62 293
62 294
62 295
62 296
62 298
62 299
62 300
62 301
62 302
62 303
62 304
62 305
62 306
62 308
62 309
62 310
62 311
62 312
62 313
62 315
62 316
62 317
62 318
62 319
62 320
62 322
62 323
62 324
62 325
62 327
62 328
62 330
62 333
62 334
62 336
62 338
62 339
62 340
62 341
62 342
62 343
62 345
62 346
62 347
62 349
62 351
62 352
62 353
62 354
62 355
62 356
62 357
62 358
62 359
62 361
62 362
62 363
62 364
62 365
62 366
62 367
62 368
62 369
62 370
62 371
62 372
62 373
62 374
62 375
62 376
62 378
62 380
62 381
62 383
62 384
62 386
62 387
62 388
62 390
62 392
62 393
62 394
62 396
62 397
62 398
62 399
62 401
62 402
62 403
62 404
62 405
62 407
62 408
62 409
62 410
62 411
62 412
62 413
62 416
62 417
62 419
62 420
62 421
62 422
62 423
62 424
62 425
62 426
62 427
62 429
62 430
62 431
62 432
62 433
62 434
62 436
62 437
62 438
62 439
62 440
62 441
62 442
62 443
62 445
62 446
62 449
62 450
62 451
62 453
62 454
62 455
62 456
62 458
62 459
62 460
62 461
62 462
62 463
62 464
62 466
62 468
62 469
62 472
62 473
62 474
62 476
62 477
62 478
62 479
62 480
62 481
62 482
62 483
62 484
62 486
62 487
62 488
62 489
62 490
62 491
62 492
62 493
62 494
62 496
62 497
62 500
62 501
62 502
62 503
62 504
62 505
62 506
62 508
62 509
62 510
62 511
62 512
62 513
62 514
62 515
62 517
62 518
62 521
62 522
62 523
62 524
62 525
62 526
62 528
62 531
62 532
62 533
62 534
62 535
62 536
62 537
62 539
62 540
62 541
62 542
62 543
62 544
62 545
62 547
62 550
62 551
62 552
62 554
62 555
62 556
62 557
62 559
62 560
62 561
62 563
62 564
62 566
62 568
62 569
62 570
62 572
62 573
62 577
62 579
62 580
62 581
62 583
62 584
62 585
62 586
62 587
62 588
62 589
62 590
62 591
62 592
62 594
62 595
62 596
62 598
63 64
63 65
63 66
63 67
63 68
63 69
63 70
63 71
63 72
63 73
63 74
63 75
63 76
63 77
63 78
63 79
63 80
63 81
63 82
63 83
63 84
63 85
63 86
63 87
63 88
63 89
63 90
63 91
63 92
63 93
63 94
63 95
63 96
63 97
63 98
63 99
63 100
63 101
63 102
63 103
63 104
63 105
63 106
63 108
63 109
63 111
63 114
63 115
63 116
63 118
63 119
63 120
63 122
63 123
63 124
63 125
63 126
63 127
63 128
63 129
63 130
63 131
63 132
63 133
63 135
63 136
63 137
63 138
63 139
63 141
63 142
63 143
63 144
63 146
63 149
63 150
63 151
63 153
63 154
63 155
63 157
63 158
63 159
63 160
63 161
63 162
63 163
63 164
63 165
63 166
63 167
63 169
63 170
63 171
63 172
63 173
63 175
63 176
63 177
63 178
63 179
63 180
63 182
63 183
63 184
63 185
63 186
63 187
63 188
63 189
63 190
63 191
63 192
63 193
63 194
63 195
63 196
63 197
63 198
63 199
63 200
63 201
63 203
63 205
63 206
63 207
63 208
63 209
63 210
63 211
63 212
63 214
63 216
63 217
63 218
63 219
63 220
63 221
63 222
63 223
63 224
63 226
63 228
63 230
63 231
63 232
63 234
63 235
63 237
63 238
63 239
63 241
63 242
63 243
63 244
63 245
63 246
63 247
63 248
63 250
63 251
63 252
63 253
63 254
63 255
63 256
63 257
63 258
63 260
63 261
63 262
63 263
63 264
63 265
63 266
63 268
63 269
63 270
63 271
63 274
63 276
63 278
63 279
63 280
63 281
63 282
63 284
63 285
63 286
63 287
63 288
63 289
63 290
63 291
63 293
63 294
63 295
63 296
63 298
63 299
63 300
63 301
63 302
63 303
63 304
63 305
63 306
63 308
63 309
63 310
63 311
63 312
63 313
63 315
63 316
63 317
63 318
63 319
63 320
63 322
63 323
63 324
63 325
63 327
63 328
63 330
63 333
63 334
63 336
63 338
63 339
63 340
63 341
63 342
63 343
63 345
63 346
63 347
63 349
63 351
63 352
63 353
63 354
63 355
63 356
63 357
63 358
63 359
63 360
63 361
63 362
63 363
63 364
63 367
63 368
63 369
63 371
63 372
63 373
63 374
63 375
63 376
63 378
63 380
63 381
63 383
63 384
63 386
63 387
63 388
63 390
63 392
63 393
63 394
63 396
63 397
63 398
63 399
63 401
63 402
63 403
63 404
63 405
63 406
63 407
63 408
63 409
63 410
63 411
63 413
63 416
63 417
63 418
63 419
63 420
63 421
63 422
63 423
63 425
63 426
63 427
63 429
63 430
63 431
63 432
63 433
63 434
63 436
63 437
63 438
63 440
63 441
63 442
63 443
63 444
63 445
63 446
63 449
63 450
63 451
63 453
63 454
63 455
63 456
63 458
63 459
63 460
63 461
63 462
63 463
63 464
63 466
63 468
63 469
63 472
63 473
63 474
63 476
63 477
63 478
63 479
63 480
63 481
63 482
63 483
63 484
63 486
63 487
63 488
63 489
63 491
63 492
63 493
63 494
63 495
63 496
63 497
63 498
63 499
63 500
63 501
63 502
63 503
63 504
63 505
63 506
63 507
63 508
63 509
63 511
63 512
63 513
63 514
63 515
63 516
63 517
63 518
63 519
63 520
63 521
63 522
63 523
63 524
63 525
63 526
63 527
63 528
63 531
63 532
63 533
63 534
63 535
63 536
63 537
63 539
63 540
63 541
63 543
63 544
63 545
63 546
63 547
63 548
63 549
63 550
63 551
63 552
63 553
63 554
63 555
63 556
63 557
63 558
63 559
63 560
63 561
63 562
63 563
63 564
63 566
63 568
63 569
63 570
63 572
63 573
63 577
63 579
63 580
63 581
63 583
63 584
63 585
63 586
63 587
63 588
63 589
63 590
63 591
63 592
63 594
63 595
63 596
63 598
64 65
64 66
64 67
64 68
64 69
64 70
64 71
64 72
64 73
64 74
64 75
64 76
64 77
64 78
64 79
64 80
64 81
64 82
64 83
64 84
64 85
64 86
64 87
64 88
64 89
64 90
64 91
64 92
64 93
64 94
64 95
64 96
64 97
64 98
64 99
64 100
64 101
64 102
64 103
64 104
64 105
64 106
64 108
64 109
64 111
64 114
64 115
64 116
64 118
64 119
64 120
64 121
64 122
64 124
64 126
64 127
64 128
64 129
64 130
64 131
64 132
64 133
64 135
64 136
64 137
64 138
64 139
64 141
64 142
64 143
64 144
64 146
64 149
64 150
64 151
64 153
64 154
64 155
64 156
64 157
64 160
64 161
64 162
64 163
64 164
64 165
64 166
64 167
64 169
64 170
64 171
64 172
64 173
64 175
64 176
64 177
64 178
64 179
64 180
64 181
64 182
64 183
64 185
64 186
64 187
64 189
64 190
64 191
64 192
64 193
64 195
64 196
64 197
64 198
64 199
64 200
64 201
64 202
64 203
64 204
64 205
64 206
64 207
64 208
64 209
64 210
64 211
64 212
64 214
64 216
64 217
64 218
64 219
64 221
64 222
64 223
64 224
64 225
64 226
64 228
64 230
64 231
64 232
64 234
64 235
64 237
64 238
64 239
64 241
64 242
64 244
64 245
64 246
64 247
64 248
64 249
64 250
64 251
64 252
64 253
64 255
64 256
64 257
64 258
64 259
64 260
64 261
64 262
64 263
64 264
64 265
64 266
64 268
64 269
64 270
64 271
64 274
64 276
64 278
64 279
64 280
64 281
64 282
64 284
64 285
64 286
64 288
64 289
64 290
64 291
64 292
64 293
64 294
64 295
64 296
64 298
64 299
64 300
64 301
64 302
64 303
64 304
64 305
64 306
64 308
64 309
64 310
64 311
64 312
64 313
64 315
64 316
64 317
64 318
64 319
64 320
64 322
64 323
64 324
64 325
64 327
64 328
64 330
64 333
64 334
64 336
64 338
64 339
64 340
64 341
64 342
64 343
64 345
64 346
64 347
64 349
64 351
64 352
64 353
64 354
64 355
64 356
64 357
64 358
64 359
64 360
64 362
64 363
64 364
64 365
64 366
64 367
64 368
64 369
64 370
64 371
64 372
64 373
64 374
64 375
64 376
64 378
64 380
64 381
64 383
64 384
64 386
64 387
64 388
64 390
64 392
64 393
64 394
64 396
64 397
64 398
64 399
64 401
64 402
64 403
64 404
64 405
64 406
64 407
64 408
64 409
64 410
64 411
64 413
64 416
64 417
64 418
64 420
64 421
64 422
64 423
64 424
64 425
64 426
64 427
64 429
64 430
64 431
64 432
64 433
64 434
64 436
64 437
64 438
64 439
64 440
64 441
64 442
64 443
64 445
64 446
64 449
64 450
64 451
64 453
64 454
64 455
64 456
64 458
64 459
64 460
64 461
64 462
64 463
64 464
64 466
64 468
64 469
64 472
64 473
64 474
64 476
64 477
64 478
64 480
64 481
64 482
64 483
64 484
64 485
64 486
64 487
64 488
64 489
64 490
64 491
64 492
64 493
64 494
64 496
64 497
64 500
64 501
64 502
64 503
64 504
64 505
64 506
64 508
64 509
64 510
64 511
64 512
64 513
64 514
64 515
64 517
64 518
64 521
64 522
64 523
64 524
64 525
64 526
64 528
64 531
64 532
64 533
64 534
64 535
64 536
64 537
64 539
64 540
64 541
64 542
64 543
64 544
64 545
64 547
64 550
64 551
64 552
64 554
64 555
64 556
64 557
64 559
64 560
64 561
64 563
64 564
64 566
64 568
64 569
64 570
64 572
64 573
64 577
64 579
64 580
64 581
64 583
64 584
64 585
64 586
64 587
64 588
64 589
64 590
64 591
64 592
64 594
64 595
64 596
64 598
65 66
65 67
65 68
65 69
65 70
65 71
65 72
65 73
65 74
65 75
65 76
65 77
65 78
65 79
65 80
65 81
65 82
65 83
65 84
65 85
65 86
65 87
65 88
65 89
65 90
65 91
65 92
65 93
65 94
65 95
65 96
65 97
65 98
65 99
65 100
65 101
65 102
65 103
65 104
65 105
65 106
65 108
65 109
65 111
65 114
65 115
65 116
65 118
65 119
65 120
65 121
65 122
65 124
65 126
65 127
65 128
65 129
65 130
65 131
65 132
65 133
65 135
65 136
65 137
65 139
65 140
65 141
65 142
65 143
65 144
65 145
65 146
65 147
65 148
65 149
65 150
65 151
65 153
65 154
65 155
65 156
65 157
65 160
65 161
65 162
65 163
65 164
65 165
65 166
65 167
65 169
65 170
65 171
65 172
65 173
65 175
65 176
65 177
65 178
65 179
65 180
65 181
65 182
65 183
65 185
65 186
65 187
65 189
65 190
65 191
65 192
65 193
65 194
65 195
65 196
65 197
65 198
65 199
65 200
65 201
65 203
65 205
65 206
65 207
65 208
65 209
65 210
65 211
65 212
65 214
65 216
65 217
65 218
65 219
65 220
65 221
65 222
65 223
65 224
65 226
65 228
65 230
65 231
65 232
65 234
65 235
65 237
65 238
65 239
65 241
65 242
65 243
65 244
65 245
65 246
65 247
65 248
65 250
65 251
65 252
65 253
65 254
65 255
65 256
65 257
65 258
65 260
65 261
65 262
65 263
65 264
65 265
65 266
65 268
65 269
65 270
65 271
65 274
65 276
65 278
65 279
65 280
65 281
65 282
65 284
65 285
65 286
65 287
65 288
65 289
65 290
65 291
65 293
65 294
65 295
65 296
65 298
65 299
65 300
65 301
65 302
65 303
65 304
65 305
65 306
65 308
65 309
65 310
65 311
65 312
65 313
65 315
65 316
65 317
65 318
65 319
65 320
65 322
65 323
65 324
65 325
65 327
65 328
65 330
65 333
65 334
65 336
65 338
65 339
65 340
65 341
65 342
65 343
65 345
65 346
65 347
65 349
65 351
65 352
65 353
65 354
65 355
65 356
65 357
65 358
65 359
65 360
65 361
65 362
65 363
65 364
65 367
65 368
65 369
65 371
65 372
65 373
65 374
65 375
65 376
65 378
65 380
65 381
65 383
65 384
65 386
65 387
65 388
65 390
65 392
65 393
65 394
65 396
65 397
65 398
65 399
65 401
65 402
65 403
65 404
65 405
65 406
65 407
65 408
65 409
65 410
65 411
65 413
65 416
65 417
65 418
65 419
65 420
65 421
65 422
65 423
65 425
65 426
65 427
65 429
65 430
65 431
65 432
65 433
65 434
65 436
65 437
65 438
65 439
65 440
65 441
65 442
65 443
65 445
65 446
65 449
65 450
65 451
65 453
65 454
65 455
65 456
65 458
65 459
65 460
65 461
65 462
65 463
65 464
65 466
65 468
65 469
65 472
65 473
65 474
65 476
65 477
65 478
65 479
65 480
65 481
65 482
65 483
65 484
65 486
65 487
65 488
65 489
65 490
65 491
65 492
65 493
65 494
65 496
65 497
65 500
65 501
65 502
65 503
65 504
65 505
65 506
65 508
65 509
65 510
65 511
65 512
65 513
65 514
65 515
65 517
65 518
65 521
65 522
65 523
65 524
65 525
65 526
65 528
65 531
65 532
65 533
65 534
65 535
65 536
65 537
65 539
65 540
65 541
65 542
65 543
65 544
65 545
65 547
65 550
65 551
65 552
65 554
65 555
65 556
65 557
65 559
65 560
65 561
65 563
65 564
65 566
65 568
65 569
65 570
65 572
65 573
65 577
65 579
65 580
65 581
65 583
65 584
65 585
65 586
65 587
65 588
65 589
65 590
65 591
65 592
65 594
65 595
65 596
65 598
66 67
66 68
66 69
66 70
66 71
66 72
66 73
66 74
66 75
66 76
66 77
66 78
66 79
66 80
66 81
66 82
66 83
66 84
66 85
66 86
66 87
66 88
66 89
66 90
66 91
66 92
66 93
66 94
66 95
66 96
66 97
66 98
66 99
66 100
66 101
66 102
66 103
66 104
66 105
66 106
66 108
66 109
66 111
66 114
66 115
66 116
66 118
66 119
66 120
66 121
66 122
66 124
66 126
66 127
66 128
66 129
66 130
66 131
66 132
66 133
66 135
66 136
66 137
66 138
66 139
66 141
66 142
66 143
66 144
66 146
66 149
66 150
66 151
66 153
66 154
66 155
66 156
66 157
66 160
66 161
66 162
66 163
66 164
66 165
66 166
66 168
66 169
66 170
66 171
66 172
66 173
66 175
66 176
66 177
66 178
66 179
66 180
66 181
66 182
66 183
66 185
66 186
66 187
66 189
66 190
66 191
66 192
66 193
66 194
66 195
66 196
66 197
66 198
66 199
66 200
66 201
66 203
66 205
66 206
66 207
66 208
66 209
66 210
66 211
66 212
66 214
66 216
66 217
66 218
66 219
66 220
66 221
66 222
66 223
66 224
66 226
66 228
66 230
66 231
66 232
66 234
66 235
66 237
66 238
66 239
66 241
66 242
66 243
66 244
66 245
66 246
66 247
66 248
66 250
66 251
66 252
66 253
66 254
66 255
66 256
66 257
66 258
66 260
66 261
66 262
66 263
66 264
66 265
66 266
66 268
66 269
66 270
66 271
66 274
66 276
66 278
66 279
66 280
66 281
66 282
66 284
66 285
66 286
66 287
66 288
66 289
66 290
66 291
66 293
66 294
66 295
66 296
66 298
66 299
66 300
66 301
66 302
66 303
66 304
66 305
66 306
66 308
66 309
66 310
66 311
66 312
66 313
66 315
66 316
66 317
66 318
66 319
66 320
66 322
66 323
66 324
66 325
66 327
66 328
66 330
66 333
66 334
66 336
66 338
66 339
66 340
66 341
66 342
66 343
66 345
66 346
66 347
66 349
66 351
66 352
66 353
66 354
66 355
66 356
66 357
66 358
66 359
66 360
66 361
66 362
66 363
66 364
66 367
66 368
66 369
66 371
66 372
66 373
66 374
66 375
66 376
66 378
66 380
66 381
66 383
66 384
66 386
66 387
66 388
66 390
66 392
66 393
66 394
66 396
66 397
66 398
66 399
66 401
66 402
66 403
66 404
66 405
66 406
66 407
66 408
66 409
66 410
66 411
66 413
66 416
66 417
66 418
66 419
66 420
66 421
66 422
66 423
66 425
66 426
66 427
66 429
66 430
66 431
66 432
66 433
66 434
66 436
66 437
66 438
66 439
66 440
66 441
66 442
66 443
66 445
66 446
66 449
66 450
66 451
66 453
66 454
66 455
66 456
66 458
66 459
66 460
66 461
66 462
66 463
66 464
66 466
66 468
66 469
66 472
66 473
66 474
66 476
66 477
66 478
66 479
66 480
66 481
66 482
66 483
66 484
66 486
66 487
66 488
66 489
66 490
66 491
66 492
66 493
66 494
66 496
66 497
66 500
66 501
66 502
66 503
66 504
66 505
66 506
66 508
66 509
66 510
66 511
66 512
66 513
66 514
66 515
66 517
66 518
66 521
66 522
66 523
66 524
66 525
66 526
66 528
66 531
66 532
66 533
66 534
66 535
66 536
66 537
66 539
66 540
66 541
66 542
66 543
66 544
66 545
66 547
66 550
66 551
66 552
66 554
66 555
66 556
66 557
66 559
66 560
66 561
66 563
66 564
66 566
66 568
66 569
66 570
66 572
66 573
66 577
66 579
66 580
66 581
66 583
66 584
66 585
66 586
66 587
66 588
66 589
66 590
66 591
66 592
66 594
66 595
66 596
66 598
67 68
67 69
67 70
67 71
67 72
67 73
67 74
67 75
67 76
67 77
67 78
67 79
67 80
67 81
67 82
67 83
67 84
67 85
67 86
67 87
67 88
67 89
67 90
67 91
67 92
67 93
67 94
67 95
67 96
67 97
67 98
67 99
67 100
67 101
67 102
67 103
67 104
67 105
67 106
67 108
67 109
67 111
67 114
67 115
67 116
67 118
67 119
67 120
67 121
67 122
67 124
67 126
67 127
67 128
67 129
67 130
67 131
67 132
67 133
67 135
67 136
67 137
67 138
67 139
67 141
67 142
67 143
67 144
67 146
67 149
67 150
67 151
67 153
67 154
67 155
67 156
67 157
67 160
67 161
67 162
67 163
67 164
67 165
67 166
67 167
67 169
67 170
67 171
67 172
67 173
67 175
67 176
67 177
67 178
67 179
67 180
67 181
67 182
67 183
67 185
67 186
67 187
67 189
67 190
67 191
67 192
67 193
67 194
67 195
67 196
67 197
67 198
67 199
67 200
67 201
67 203
67 205
67 206
67 208
67 209
67 210
67 211
67 212
67 213
67 214
67 216
67 217
67 218
67 219
67 220
67 221
67 222
67 223
67 224
67 226
67 228
67 230
67 231
67 232
67 234
67 235
67 237
67 238
67 239
67 241
67 242
67 243
67 244
67 245
67 246
67 247
67 248
67 250
67 251
67 252
67 253
67 254
67 255
67 256
67 257
67 258
67 260
67 261
67 263
67 264
67 265
67 266
67 267
67 268
67 270
67 271
67 274
67 276
67 278
67 279
67 280
67 281
67 282
67 284
67 285
67 286
67 287
67 288
67 289
67 290
67 291
67 293
67 294
67 295
67 296
67 298
67 299
67 300
67 301
67 302
67 303
67 304
67 305
67 306
67 308
67 309
67 310
67 311
67 312
67 313
67 315
67 317
67 318
67 319
67 320
67 321
67 322
67 323
67 324
67 325
67 327
67 328
67 330
67 333
67 334
67 336
67 338
67 340
67 341
67 342
67 343
67 344
67 345
67 346
67 347
67 349
67 351
67 352
67 353
67 354
67 355
67 356
67 357
67 358
67 359
67 360
67 361
67 362
67 363
67 364
67 367
67 368
67 369
67 371
67 372
67 373
67 374
67 375
67 376
67 378
67 380
67 381
67 383
67 384
67 386
67 387
67 388
67 390
67 392
67 393
67 394
67 396
67 397
67 398
67 399
67 401
67 402
67 403
67 404
67 405
67 406
67 407
67 408
67 409
67 410
67 411
67 413
67 416
67 417
67 418
67 419
67 420
67 421
67 422
67 423
67 425
67 427
67 428
67 429
67 431
67 432
67 433
67 434
67 435
67 436
67 437
67 438
67 439
67 440
67 441
67 442
67 443
67 445
67 446
67 449
67 450
67 451
67 453
67 454
67 455
67 456
67 458
67 459
67 460
67 461
67 462
67 463
67 464
67 466
67 468
67 469
67 472
67 473
67 474
67 476
67 477
67 478
67 479
67 480
67 481
67 482
67 483
67 484
67 486
67 487
67 488
67 489
67 490
67 491
67 492
67 493
67 494
67 496
67 497
67 500
67 501
67 502
67 503
67 504
67 505
67 506
67 508
67 509
67 510
67 511
67 512
67 513
67 514
67 515
67 517
67 518
67 521
67 522
67 523
67 524
67 525
67 526
67 528
67 531
67 533
67 534
67 535
67 536
67 537
67 538
67 539
67 540
67 541
67 542
67 543
67 544
67 545
67 547
67 550
67 551
67 552
67 554
67 555
67 556
67 557
67 559
67 560
67 561
67 563
67 564
67 566
67 568
67 569
67 570
67 572
67 573
67 577
67 579
67 580
67 581
67 583
67 584
67 585
67 586
67 587
67 588
67 589
67 590
67 591
67 592
67 594
67 595
67 596
67 598
68 69
68 70
68 71
68 72
68 73
68 74
68 75
68 76
68 77
68 78
68 79
68 80
68 81
68 82
68 83
68 84
68 85
68 86
68 87
68 88
68 89
68 90
68 91
68 92
68 93
68 94
68 95
68 96
68 97
68 98
68 99
68 100
68 101
68 102
68 103
68 104
68 105
68 106
68 108
68 109
68 111
68 113
68 114
68 116
68 117
68 118
68 119
68 120
68 121
68 122
68 124
68 126
68 127
68 128
68 129
68 130
68 131
68 132
68 133
68 135
68 136
68 137
68 138
68 140
68 141
68 142
68 143
68 144
68 145
68 146
68 147
68 148
68 149
68 150
68 151
68 153
68 154
68 155
68 156
68 157
68 160
68 161
68 162
68 163
68 164
68 165
68 166
68 167
68 169
68 170
68 171
68 172
68 173
68 175
68 176
68 177
68 178
68 179
68 180
68 181
68 182
68 183
68 185
68 186
68 187
68 189
68 190
68 191
68 192
68 193
68 194
68 195
68 196
68 197
68 198
68 199
68 200
68 201
68 203
68 205
68 206
68 207
68 208
68 209
68 210
68 211
68 212
68 214
68 216
68 217
68 218
68 219
68 220
68 221
68 222
68 223
68 224
68 226
68 228
68 230
68 231
68 232
68 234
68 235
68 237
68 238
68 239
68 241
68 242
68 243
68 244
68 245
68 246
68 247
68 248
68 250
68 251
68 252
68 253
68 254
68 255
68 256
68 257
68 258
68 260
68 261
68 262
68 263
68 264
68 265
68 266
68 268
68 269
68 270
68 271
68 274
68 275
68 276
68 277
68 279
68 280
68 281
68 282
68 284
68 285
68 286
68 287
68 288
68 289
68 290
68 291
68 293
68 294
68 295
68 296
68 298
68 299
68 300
68 301
68 302
68 303
68 304
68 305
68 306
68 308
68 309
68 310
68 311
68 312
68 313
68 315
68 316
68 317
68 318
68 319
68 320
68 322
68 323
68 324
68 325
68 327
68 328
68 330
68 333
68 334
68 336
68 338
68 339
68 340
68 341
68 342
68 343
68 345
68 346
68 347
68 349
68 351
68 352
68 353
68 354
68 355
68 356
68 357
68 358
68 359
68 360
68 361
68 362
68 363
68 364
68 367
68 368
68 369
68 371
68 372
68 373
68 374
68 375
68 376
68 377
68 378
68 379
68 381
68 382
68 383
68 384
68 385
68 386
68 387
68 388
68 389
68 390
68 391
68 393
68 394
68 395
68 396
68 397
68 398
68 399
68 400
68 401
68 402
68 403
68 404
68 405
68 406
68 407
68 408
68 409
68 410
68 411
68 413
68 416
68 417
68 418
68 419
68 420
68 421
68 422
68 423
68 425
68 426
68 427
68 429
68 430
68 431
68 432
68 433
68 434
68 436
68 437
68 438
68 439
68 440
68 441
68 442
68 443
68 445
68 446
68 450
68 451
68 452
68 453
68 454
68 455
68 456
68 458
68 459
68 460
68 461
68 462
68 463
68 464
68 466
68 468
68 469
68 472
68 473
68 474
68 476
68 477
68 478
68 479
68 480
68 481
68 482
68 483
68 484
68 486
68 487
68 488
68 489
68 490
68 491
68 492
68 493
68 494
68 496
68 497
68 500
68 501
68 502
68 503
68 504
68 505
68 506
68 508
68 509
68 510
68 511
68 512
68 513
68 514
68 515
68 517
68 518
68 521
68 522
68 523
68 524
68 525
68 526
68 528
68 531
68 532
68 533
68 534
68 535
68 536
68 537
68 539
68 540
68 541
68 542
68 543
68 544
68 545
68 547
68 550
68 551
68 552
68 554
68 555
68 556
68 557
68 559
68 560
68 561
68 563
68 564
68 565
68 566
68 567
68 569
68 570
68 571
68 572
68 573
68 574
68 577
68 579
68 580
68 581
68 583
68 584
68 585
68 586
68 587
68 588
68 589
68 590
68 591
68 592
68 594
68 595
68 596
68 598
69 70
69 71
69 72
69 73
69 74
69 75
69 76
69 77
69 78
69 79
69 80
69 81
69 82
69 83
69 84
69 85
69 86
69 87
69 88
69 89
69 90
69 91
69 92
69 93
69 94
69 95
69 96
69 97
69 98
69 99
69 100
69 101
69 102
69 103
69 104
69 105
69 106
69 108
69 109
69 111
69 114
69 115
69 116
69 118
69 119
69 120
69 121
69 122
69 124
69 126
69 127
69 128
69 129
69 130
69 131
69 132
69 133
69 135
69 136
69 137
69 138
69 139
69 141
69 142
69 143
69 144
69 146
69 149
69 150
69 151
69 153
69 154
69 155
69 156
69 157
69 160
69 161
69 162
69 163
69 164
69 165
69 166
69 167
69 169
69 171
69 172
69 173
69 174
69 175
69 176
69 177
69 178
69 179
69 180
69 181
69 182
69 183
69 185
69 186
69 187
69 189
69 190
69 191
69 192
69 193
69 194
69 195
69 196
69 197
69 198
69 199
69 200
69 201
69 203
69 205
69 206
69 207
69 208
69 209
69 210
69 211
69 212
69 214
69 216
69 217
69 218
69 219
69 220
69 221
69 222
69 223
69 224
69 226
69 228
69 230
69 231
69 232
69 234
69 235
69 237
69 238
69 239
69 241
69 242
69 243
69 244
69 245
69 246
69 247
69 248
69 250
69 251
69 252
69 253
69 254
69 255
69 256
69 257
69 258
69 260
69 261
69 262
69 263
69 264
69 265
69 266
69 268
69 269
69 270
69 271
69 274
69 276
69 278
69 279
69 280
69 281
69 282
69 284
69 285
69 286
69 287
69 288
69 289
69 290
69 291
69 293
69 294
69 295
69 296
69 298
69 299
69 300
69 301
69 302
69 303
69 305
69 306
69 307
69 308
69 309
69 310
69 311
69 312
69 313
69 315
69 316
69 317
69 318
69 319
69 320
69 322
69 323
69 324
69 325
69 327
69 328
69 330
69 333
69 334
69 336
69 338
69 339
69 340
69 341
69 342
69 343
69 345
69 346
69 347
69 349
69 351
69 352
69 353
69 354
69 355
69 356
69 357
69 358
69 359
69 360
69 361
69 362
69 363
69 364
69 367
69 368
69 369
69 371
69 372
69 373
69 374
69 375
69 376
69 378
69 380
69 381
69 383
69 384
69 386
69 387
69 388
69 390
69 392
69 393
69 394
69 396
69 397
69 398
69 399
69 401
69 402
69 403
69 404
69 405
69 406
69 407
69 408
69 409
69 410
69 411
69 413
69 416
69 417
69 418
69 419
69 420
69 421
69 422
69 423
69 425
69 426
69 427
69 429
69 430
69 431
69 432
69 433
69 434
69 436
69 437
69 438
69 439
69 440
69 441
69 442
69 443
69 445
69 446
69 449
69 450
69 451
69 453
69 455
69 456
69 457
69 458
69 459
69 460
69 461
69 462
69 463
69 464
69 466
69 468
69 469
69 472
69 473
69 474
69 476
69 477
69 478
69 479
69 480
69 481
69 482
69 483
69 484
69 486
69 487
69 488
69 489
69 490
69 492
69 493
69 494
69 495
69 496
69 497
69 498
69 499
69 500
69 501
69 502
69 503
69 504
69 505
69 506
69 507
69 508
69 509
69 510
69 512
69 513
69 514
69 515
69 516
69 517
69 518
69 519
69 520
69 521
69 522
69 523
69 524
69 525
69 526
69 527
69 528
69 531
69 532
69 533
69 534
69 535
69 536
69 537
69 539
69 540
69 541
69 542
69 544
69 545
69 546
69 547
69 548
69 549
69 550
69 551
69 552
69 553
69 554
69 555
69 556
69 557
69 558
69 559
69 560
69 561
69 562
69 563
69 564
69 566
69 568
69 569
69 570
69 572
69 573
69 577
69 579
69 581
69 582
69 583
69 584
69 585
69 586
69 587
69 588
69 589
69 590
69 591
69 592
69 594
69 595
69 596
69 598
70 71
70 72
70 73
70 74
70 75
70 76
70 77
70 78
70 79
70 80
70 81
70 82
70 83
70 84
70 85
70 86
70 87
70 88
70 89
70 90
70 91
70 92
70 93
70 94
70 95
70 96
70 97
70 98
70 99
70 100
70 101
70 102
70 103
70 104
70 105
70 106
70 108
70 109
70 111
70 114
70 115
70 116
70 118
70 119
70 120
70 121
70 122
70 124
70 126
70 127
70 128
70 129
70 130
70 131
70 132
70 133
70 135
70 136
70 137
70 138
70 139
70 141
70 142
70 143
70 144
70 146
70 149
70 150
70 151
70 153
70 154
70 155
70 156
70 157
70 160
70 161
70 162
70 163
70 164
70 165
70 166
70 167
70 169
70 170
70 171
70 172
70 173
70 175
70 176
70 177
70 178
70 179
70 180
70 181
70 182
70 183
70 185
70 186
70 187
70 189
70 190
70 191
70 192
70 193
70 194
70 195
70 196
70 197
70 198
70 199
70 200
70 201
70 203
70 205
70 206
70 207
70 209
70 210
70 211
70 212
70 213
70 214
70 216
70 217
70 218
70 219
70 220
70 221
70 222
70 223
70 224
70 226
70 228
70 230
70 231
70 232
70 234
70 235
70 237
70 238
70 239
70 241
70 242
70 243
70 244
70 245
70 246
70 247
70 248
70 250
70 251
70 252
70 253
70 254
70 255
70 256
70 257
70 258
70 260
70 261
70 262
70 263
70 264
70 265
70 266
70 268
70 269
70 270
70 271
70 274
70 276
70 278
70 279
70 280
70 281
70 282
70 284
70 285
70 286
70 287
70 288
70 289
70 290
70 291
70 293
70 294
70 295
70 296
70 298
70 299
70 300
70 301
70 302
70 303
70 304
70 305
70 306
70 308
70 309
70 310
70 311
70 312
70 313
70 315
70 316
70 318
70 319
70 320
70 321
70 322
70 323
70 324
70 325
70 327
70 328
70 330
70 333
70 334
70 336
70 338
70 339
70 341
70 342
70 343
70 344
70 345
70 346
70 347
70 349
70 351
70 352
70 353
70 354
70 355
70 356
70 357
70 358
70 359
70 360
70 361
70 362
70 363
70 364
70 367
70 368
70 369
70 371
70 372
70 373
70 374
70 375
70 376
70 378
70 380
70 381
70 383
70 384
70 386
70 387
70 388
70 390
70 392
70 393
70 394
70 396
70 397
70 398
70 399
70 401
70 402
70 403
70 404
70 405
70 406
70 407
70 408
70 409
70 410
70 411
70 413
70 416
70 417
70 418
70 419
70 420
70 421
70 422
70 423
70 425
70 426
70 427
70 429
70 430
70 432
70 433
70 434
70 435
70 436
70 437
70 438
70 439
70 440
70 441
70 442
70 443
70 445
70 446
70 449
70 450
70 451
70 453
70 454
70 455
70 456
70 458
70 459
70 460
70 461
70 462
70 463
70 464
70 466
70 468
70 469
70 472
70 473
70 474
70 476
70 477
70 478
70 479
70 480
70 481
70 482
70 483
70 484
70 486
70 487
70 488
70 489
70 490
70 491
70 492
70 493
70 494
70 496
70 497
70 500
70 501
70 502
70 503
70 504
70 505
70 506
70 508
70 509
70 510
70 511
70 512
70 513
70 514
70 515
70 517
70 518
70 521
70 522
70 523
70 524
70 525
70 526
70 528
70 531
70 532
70 534
70 535
70 536
70 537
70 538
70 539
70 540
70 541
70 542
70 543
70 544
70 545
70 547
70 550
70 551
70 552
70 554
70 555
70 556
70 557
70 559
70 560
70 561
70 563
70 564
70 566
70 568
70 569
70 570
70 572
70 573
70 577
70 579
70 580
70 581
70 583
70 584
70 585
70 586
70 587
70 588
70 589
70 591
70 592
70 593
70 594
70 595
70 596
70 597
70 598
71 72
71 73
71 74
71 75
71 76
71 77
71 78
71 79
71 80
71 81
71 82
71 83
71 84
71 85
71 86
71 87
71 88
71 89
71 90
71 91
71 92
71 93
71 94
71 95
71 96
71 97
71 98
71 99
71 100
71 101
71 102
71 103
71 104
71 105
71 106
71 108
71 109
71 111
71 114
71 115
71 116
71 118
71 119
71 120
71 121
71 122
71 124
71 126
71 127
71 128
71 129
71 130
71 131
71 132
71 133
71 135
71 136
71 137
71 138
71 139
71 141
71 142
71 143
71 144
71 146
71 149
71 150
71 151
71 153
71 154
71 155
71 156
71 157
71 160
71 161
71 162
71 163
71 164
71 165
71 166
71 167
71 169
71 170
71 171
71 172
71 173
71 175
71 176
71 177
71 178
71 179
71 180
71 181
71 182
71 183
71 185
71 186
71 187
71 189
71 190
71 191
71 192
71 193
71 194
71 195
71 196
71 197
71 198
71 199
71 200
71 201
71 203
71 205
71 206
71 207
71 208
71 210
71 211
71 212
71 213
71 214
71 216
71 217
71 218
71 219
71 220
71 221
71 222
71 223
71 224
71 226
71 228
71 230
71 231
71 232
71 234
71 235
71 237
71 238
71 239
71 241
71 242
71 243
71 244
71 245
71 246
71 247
71 248
71 250
71 251
71 252
71 253
71 254
71 255
71 256
71 257
71 258
71 260
71 261
71 262
71 264
71 265
71 266
71 267
71 268
71 269
71 270
71 271
71 274
71 276
71 278
71 279
71 280
71 281
71 282
71 284
71 285
71 286
71 287
71 288
71 289
71 290
71 291
71 293
71 294
71 295
71 296
71 298
71 299
71 300
71 301
71 302
71 303
71 304
71 305
71 306
71 308
71 309
71 310
71 311
71 312
71 313
71 315
71 316
71 317
71 319
71 320
71 321
71 322
71 323
71 324
71 325
71 327
71 328
71 330
71 333
71 334
71 336
71 338
71 339
71 340
71 341
71 342
71 343
71 345
71 346
71 347
71 349
71 351
71 352
71 353
71 354
71 355
71 356
71 357
71 358
71 359
71 360
71 361
71 362
71 363
71 364
71 367
71 368
71 369
71 371
71 372
71 373
71 374
71 375
71 376
71 378
71 380
71 381
71 383
71 384
71 386
71 387
71 388
71 390
71 392
71 393
71 394
71 396
71 397
71 398
71 399
71 401
71 402
71 403
71 404
71 405
71 406
71 407
71 408
71 409
71 410
71 411
71 413
71 416
71 417
71 418
71 419
71 420
71 421
71 422
71 423
71 425
71 426
71 427
71 429
71 430
71 431
71 433
71 434
71 435
71 436
71 437
71 438
71 439
71 440
71 441
71 442
71 443
71 445
71 446
71 449
71 450
71 451
71 453
71 454
71 455
71 456
71 458
71 459
71 460
71 461
71 462
71 463
71 464
71 466
71 468
71 469
71 472
71 473
71 474
71 476
71 477
71 478
71 479
71 480
71 481
71 482
71 483
71 484
71 486
71 487
71 488
71 489
71 490
71 491
71 492
71 493
71 494
71 496
71 497
71 500
71 501
71 502
71 503
71 504
71 505
71 506
71 508
71 509
71 510
71 511
71 512
71 513
71 514
71 515
71 517
71 518
71 521
71 522
71 523
71 524
71 525
71 526
71 528
71 531
71 532
71 533
71 535
71 536
71 537
71 538
71 539
71 540
71 541
71 542
71 543
71 544
71 545
71 547
71 550
71 551
71 552
71 554
71 555
71 556
71 557
71 559
71 560
71 561
71 563
71 564
71 566
71 568
71 569
71 570
71 572
71 573
71 577
71 579
71 580
71 581
71 583
71 584
71 585
71 586
71 587
71 588
71 589
71 590
71 592
71 593
71 594
71 595
71 596
71 597
71 598
72 73
72 74
72 75
72 76
72 77
72 78
72 79
72 80
72 81
72 82
72 83
72 84
72 85
72 86
72 87
72 88
72 89
72 90
72 91
72 92
72 93
72 94
72 95
72 96
72 97
72 98
72 99
72 100
72 101
72 102
72 103
72 104
72 105
72 106
72 108
72 109
72 111
72 114
72 115
72 116
72 118
72 119
72 120
72 121
72 122
72 124
72 126
72 127
72 128
72 129
72 130
72 131
72 133
72 134
72 135
72 136
72 137
72 138
72 139
72 141
72 142
72 143
72 144
72 146
72 149
72 150
72 151
72 153
72 154
72 155
72 156
72 157
72 160
72 161
72 162
72 163
72 164
72 165
72 167
72 169
72 170
72 171
72 172
72 173
72 175
72 176
72 177
72 178
72 179
72 180
72 181
72 182
72 183
72 185
72 186
72 187
72 189
72 190
72 191
72 192
72 193
72 194
72 196
72 197
72 198
72 199
72 200
72 201
72 202
72 203
72 204
72 205
72 206
72 207
72 208
72 209
72 210
72 211
72 212
72 214
72 216
72 217
72 218
72 219
72 220
72 221
72 222
72 223
72 224
72 226
72 227
72 228
72 229
72 231
72 232
72 233
72 234
72 235
72 236
72 237
72 238
72 239
72 241
72 242
72 243
72 244
72 245
72 246
72 247
72 248
72 250
72 251
72 252
72 253
72 254
72 255
72 256
72 257
72 258
72 260
72 261
72 262
72 263
72 264
72 265
72 266
72 268
72 269
72 270
72 271
72 274
72 276
72 278
72 279
72 280
72 281
72 282
72 284
72 285
72 286
72 287
72 288
72 289
72 290
72 291
72 293
72 294
72 295
72 296
72 298
72 299
72 300
72 301
72 302
72 303
72 304
72 305
72 306
72 308
72 309
72 310
72 311
72 312
72 314
72 315
72 316
72 317
72 318
72 319
72 320
72 322
72 323
72 324
72 325
72 327
72 328
72 330
72 333
72 334
72 337
72 338
72 339
72 340
72 341
72 342
72 343
72 345
72 346
72 347
72 349
72 351
72 352
72 353
72 354
72 355
72 356
72 357
72 358
72 359
72 360
72 361
72 363
72 364
72 365
72 366
72 367
72 368
72 369
72 370
72 371
72 372
72 373
72 374
72 375
72 376
72 378
72 380
72 381
72 383
72 384
72 386
72 387
72 388
72 389
72 390
72 391
72 392
72 394
72 395
72 396
72 397
72 398
72 399
72 400
72 401
72 402
72 403
72 404
72 405
72 406
72 407
72 408
72 409
72 410
72 411
72 413
72 416
72 417
72 418
72 419
72 420
72 421
72 422
72 423
72 425
72 426
72 427
72 429
72 430
72 431
72 432
72 433
72 434
72 436
72 437
72 438
72 439
72 440
72 441
72 442
72 443
72 445
72 446
72 449
72 450
72 451
72 453
72 454
72 455
72 456
72 458
72 459
72 460
72 461
72 462
72 463
72 464
72 466
72 469
72 470
72 472
72 473
72 474
72 476
72 477
72 478
72 479
72 480
72 481
72 482
72 483
72 484
72 486
72 488
72 489
72 490
72 491
72 493
72 494
72 495
72 496
72 497
72 498
72 499
72 500
72 501
72 502
72 503
72 504
72 505
72 506
72 507
72 508
72 509
72 510
72 511
72 513
72 514
72 515
72 516
72 517
72 518
72 519
72 520
72 521
72 522
72 523
72 524
72 525
72 526
72 527
72 528
72 531
72 532
72 533
72 534
72 535
72 536
72 537
72 539
72 540
72 541
72 542
72 543
72 545
72 546
72 547
72 548
72 549
72 550
72 551
72 552
72 553
72 554
72 555
72 556
72 557
72 558
72 559
72 560
72 561
72 562
72 563
72 564
72 565
72 566
72 567
72 568
72 570
72 571
72 572
72 573
72 574
72 577
72 579
72 580
72 581
72 583
72 584
72 585
72 586
72 587
72 588
72 589
72 590
72 591
72 592
72 594
72 595
72 596
72 598
73 74
73 75
73 76
73 77
73 78
73 79
73 80
73 81
73 82
73 83
73 84
73 85
73 86
73 87
73 88
73 89
73 90
73 91
73 92
73 93
73 94
73 95
73 96
73 97
73 98
73 99
73 100
73 101
73 102
73 103
73 104
73 105
73 106
73 108
73 109
73 111
73 114
73 115
73 116
73 118
73 119
73 120
73 121
73 122
73 124
73 126
73 127
73 128
73 129
73 130
73 131
73 132
73 133
73 135
73 136
73 137
73 138
73 139
73 141
73 142
73 143
73 144
73 146
73 149
73 150
73 151
73 153
73 154
73 155
73 156
73 157
73 160
73 161
73 162
73 163
73 164
73 165
73 166
73 167
73 169
73 170
73 171
73 172
73 173
73 175
73 176
73 177
73 178
73 179
73 180
73 181
73 182
73 183
73 185
73 186
73 187
73 189
73 190
73 191
73 192
73 193
73 194
73 195
73 196
73 197
73 198
73 199
73 200
73 201
73 203
73 205
73 206
73 207
73 208
73 209
73 211
73 212
73 213
73 214
73 216
73 217
73 218
73 219
73 220
73 221
73 222
73 223
73 224
73 226
73 228
73 230
73 231
73 232
73 234
73 235
73 237
73 238
73 239
73 241
73 242
73 243
73 244
73 245
73 246
73 247
73 248
73 250
73 251
73 252
73 253
73 254
73 255
73 256
73 257
73 258
73 260
73 261
73 262
73 263
73 265
73 266
73 267
73 268
73 269
73 270
73 271
73 274
73 276
73 278
73 279
73 280
73 281
73 282
73 284
73 285
73 286
73 287
73 288
73 289
73 290
73 291
73 293
73 294
73 295
73 296
73 298
73 299
73 300
73 301
73 302
73 303
73 304
73 305
73 306
73 308
73 309
73 310
73 311
73 312
73 313
73 315
73 316
73 317
73 318
73 320
73 321
73 322
73 323
73 324
73 325
73 327
73 328
73 330
73 333
73 334
73 336
73 338
73 339
73 340
73 342
73 343
73 344
73 345
73 346
73 347
73 349
73 351
73 352
73 353
73 354
73 355
73 356
73 357
73 358
73 359
73 360
73 361
73 362
73 363
73 364
73 367
73 368
73 369
73 371
73 372
73 373
73 374
73 375
73 376
73 378
73 380
73 381
73 383
73 384
73 386
73 387
73 388
73 390
73 392
73 393
73 394
73 396
73 397
73 398
73 399
73 401
73 402
73 403
73 404
73 405
73 406
73 407
73 408
73 409
73 410
73 411
73 413
73 416
73 417
73 418
73 419
73 420
73 421
73 422
73 423
73 425
73 426
73 428
73 429
73 430
73 431
73 432
73 434
73 435
73 436
73 437
73 438
73 439
73 440
73 441
73 442
73 443
73 445
73 446
73 449
73 450
73 451
73 453
73 454
73 455
73 456
73 458
73 459
73 460
73 461
73 462
73 463
73 464
73 466
73 468
73 469
73 472
73 473
73 474
73 476
73 477
73 478
73 479
73 480
73 481
73 482
73 483
73 484
73 486
73 487
73 488
73 489
73 490
73 491
73 492
73 493
73 494
73 496
73 497
73 500
73 501
73 502
73 503
73 504
73 505
73 506
73 508
73 509
73 510
73 511
73 512
73 513
73 514
73 515
73 517
73 518
73 521
73 522
73 523
73 524
73 525
73 526
73 528
73 531
73 532
73 533
73 534
73 536
73 537
73 538
73 539
73 540
73 541
73 542
73 543
73 544
73 545
73 547
73 550
73 551
73 552
73 554
73 555
73 556
73 557
73 559
73 560
73 561
73 563
73 564
73 566
73 568
73 569
73 570
73 572
73 573
73 577
73 579
73 580
73 581
73 583
73 584
73 585
73 586
73 587
73 588
73 589
73 590
73 591
73 593
73 594
73 595
73 596
73 597
73 598
74 75
74 76
74 77
74 78
74 79
74 80
74 81
74 82
74 83
74 84
74 85
74 86
74 87
74 88
74 89
74 90
74 91
74 92
74 93
74 94
74 95
74 96
74 97
74 98
74 99
74 100
74 101
74 102
74 103
74 104
74 105
74 106
74 108
74 109
74 111
74 114
74 115
74 116
74 118
74 119
74 120
74 121
74 122
74 124
74 126
74 127
74 128
74 129
74 130
74 131
74 132
74 133
74 135
74 136
74 137
74 138
74 139
74 141
74 142
74 143
74 144
74 146
74 149
74 150
74 151
74 153
74 154
74 155
74 156
74 157
74 160
74 161
74 162
74 163
74 164
74 165
74 166
74 167
74 169
74 170
74 171
74 172
74 173
74 175
74 176
74 177
74 178
74 179
74 180
74 181
74 182
74 183
74 185
74 186
74 187
74 189
74 190
74 191
74 192
74 193
74 194
74 195
74 196
74 197
74 198
74 199
74 200
74 201
74 203
74 205
74 206
74 207
74 208
74 209
74 210
74 211
74 212
74 214
74 216
74 217
74 218
74 219
74 220
74 221
74 222
74 223
74 224
74 226
74 227
74 228
74 229
74 230
74 232
74 233
74 234
74 235
74 236
74 237
74 238
74 239
74 241
74 242
74 243
74 244
74 245
74 246
74 247
74 248
74 250
74 251
74 252
74 253
74 254
74 255
74 256
74 257
74 258
74 260
74 261
74 262
74 263
74 264
74 265
74 266
74 268
74 269
74 270
74 271
74 274
74 276
74 278
74 279
74 280
74 281
74 282
74 284
74 285
74 286
74 287
74 288
74 289
74 290
74 291
74 293
74 294
74 295
74 296
74 298
74 299
74 300
74 301
74 302
74 303
74 304
74 305
74 306
74 308
74 309
74 310
74 311
74 312
74 313
74 315
74 316
74 317
74 318
74 319
74 320
74 322
74 323
74 324
74 325
74 327
74 328
74 330
74 333
74 334
74 336
74 338
74 339
74 340
74 341
74 342
74 343
74 345
74 346
74 347
74 349
74 351
74 352
74 353
74 354
74 355
74 356
74 357
74 358
74 359
74 360
74 361
74 362
74 363
74 364
74 367
74 368
74 369
74 371
74 372
74 373
74 374
74 375
74 376
74 378
74 380
74 381
74 383
74 384
74 386
74 387
74 388
74 390
74 392
74 393
74 394
74 396
74 397
74 398
74 399
74 401
74 402
74 403
74 404
74 405
74 406
74 407
74 408
74 409
74 410
74 411
74 413
74 416
74 417
74 418
74 419
74 420
74 421
74 422
74 423
74 425
74 426
74 427
74 429
74 430
74 431
74 432
74 433
74 434
74 436
74 437
74 438
74 439
74 440
74 441
74 442
74 443
74 445
74 446
74 449
74 450
74 451
74 453
74 454
74 455
74 456
74 458
74 459
74 460
74 461
74 462
74 463
74 464
74 466
74 468
74 470
74 472
74 473
74 474
74 476
74 477
74 478
74 479
74 480
74 481
74 482
74 483
74 484
74 486
74 487
74 488
74 489
74 490
74 491
74 492
74 493
74 494
74 496
74 497
74 500
74 501
74 502
74 503
74 504
74 505
74 506
74 508
74 509
74 510
74 511
74 512
74 513
74 514
74 515
74 517
74 518
74 521
74 522
74 523
74 524
74 525
74 526
74 528
74 531
74 532
74 533
74 534
74 535
74 536
74 537
74 539
74 540
74 541
74 542
74 543
74 544
74 545
74 547
74 550
74 551
74 552
74 554
74 555
74 556
74 557
74 559
74 560
74 561
74 563
74 564
74 566
74 568
74 569
74 570
74 572
74 573
74 577
74 579
74 580
74 581
74 583
74 584
74 585
74 586
74 587
74 588
74 589
74 590
74 591
74 592
74 594
74 595
74 596
74 598
75 76
75 77
75 78
75 79
75 80
75 81
75 82
75 83
75 84
75 85
75 86
75 87
75 88
75 89
75 90
75 91
75 92
75 93
75 94
75 95
75 96
75 97
75 98
75 99
75 100
75 101
75 102
75 103
75 104
75 105
75 106
75 108
75 109
75 111
75 114
75 115
75 116
75 118
75 119
75 120
75 121
75 122
75 124
75 126
75 127
75 128
75 129
75 130
75 131
75 132
75 133
75 135
75 136
75 137
75 138
75 139
75 141
75 142
75 143
75 144
75 146
75 149
75 150
75 151
75 153
75 154
75 155
75 156
75 157
75 160
75 161
75 162
75 163
75 164
75 165
75 166
75 167
75 169
75 170
75 171
75 172
75 173
75 175
75 176
75 177
75 178
75 179
75 180
75 181
75 182
75 183
75 185
75 186
75 187
75 189
75 190
75 191
75 192
75 193
75 194
75 195
75 197
75 198
75 199
75 200
75 201
75 202
75 203
75 204
75 205
75 206
75 207
75 208
75 209
75 210
75 211
75 212
75 214
75 216
75 217
75 218
75 219
75 220
75 222
75 223
75 224
75 225
75 226
75 228
75 230
75 231
75 232
75 234
75 235
75 237
75 238
75 239
75 241
75 242
75 243
75 245
75 246
75 247
75 248
75 249
75 250
75 251
75 252
75 253
75 254
75 256
75 257
75 258
75 259
75 260
75 261
75 262
75 263
75 264
75 265
75 266
75 268
75 269
75 270
75 271
75 274
75 276
75 278
75 279
75 280
75 281
75 282
75 284
75 285
75 286
75 287
75 289
75 290
75 291
75 292
75 293
75 294
75 295
75 296
75 298
75 299
75 300
75 301
75 302
75 303
75 304
75 305
75 306
75 308
75 309
75 310
75 311
75 312
75 313
75 315
75 316
75 317
75 318
75 319
75 320
75 322
75 323
75 324
75 325
75 327
75 328
75 330
75 333
75 334
75 336
75 338
75 339
75 340
75 341
75 342
75 343
75 345
75 346
75 347
75 349
75 351
75 352
75 353
75 354
75 355
75 356
75 357
75 358
75 359
75 360
75 361
75 362
75 364
75 365
75 366
75 367
75 368
75 369
75 370
75 371
75 372
75 373
75 374
75 375
75 376
75 378
75 380
75 381
75 383
75 384
75 386
75 387
75 388
75 390
75 392
75 393
75 394
75 396
75 397
75 398
75 399
75 401
75 402
75 403
75 404
75 405
75 406
75 408
75 409
75 410
75 411
75 412
75 413
75 416
75 417
75 418
75 419
75 420
75 421
75 422
75 423
75 425
75 426
75 427
75 429
75 430
75 431
75 432
75 433
75 434
75 436
75 437
75 438
75 439
75 440
75 441
75 442
75 443
75 445
75 446
75 449
75 450
75 451
75 453
75 454
75 455
75 456
75 458
75 459
75 460
75 461
75 462
75 463
75 464
75 466
75 468
75 469
75 472
75 473
75 474
75 476
75 477
75 478
75 479
75 481
75 482
75 483
75 484
75 485
75 486
75 487
75 488
75 489
75 490
75 491
75 492
75 493
75 494
75 496
75 497
75 500
75 501
75 502
75 503
75 504
75 505
75 506
75 508
75 509
75 510
75 511
75 512
75 513
75 514
75 515
75 517
75 518
75 521
75 522
75 523
75 524
75 525
75 526
75 528
75 531
75 532
75 533
75 534
75 535
75 536
75 537
75 539
75 540
75 541
75 542
75 543
75 544
75 545
75 547
75 550
75 551
75 552
75 554
75 555
75 556
75 557
75 559
75 560
75 561
75 563
75 564
75 566
75 568
75 569
75 570
75 572
75 573
75 577
75 579
75 580
75 581
75 583
75 584
75 585
75 586
75 587
75 588
75 589
75 590
75 591
75 592
75 594
75 595
75 596
75 598
76 77
76 78
76 79
76 80
76 81
76 82
76 83
76 84
76 85
76 86
76 87
76 88
76 89
76 90
76 91
76 92
76 93
76 94
76 95
76 96
76 97
76 98
76 99
76 100
76 101
76 102
76 103
76 104
76 105
76 106
76 108
76 109
76 111
76 114
76 115
76 116
76 118
76 119
76 120
76 121
76 122
76 124
76 126
76 127
76 128
76 129
76 130
76 131
76 132
76 133
76 135
76 136
76 137
76 138
76 139
76 141
76 142
76 143
76 144
76 146
76 149
76 150
76 151
76 153
76 154
76 155
76 156
76 157
76 160
76 161
76 162
76 163
76 164
76 165
76 166
76 167
76 169
76 170
76 172
76 173
76 174
76 175
76 176
76 177
76 178
76 179
76 180
76 181
76 182
76 183
76 185
76 186
76 187
76 189
76 190
76 191
76 192
76 193
76 194
76 195
76 196
76 197
76 198
76 199
76 200
76 201
76 203
76 205
76 206
76 207
76 208
76 209
76 210
76 211
76 212
76 214
76 216
76 217
76 218
76 219
76 220
76 221
76 222
76 223
76 224
76 226
76 228
76 230
76 231
76 232
76 234
76 235
76 237
76 238
76 239
76 241
76 242
76 243
76 244
76 245
76 246
76 247
76 248
76 250
76 251
76 252
76 253
76 254
76 255
76 256
76 257
76 258
76 260
76 261
76 262
76 263
76 264
76 265
76 266
76 268
76 269
76 270
76 271
76 274
76 276
76 278
76 279
76 280
76 281
76 282
76 284
76 285
76 286
76 287
76 288
76 289
76 290
76 291
76 293
76 294
76 296
76 297
76 298
76 299
76 300
76 301
76 302
76 303
76 304
76 306
76 307
76 308
76 309
76 310
76 311
76 312
76 313
76 315
76 316
76 317
76 318
76 319
76 320
76 322
76 323
76 324
76 325
76 327
76 328
76 330
76 333
76 334
76 336
76 338
76 339
76 340
76 341
76 342
76 343
76 345
76 346
76 347
76 349
76 351
76 352
76 353
76 354
76 355
76 356
76 357
76 358
76 359
76 360
76 361
76 362
76 363
76 364
76 367
76 368
76 369
76 371
76 372
76 373
76 374
76 375
76 376
76 378
76 380
76 381
76 383
76 384
76 386
76 387
76 388
76 390
76 392
76 393
76 394
76 396
76 397
76 398
76 399
76 401
76 402
76 403
76 404
76 405
76 406
76 407
76 408
76 409
76 410
76 411
76 413
76 416
76 417
76 418
76 419
76 420
76 421
76 422
76 423
76 425
76 426
76 427
76 429
76 430
76 431
76 432
76 433
76 434
76 436
76 437
76 438
76 439
76 441
76 442
76 443
76 444
76 445
76 446
76 449
76 450
76 451
76 453
76 454
76 456
76 457
76 458
76 459
76 460
76 461
76 462
76 463
76 464
76 466
76 468
76 469
76 472
76 473
76 474
76 476
76 477
76 478
76 479
76 480
76 481
76 482
76 483
76 484
76 486
76 487
76 488
76 489
76 490
76 491
76 492
76 494
76 495
76 496
76 497
76 498
76 499
76 500
76 501
76 502
76 503
76 504
76 505
76 506
76 507
76 508
76 509
76 510
76 511
76 512
76 514
76 515
76 516
76 517
76 518
76 519
76 520
76 521
76 522
76 523
76 524
76 525
76 526
76 527
76 528
76 531
76 532
76 533
76 534
76 535
76 536
76 537
76 539
76 540
76 541
76 542
76 543
76 544
76 546
76 547
76 548
76 549
76 550
76 551
76 552
76 553
76 554
76 555
76 556
76 557
76 558
76 559
76 560
76 561
76 562
76 563
76 564
76 566
76 568
76 569
76 570
76 572
76 573
76 577
76 579
76 580
76 581
76 583
76 584
76 585
76 586
76 587
76 588
76 589
76 590
76 591
76 592
76 594
76 595
76 596
76 598
77 78
77 79
77 80
77 81
77 82
77 83
77 84
77 85
77 86
77 87
77 88
77 89
77 90
77 91
77 92
77 93
77 94
77 95
77 96
77 97
77 98
77 99
77 100
77 101
77 102
77 103
77 104
77 105
77 106
77 108
77 109
77 111
77 114
77 115
77 116
77 118
77 119
77 120
77 121
77 122
77 124
77 126
77 127
77 128
77 129
77 130
77 131
77 132
77 133
77 135
77 136
77 137
77 138
77 139
77 141
77 142
77 143
77 144
77 146
77 149
77 150
77 151
77 153
77 154
77 155
77 156
77 157
77 160
77 161
77 162
77 163
77 164
77 165
77 166
77 167
77 169
77 170
77 171
77 172
77 173
77 175
77 176
77 177
77 178
77 179
77 180
77 181
77 182
77 183
77 185
77 186
77 187
77 189
77 190
77 191
77 192
77 193
77 194
77 195
77 196
77 198
77 199
77 200
77 201
77 202
77 203
77 204
77 205
77 206
77 207
77 208
77 209
77 210
77 211
77 212
77 214
77 216
77 217
77 218
77 219
77 220
77 221
77 222
77 223
77 224
77 226
77 228
77 230
77 231
77 232
77 234
77 235
77 237
77 238
77 239
77 241
77 242
77 243
77 244
77 246
77 247
77 248
77 249
77 250
77 251
77 252
77 253
77 254
77 255
77 257
77 258
77 259
77 260
77 261
77 262
77 263
77 264
77 265
77 266
77 268
77 269
77 270
77 271
77 274
77 276
77 278
77 279
77 280
77 281
77 282
77 284
77 285
77 286
77 287
77 288
77 290
77 291
77 292
77 293
77 294
77 295
77 296
77 298
77 299
77 300
77 301
77 302
77 303
77 304
77 305
77 306
77 308
77 309
77 310
77 311
77 312
77 313
77 315
77 316
77 317
77 318
77 319
77 320
77 322
77 323
77 324
77 325
77 327
77 328
77 330
77 333
77 334
77 336
77 338
77 339
77 340
77 341
77 342
77 343
77 345
77 346
77 347
77 349
77 351
77 352
77 353
77 354
77 355
77 356
77 357
77 358
77 359
77 360
77 361
77 362
77 363
77 365
77 366
77 367
77 368
77 369
77 370
77 371
77 372
77 373
77 374
77 375
77 376
77 378
77 380
77 381
77 383
77 384
77 386
77 387
77 388
77 390
77 392
77 393
77 394
77 396
77 397
77 398
77 399
77 401
77 402
77 403
77 404
77 405
77 406
77 407
77 409
77 410
77 411
77 412
77 413
77 416
77 417
77 418
77 419
77 421
77 422
77 423
77 424
77 425
77 426
77 427
77 429
77 430
77 431
77 432
77 433
77 434
77 436
77 437
77 438
77 439
77 440
77 441
77 442
77 443
77 445
77 446
77 449
77 450
77 451
77 453
77 454
77 455
77 456
77 458
77 459
77 460
77 461
77 462
77 463
77 464
77 466
77 468
77 469
77 472
77 473
77 474
77 476
77 477
77 478
77 479
77 480
77 482
77 483
77 484
77 485
77 486
77 487
77 488
77 489
77 490
77 491
77 492
77 493
77 494
77 496
77 497
77 500
77 501
77 502
77 503
77 504
77 505
77 506
77 508
77 509
77 510
77 511
77 512
77 513
77 514
77 515
77 517
77 518
77 521
77 522
77 523
77 524
77 525
77 526
77 528
77 531
77 532
77 533
77 534
77 535
77 536
77 537
77 539
77 540
77 541
77 542
77 543
77 544
77 545
77 547
77 550
77 551
77 552
77 554
77 555
77 556
77 557
77 559
77 560
77 561
77 563
77 564
77 566
77 568
77 569
77 570
77 572
77 573
77 577
77 579
77 580
77 581
77 583
77 584
77 585
77 586
77 587
77 588
77 589
77 590
77 591
77 592
77 594
77 595
77 596
77 598
78 79
78 80
78 81
78 82
78 83
78 84
78 85
78 86
78 87
78 88
78 89
78 90
78 91
78 92
78 93
78 94
78 95
78 96
78 97
78 98
78 99
78 100
78 101
78 102
78 103
78 104
78 105
78 106
78 108
78 109
78 111
78 114
78 115
78 116
78 118
78 119
78 120
78 121
78 122
78 124
78 126
78 127
78 128
78 129
78 130
78 131
78 132
78 133
78 135
78 136
78 137
78 138
78 139
78 141
78 142
78 143
78 144
78 146
78 149
78 150
78 151
78 153
78 154
78 155
78 156
78 157
78 160
78 161
78 162
78 163
78 164
78 165
78 166
78 167
78 169
78 170
78 171
78 172
78 173
78 175
78 176
78 177
78 178
78 179
78 180
78 181
78 182
78 183
78 185
78 186
78 187
78 189
78 190
78 191
78 192
78 193
78 194
78 195
78 196
78 197
78 198
78 199
78 200
78 201
78 203
78 205
78 206
78 207
78 208
78 209
78 210
78 211
78 212
78 214
78 216
78 217
78 218
78 219
78 220
78 221
78 222
78 223
78 224
78 226
78 228
78 230
78 231
78 232
78 234
78 235
78 237
78 238
78 239
78 241
78 242
78 243
78 244
78 245
78 246
78 247
78 248
78 250
78 251
78 252
78 253
78 254
78 255
78 256
78 257
78 258
78 260
78 261
78 262
78 263
78 264
78 265
78 266
78 268
78 269
78 270
78 271
78 274
78 276
78 278
78 279
78 280
78 281
78 282
78 284
78 285
78 286
78 287
78 288
78 289
78 290
78 291
78 293
78 294
78 295
78 296
78 298
78 299
78 300
78 301
78 302
78 303
78 304
78 305
78 306
78 308
78 309
78 310
78 311
78 312
78 313
78 315
78 316
78 317
78 318
78 319
78 320
78 322
78 323
78 324
78 325
78 327
78 328
78 330
78 333
78 334
78 336
78 338
78 339
78 340
78 341
78 342
78 343
78 345
78 346
78 347
78 349
78 351
78 352
78 353
78 354
78 355
78 356
78 357
78 358
78 359
78 360
78 361
78 362
78 363
78 364
78 367
78 368
78 369
78 371
78 372
78 373
78 374
78 375
78 376
78 378
78 380
78 381
78 383
78 384
78 386
78 387
78 388
78 390
78 392
78 393
78 394
78 396
78 397
78 398
78 399
78 401
78 402
78 403
78 404
78 405
78 406
78 407
78 408
78 409
78 410
78 411
78 413
78 416
78 417
78 418
78 419
78 420
78 421
78 422
78 423
78 425
78 426
78 427
78 429
78 430
78 431
78 432
78 433
78 434
78 436
78 437
78 438
78 439
78 440
78 441
78 442
78 443
78 445
78 446
78 449
78 450
78 451
78 453
78 454
78 455
78 456
78 458
78 459
78 460
78 461
78 462
78 463
78 464
78 466
78 468
78 469
78 472
78 473
78 474
78 476
78 477
78 478
78 479
78 480
78 481
78 482
78 483
78 484
78 486
78 487
78 488
78 489
78 490
78 491
78 492
78 493
78 494
78 496
78 497
78 500
78 501
78 502
78 503
78 504
78 505
78 506
78 508
78 509
78 510
78 511
78 512
78 513
78 514
78 515
78 517
78 518
78 521
78 522
78 523
78 524
78 525
78 526
78 528
78 531
78 532
78 533
78 534
78 535
78 536
78 537
78 539
78 540
78 541
78 542
78 543
78 544
78 545
78 547
78 550
78 551
78 552
78 554
78 555
78 556
78 557
78 559
78 560
78 561
78 563
78 564
78 566
78 568
78 569
78 570
78 572
78 573
78 577
78 579
78 580
78 581
78 583
78 584
78 585
78 586
78 587
78 588
78 589
78 590
78 591
78 592
78 593
78 595
78 596
78 597
78 598
79 80
79 81
79 82
79 83
79 84
79 85
79 86
79 87
79 88
79 89
79 90
79 91
79 92
79 93
79 94
79 95
79 96
79 97
79 98
79 99
79 100
79 101
79 102
79 103
79 104
79 105
79 106
79 108
79 109
79 111
79 113
79 114
79 115
79 117
79 118
79 119
79 120
79 121
79 122
79 124
79 126
79 127
79 128
79 129
79 130
79 131
79 132
79 133
79 135
79 136
79 137
79 138
79 139
79 141
79 142
79 143
79 144
79 146
79 149
79 150
79 151
79 153
79 154
79 155
79 156
79 157
79 160
79 161
79 162
79 163
79 164
79 165
79 166
79 167
79 169
79 170
79 171
79 172
79 173
79 175
79 176
79 177
79 178
79 179
79 180
79 181
79 182
79 183
79 185
79 186
79 187
79 189
79 190
79 191
79 192
79 193
79 194
79 195
79 196
79 197
79 198
79 199
79 200
79 201
79 203
79 205
79 206
79 207
79 208
79 209
79 210
79 211
79 212
79 214
79 216
79 217
79 218
79 219
79 220
79 221
79 222
79 223
79 224
79 226
79 227
79 228
79 229
79 230
79 231
79 233
79 234
79 235
79 236
79 237
79 238
79 239
79 241
79 242
79 243
79 244
79 245
79 246
79 247
79 248
79 250
79 251
79 252
79 253
79 254
79 255
79 256
79 257
79 258
79 260
79 261
79 262
79 263
79 264
79 265
79 266
79 268
79 269
79 270
79 271
79 274
79 275
79 276
79 277
79 278
79 280
79 281
79 282
79 284
79 285
79 286
79 287
79 288
79 289
79 290
79 291
79 293
79 294
79 295
79 296
79 298
79 299
79 300
79 301
79 302
79 303
79 304
79 305
79 306
79 308
79 309
79 310
79 311
79 312
79 313
79 315
79 316
79 317
79 318
79 319
79 320
79 322
79 323
79 324
79 325
79 327
79 328
79 330
79 333
79 334
79 336
79 338
79 339
79 340
79 341
79 342
79 343
79 345
79 346
79 347
79 349
79 351
79 352
79 353
79 354
79 355
79 356
79 357
79 358
79 359
79 360
79 361
79 362
79 363
79 364
79 367
79 368
79 369
79 371
79 372
79 373
79 374
79 375
79 376
79 377
79 378
79 379
79 380
79 382
79 383
79 384
79 385
79 386
79 387
79 388
79 389
79 390
79 391
79 392
79 393
79 395
79 396
79 397
79 398
79 399
79 400
79 401
79 402
79 403
79 404
79 405
79 406
79 407
79 408
79 409
79 410
79 411
79 413
79 416
79 417
79 418
79 419
79 420
79 421
79 422
79 423
79 425
79 426
79 427
79 429
79 430
79 431
79 432
79 433
79 434
79 436
79 437
79 438
79 439
79 440
79 441
79 442
79 443
79 445
79 446
79 449
79 451
79 452
79 453
79 454
79 455
79 456
79 458
79 459
79 460
79 461
79 462
79 463
79 464
79 466
79 468
79 469
79 472
79 473
79 474
79 476
79 477
79 478
79 479
79 480
79 481
79 482
79 483
79 484
79 486
79 487
79 488
79 489
79 490
79 491
79 492
79 493
79 494
79 496
79 497
79 500
79 501
79 502
79 503
79 504
79 505
79 506
79 508
79 509
79 510
79 511
79 512
79 513
79 514
79 515
79 517
79 518
79 521
79 522
79 523
79 524
79 525
79 526
79 528
79 531
79 532
79 533
79 534
79 535
79 536
79 537
79 539
79 540
79 541
79 542
79 543
79 544
79 545
79 547
79 550
79 551
79 552
79 554
79 555
79 556
79 557
79 559
79 560
79 561
79 563
79 564
79 565
79 566
79 567
79 568
79 569
79 571
79 572
79 573
79 574
79 577
79 579
79 580
79 581
79 583
79 584
79 585
79 586
79 587
79 588
79 589
79 590
79 591
79 592
79 594
79 595
79 596
79 598
80 81
80 82
80 83
80 84
80 85
80 86
80 87
80 88
80 89
80 90
80 91
80 92
80 93
80 94
80 95
80 96
80 97
80 98
80 99
80 100
80 101
80 102
80 103
80 104
80 105
80 106
80 108
80 109
80 111
80 114
80 115
80 116
80 118
80 119
80 120
80 121
80 122
80 124
80 126
80 127
80 128
80 129
80 130
80 131
80 132
80 133
80 135
80 136
80 137
80 138
80 139
80 141
80 142
80 143
80 144
80 146
80 149
80 150
80 151
80 153
80 154
80 155
80 156
80 157
80 160
80 161
80 162
80 163
80 164
80 165
80 166
80 167
80 169
80 170
80 171
80 172
80 173
80 175
80 176
80 177
80 178
80 179
80 180
80 181
80 182
80 183
80 185
80 186
80 187
80 189
80 190
80 191
80 192
80 193
80 194
80 195
80 196
80 197
80 198
80 199
80 200
80 201
80 203
80 205
80 206
80 207
80 208
80 209
80 210
80 212
80 213
80 214
80 216
80 217
80 218
80 219
80 220
80 221
80 222
80 223
80 224
80 226
80 228
80 230
80 231
80 232
80 234
80 235
80 237
80 238
80 239
80 241
80 242
80 243
80 244
80 245
80 246
80 247
80 248
80 250
80 251
80 252
80 253
80 254
80 255
80 256
80 257
80 258
80 260
80 261
80 262
80 263
80 264
80 266
80 267
80 268
80 269
80 270
80 271
80 274
80 276
80 278
80 279
80 280
80 281
80 282
80 284
80 285
80 286
80 287
80 288
80 289
80 290
80 291
80 293
80 294
80 295
80 296
80 298
80 299
80 300
80 301
80 302
80 303
80 304
80 305
80 306
80 308
80 309
80 310
80 311
80 312
80 313
80 315
80 316
80 317
80 318
80 319
80 320
80 322
80 323
80 324
80 325
80 327
80 328
80 330
80 333
80 334
80 336
80 338
80 339
80 340
80 341
80 343
80 344
80 345
80 346
80 347
80 349
80 351
80 352
80 353
80 354
80 355
80 356
80 357
80 358
80 359
80 360
80 361
80 362
80 363
80 364
80 367
80 368
80 369
80 371
80 372
80 373
80 374
80 375
80 376
80 378
80 380
80 381
80 383
80 384
80 386
80 387
80 388
80 390
80 392
80 393
80 394
80 396
80 397
80 398
80 399
80 401
80 402
80 403
80 404
80 405
80 406
80 407
80 408
80 409
80 410
80 411
80 413
80 416
80 417
80 418
80 419
80 420
80 421
80 422
80 423
80 425
80 426
80 427
80 429
80 430
80 431
80 432
80 433
80 435
80 436
80 437
80 438
80 439
80 440
80 441
80 442
80 443
80 445
80 446
80 449
80 450
80 451
80 453
80 454
80 455
80 456
80 458
80 459
80 460
80 461
80 462
80 463
80 464
80 466
80 468
80 469
80 472
80 473
80 474
80 476
80 477
80 478
80 479
80 480
80 481
80 482
80 483
80 484
80 486
80 487
80 488
80 489
80 490
80 491
80 492
80 493
80 494
80 496
80 497
80 500
80 501
80 502
80 503
80 504
80 505
80 506
80 508
80 509
80 510
80 511
80 512
80 513
80 514
80 515
80 517
80 518
80 521
80 522
80 523
80 524
80 525
80 526
80 528
80 531
80 532
80 533
80 534
80 535
80 537
80 538
80 539
80 540
80 541
80 542
80 543
80 544
80 545
80 547
80 550
80 551
80 552
80 554
80 555
80 556
80 557
80 559
80 560
80 561
80 563
80 564
80 566
80 568
80 569
80 570
80 572
80 573
80 577
80 579
80 580
80 581
80 583
80 584
80 585
80 586
80 587
80 588
80 589
80 590
80 591
80 592
80 593
80 594
80 596
80 597
80 598
81 82
81 83
81 84
81 85
81 86
81 87
81 88
81 89
81 90
81 91
81 92
81 93
81 94
81 95
81 96
81 97
81 98
81 99
81 100
81 101
81 102
81 103
81 104
81 105
81 106
81 108
81 109
81 111
81 114
81 115
81 116
81 118
81 119
81 120
81 121
81 122
81 124
81 126
81 127
81 128
81 129
81 130
81 131
81 132
81 133
81 135
81 136
81 137
81 138
81 139
81 141
81 142
81 143
81 144
81 146
81 149
81 150
81 151
81 153
81 154
81 155
81 156
81 157
81 160
81 161
81 162
81 163
81 164
81 165
81 166
81 167
81 169
81 170
81 171
81 173
81 174
81 175
81 176
81 177
81 178
81 179
81 180
81 181
81 182
81 183
81 185
81 186
81 187
81 189
81 190
81 191
81 192
81 193
81 194
81 195
81 196
81 197
81 198
81 199
81 200
81 201
81 203
81 205
81 206
81 207
81 208
81 209
81 210
81 211
81 212
81 214
81 216
81 217
81 218
81 219
81 220
81 221
81 222
81 223
81 224
81 226
81 228
81 230
81 231
81 232
81 234
81 235
81 237
81 238
81 239
81 241
81 242
81 243
81 244
81 245
81 246
81 247
81 248
81 250
81 251
81 252
81 253
81 254
81 255
81 256
81 257
81 258
81 260
81 261
81 262
81 263
81 264
81 265
81 266
81 268
81 269
81 270
81 271
81 274
81 276
81 278
81 279
81 280
81 281
81 282
81 284
81 285
81 286
81 287
81 288
81 289
81 290
81 291
81 293
81 294
81 295
81 296
81 298
81 299
81 300
81 301
81 302
81 303
81 304
81 305
81 306
81 308
81 309
81 310
81 311
81 312
81 313
81 315
81 316
81 317
81 318
81 319
81 320
81 322
81 323
81 324
81 325
81 327
81 328
81 330
81 333
81 334
81 336
81 338
81 339
81 340
81 341
81 342
81 343
81 345
81 346
81 347
81 349
81 351
81 352
81 353
81 354
81 355
81 356
81 357
81 358
81 359
81 360
81 361
81 362
81 363
81 364
81 367
81 368
81 369
81 371
81 372
81 373
81 374
81 375
81 376
81 378
81 380
81 381
81 383
81 384
81 386
81 387
81 388
81 390
81 392
81 393
81 394
81 396
81 397
81 398
81 399
81 401
81 402
81 403
81 404
81 405
81 406
81 407
81 408
81 409
81 410
81 411
81 413
81 416
81 417
81 418
81 419
81 420
81 421
81 422
81 423
81 425
81 426
81 427
81 429
81 430
81 431
81 432
81 433
81 434
81 436
81 437
81 438
81 439
81 440
81 441
81 442
81 443
81 445
81 446
81 449
81 450
81 451
81 453
81 454
81 455
81 456
81 458
81 459
81 460
81 461
81 462
81 463
81 464
81 466
81 468
81 469
81 472
81 473
81 474
81 476
81 477
81 478
81 479
81 480
81 481
81 482
81 483
81 484
81 486
81 487
81 488
81 489
81 490
81 491
81 492
81 493
81 495
81 496
81 497
81 498
81 499
81 500
81 501
81 502
81 503
81 504
81 505
81 506
81 507
81 508
81 509
81 510
81 511
81 512
81 513
81 515
81 516
81 517
81 518
81 519
81 520
81 521
81 522
81 523
81 524
81 525
81 526
81 527
81 528
81 531
81 532
81 533
81 534
81 535
81 536
81 537
81 539
81 540
81 541
81 542
81 543
81 544
81 545
81 547
81 550
81 551
81 552
81 554
81 555
81 556
81 557
81 559
81 560
81 561
81 563
81 564
81 566
81 568
81 569
81 570
81 572
81 573
81 577
81 579
81 580
81 581
81 583
81 584
81 585
81 586
81 587
81 588
81 589
81 590
81 591
81 592
81 594
81 595
81 596
81 598
82 83
82 84
82 85
82 86
82 87
82 88
82 89
82 90
82 91
82 92
82 93
82 94
82 95
82 96
82 97
82 98
82 99
82 100
82 101
82 102
82 103
82 104
82 105
82 106
82 108
82 109
82 111
82 114
82 115
82 116
82 118
82 119
82 120
82 121
82 122
82 124
82 126
82 127
82 128
82 129
82 130
82 131
82 132
82 133
82 135
82 136
82 137
82 138
82 139
82 141
82 142
82 143
82 144
82 146
82 149
82 150
82 151
82 153
82 154
82 155
82 156
82 157
82 160
82 161
82 162
82 163
82 164
82 165
82 166
82 167
82 169
82 170
82 171
82 172
82 173
82 175
82 176
82 177
82 178
82 179
82 180
82 181
82 182
82 183
82 185
82 186
82 187
82 189
82 190
82 191
82 192
82 193
82 194
82 195
82 196
82 197
82 198
82 199
82 200
82 201
82 203
82 205
82 206
82 207
82 208
82 209
82 210
82 211
82 213
82 214
82 216
82 217
82 218
82 219
82 220
82 221
82 222
82 223
82 224
82 226
82 228
82 230
82 231
82 232
82 234
82 235
82 237
82 238
82 239
82 241
82 242
82 243
82 244
82 245
82 246
82 247
82 248
82 250
82 251
82 252
82 253
82 254
82 255
82 256
82 257
82 258
82 260
82 261
82 262
82 263
82 264
82 265
82 267
82 268
82 269
82 270
82 271
82 274
82 276
82 278
82 279
82 280
82 281
82 282
82 284
82 285
82 286
82 287
82 288
82 289
82 290
82 291
82 293
82 294
82 295
82 296
82 298
82 299
82 300
82 301
82 302
82 303
82 304
82 305
82 306
82 308
82 309
82 310
82 311
82 312
82 313
82 315
82 316
82 317
82 318
82 319
82 321
82 322
82 323
82 324
82 325
82 327
82 328
82 330
82 333
82 334
82 336
82 338
82 339
82 340
82 341
82 342
82 344
82 345
82 346
82 347
82 349
82 351
82 352
82 353
82 354
82 355
82 356
82 357
82 358
82 359
82 360
82 361
82 362
82 363
82 364
82 367
82 368
82 369
82 371
82 372
82 373
82 374
82 375
82 376
82 378
82 380
82 381
82 383
82 384
82 386
82 387
82 388
82 390
82 392
82 393
82 394
82 396
82 397
82 398
82 399
82 401
82 402
82 403
82 404
82 405
82 406
82 407
82 408
82 409
82 410
82 411
82 413
82 416
82 417
82 418
82 419
82 420
82 421
82 422
82 423
82 425
82 426
82 427
82 429
82 430
82 431
82 432
82 433
82 434
82 436
82 437
82 438
82 439
82 440
82 441
82 442
82 443
82 445
82 446
82 449
82 450
82 451
82 453
82 454
82 455
82 456
82 458
82 459
82 460
82 461
82 462
82 463
82 464
82 466
82 468
82 469
82 472
82 473
82 474
82 476
82 477
82 478
82 479
82 480
82 481
82 482
82 483
82 484
82 486
82 487
82 488
82 489
82 490
82 491
82 492
82 493
82 494
82 496
82 497
82 500
82 501
82 502
82 503
82 504
82 505
82 506
82 508
82 509
82 510
82 511
82 512
82 513
82 514
82 515
82 517
82 518
82 521
82 522
82 523
82 524
82 525
82 526
82 528
82 531
82 532
82 533
82 534
82 535
82 536
82 538
82 539
82 540
82 541
82 542
82 543
82 544
82 545
82 547
82 550
82 551
82 552
82 554
82 555
82 556
82 557
82 559
82 560
82 561
82 563
82 564
82 566
82 568
82 569
82 570
82 572
82 573
82 577
82 579
82 580
82 581
82 583
82 584
82 585
82 586
82 587
82 588
82 589
82 590
82 591
82 592
82 593
82 594
82 595
82 597
82 598
83 84
83 85
83 86
83 87
83 88
83 89
83 90
83 91
83 92
83 93
83 94
83 95
83 96
83 97
83 98
83 99
83 100
83 101
83 102
83 103
83 104
83 105
83 106
83 108
83 109
83 111
83 114
83 115
83 116
83 118
83 119
83 120
83 121
83 122
83 124
83 126
83 127
83 128
83 129
83 130
83 131
83 132
83 133
83 135
83 136
83 137
83 138
83 139
83 141
83 142
83 143
83 144
83 146
83 149
83 150
83 151
83 153
83 154
83 155
83 156
83 157
83 160
83 161
83 162
83 163
83 164
83 165
83 166
83 167
83 169
83 170
83 171
83 172
83 173
83 175
83 176
83 177
83 178
83 179
83 180
83 181
83 182
83 183
83 185
83 186
83 187
83 189
83 190
83 191
83 192
83 193
83 194
83 195
83 196
83 197
83 199
83 200
83 201
83 202
83 203
83 204
83 205
83 206
83 207
83 208
83 209
83 210
83 211
83 212
83 214
83 216
83 217
83 218
83 219
83 220
83 221
83 223
83 224
83 225
83 226
83 228
83 230
83 231
83 232
83 234
83 235
83 237
83 238
83 239
83 241
83 242
83 243
83 244
83 245
83 247
83 248
83 249
83 250
83 251
83 252
83 253
83 254
83 255
83 256
83 257
83 258
83 260
83 261
83 262
83 263
83 264
83 265
83 266
83 268
83 269
83 270
83 271
83 274
83 276
83 278
83 279
83 280
83 281
83 282
83 284
83 285
83 286
83 287
83 288
83 289
83 291
83 292
83 293
83 294
83 295
83 296
83 298
83 299
83 300
83 301
83 302
83 303
83 304
83 305
83 306
83 308
83 309
83 310
83 311
83 312
83 313
83 315
83 316
83 317
83 318
83 319
83 320
83 322
83 323
83 324
83 325
83 327
83 328
83 330
83 333
83 334
83 336
83 338
83 339
83 340
83 341
83 342
83 343
83 345
83 346
83 347
83 349
83 351
83 352
83 353
83 354
83 355
83 356
83 357
83 358
83 359
83 360
83 361
83 362
83 363
83 364
83 365
83 366
83 368
83 369
83 370
83 371
83 372
83 373
83 374
83 375
83 376
83 378
83 380
83 381
83 383
83 384
83 386
83 387
83 388
83 390
83 392
83 393
83 394
83 396
83 397
83 398
83 399
83 401
83 402
83 403
83 404
83 405
83 406
83 407
83 408
83 410
83 411
83 412
83 413
83 416
83 417
83 418
83 419
83 420
83 422
83 423
83 424
83 425
83 426
83 427
83 429
83 430
83 431
83 432
83 433
83 434
83 436
83 437
83 438
83 439
83 440
83 441
83 442
83 443
83 445
83 446
83 449
83 450
83 451
83 453
83 454
83 455
83 456
83 458
83 459
83 460
83 461
83 462
83 463
83 464
83 466
83 468
83 469
83 472
83 473
83 474
83 476
83 477
83 478
83 479
83 480
83 481
83 483
83 484
83 485
83 486
83 487
83 488
83 489
83 490
83 491
83 492
83 493
83 494
83 496
83 497
83 500
83 501
83 502
83 503
83 504
83 505
83 506
83 508
83 509
83 510
83 511
83 512
83 513
83 514
83 515
83 517
83 518
83 521
83 522
83 523
83 524
83 525
83 526
83 528
83 531
83 532
83 533
83 534
83 535
83 536
83 537
83 539
83 540
83 541
83 542
83 543
83 544
83 545
83 547
83 550
83 551
83 552
83 554
83 555
83 556
83 557
83 559
83 560
83 561
83 563
83 564
83 566
83 568
83 569
83 570
83 572
83 573
83 577
83 579
83 580
83 581
83 583
83 584
83 585
83 586
83 587
83 588
83 589
83 590
83 591
83 592
83 594
83 595
83 596
83 598
84 85
84 86
84 87
84 88
84 89
84 90
84 91
84 92
84 93
84 94
84 95
84 96
84 97
84 98
84 99
84 100
84 101
84 102
84 103
84 104
84 105
84 106
84 108
84 110
84 111
84 112
84 114
84 115
84 116
84 118
84 119
84 120
84 121
84 123
84 124
84 125
84 126
84 127
84 128
84 129
84 130
84 131
84 132
84 133
84 135
84 136
84 137
84 138
84 139
84 140
84 142
84 143
84 144
84 145
84 146
84 147
84 148
84 149
84 150
84 152
84 153
84 154
84 155
84 156
84 158
84 159
84 160
84 161
84 162
84 163
84 164
84 165
84 166
84 167
84 169
84 170
84 171
84 172
84 174
84 175
84 176
84 177
84 178
84 179
84 180
84 181
84 183
84 184
84 185
84 186
84 187
84 188
84 189
84 190
84 191
84 192
84 193
84 194
84 195
84 196
84 197
84 198
84 199
84 200
84 201
84 203
84 205
84 206
84 207
84 208
84 209
84 210
84 211
84 212
84 214
84 216
84 217
84 218
84 219
84 220
84 221
84 222
84 223
84 224
84 226
84 228
84 230
84 231
84 232
84 234
84 235
84 237
84 238
84 239
84 241
84 242
84 243
84 244
84 245
84 246
84 247
84 248
84 250
84 251
84 252
84 253
84 254
84 255
84 256
84 257
84 258
84 260
84 261
84 262
84 263
84 264
84 265
84 266
84 268
84 269
84 270
84 272
84 273
84 274
84 276
84 278
84 279
84 280
84 281
84 282
84 284
84 285
84 286
84 287
84 288
84 289
84 290
84 291
84 293
84 294
84 295
84 297
84 298
84 299
84 300
84 301
84 302
84 303
84 304
84 305
84 307
84 308
84 309
84 310
84 311
84 312
84 313
84 315
84 316
84 317
84 318
84 319
84 320
84 322
84 323
84 324
84 325
84 327
84 329
84 330
84 331
84 332
84 333
84 334
84 335
84 336
84 338
84 339
84 340
84 341
84 342
84 343
84 345
84 346
84 348
84 349
84 350
84 351
84 352
84 353
84 354
84 355
84 356
84 357
84 358
84 359
84 360
84 361
84 362
84 363
84 364
84 367
84 368
84 369
84 371
84 372
84 373
84 374
84 375
84 376
84 378
84 380
84 381
84 383
84 384
84 386
84 387
84 388
84 390
84 392
84 393
84 394
84 396
84 397
84 398
84 399
84 401
84 402
84 403
84 404
84 405
84 406
84 407
84 408
84 409
84 410
84 411
84 413
84 416
84 417
84 418
84 419
84 420
84 421
84 422
84 423
84 425
84 426
84 427
84 429
84 430
84 431
84 432
84 433
84 434
84 436
84 437
84 438
84 439
84 440
84 442
84 443
84 444
84 445
84 446
84 449
84 450
84 451
84 453
84 454
84 455
84 457
84 458
84 459
84 460
84 461
84 462
84 463
84 464
84 466
84 468
84 469
84 472
84 473
84 474
84 476
84 477
84 478
84 479
84 480
84 481
84 482
84 483
84 484
84 486
84 487
84 488
84 489
84 490
84 491
84 492
84 493
84 494
84 496
84 497
84 500
84 501
84 502
84 503
84 504
84 505
84 506
84 508
84 509
84 510
84 511
84 512
84 513
84 514
84 516
84 517
84 518
84 519
84 520
84 521
84 522
84 523
84 524
84 525
84 526
84 527
84 528
84 531
84 532
84 533
84 534
84 535
84 536
84 537
84 539
84 540
84 541
84 542
84 543
84 544
84 545
84 546
84 548
84 549
84 550
84 551
84 552
84 553
84 554
84 555
84 556
84 557
84 558
84 559
84 560
84 561
84 562
84 563
84 564
84 566
84 568
84 569
84 570
84 572
84 573
84 577
84 579
84 580
84 582
84 583
84 584
84 585
84 586
84 587
84 588
84 589
84 590
84 591
84 592
84 594
84 595
84 596
84 598
85 86
85 87
85 88
85 89
85 90
85 91
85 92
85 93
85 94
85 95
85 96
85 97
85 98
85 99
85 100
85 101
85 102
85 103
85 104
85 105
85 106
85 108
85 109
85 111
85 114
85 115
85 116
85 118
85 119
85 120
85 121
85 122
85 124
85 126
85 127
85 128
85 129
85 130
85 131
85 132
85 133
85 135
85 136
85 137
85 138
85 139
85 140
85 141
85 143
85 144
85 145
85 146
85 147
85 148
85 149
85 150
85 151
85 153
85 154
85 155
85 156
85 157
85 160
85 161
85 162
85 163
85 164
85 165
85 166
85 167
85 169
85 170
85 171
85 172
85 173
85 175
85 176
85 177
85 178
85 179
85 180
85 181
85 182
85 183
85 185
85 186
85 187
85 189
85 190
85 191
85 192
85 193
85 194
85 195
85 196
85 197
85 198
85 199
85 200
85 201
85 203
85 205
85 206
85 207
85 208
85 209
85 210
85 211
85 212
85 214
85 216
85 217
85 218
85 219
85 220
85 221
85 222
85 223
85 224
85 226
85 228
85 230
85 231
85 232
85 234
85 235
85 237
85 238
85 239
85 241
85 242
85 243
85 244
85 245
85 246
85 247
85 248
85 250
85 251
85 252
85 253
85 254
85 255
85 256
85 257
85 258
85 260
85 261
85 262
85 263
85 264
85 265
85 266
85 268
85 269
85 270
85 271
85 274
85 276
85 278
85 279
85 280
85 281
85 282
85 284
85 285
85 286
85 287
85 288
85 289
85 290
85 291
85 293
85 294
85 295
85 296
85 298
85 299
85 300
85 301
85 302
85 303
85 304
85 305
85 306
85 308
85 309
85 310
85 311
85 312
85 313
85 315
85 316
85 317
85 318
85 319
85 320
85 322
85 323
85 324
85 325
85 327
85 328
85 330
85 333
85 334
85 336
85 338
85 339
85 340
85 341
85 342
85 343
85 345
85 346
85 347
85 349
85 351
85 352
85 353
85 354
85 355
85 356
85 357
85 358
85 359
85 360
85 361
85 362
85 363
85 364
85 367
85 368
85 369
85 371
85 372
85 373
85 374
85 375
85 376
85 378
85 380
85 381
85 383
85 384
85 386
85 387
85 388
85 390
85 392
85 393
85 394
85 396
85 397
85 398
85 399
85 401
85 402
85 403
85 404
85 405
85 406
85 407
85 408
85 409
85 410
85 411
85 413
85 416
85 417
85 418
85 419
85 420
85 421
85 422
85 423
85 425
85 426
85 427
85 429
85 430
85 431
85 432
85 433
85 434
85 436
85 437
85 438
85 439
85 440
85 441
85 442
85 443
85 445
85 446
85 449
85 450
85 452
85 453
85 454
85 455
85 456
85 458
85 459
85 460
85 461
85 462
85 463
85 464
85 466
85 468
85 469
85 472
85 473
85 474
85 476
85 477
85 478
85 479
85 480
85 481
85 482
85 483
85 484
85 486
85 487
85 488
85 489
85 490
85 491
85 492
85 493
85 494
85 496
85 497
85 500
85 501
85 502
85 503
85 504
85 505
85 506
85 508
85 509
85 510
85 511
85 512
85 513
85 514
85 515
85 517
85 518
85 521
85 522
85 523
85 524
85 525
85 526
85 528
85 531
85 532
85 533
85 534
85 535
85 536
85 537
85 539
85 540
85 541
85 542
85 543
85 544
85 545
85 547
85 550
85 551
85 552
85 554
85 555
85 556
85 557
85 559
85 560
85 561
85 563
85 564
85 566
85 568
85 569
85 570
85 572
85 573
85 577
85 579
85 580
85 581
85 583
85 584
85 585
85 586
85 587
85 588
85 589
85 590
85 591
85 592
85 594
85 595
85 596
85 598
86 87
86 88
86 89
86 90
86 91
86 92
86 93
86 94
86 95
86 96
86 97
86 98
86 99
86 100
86 101
86 102
86 103
86 104
86 105
86 106
86 108
86 109
86 111
86 113
86 114
86 115
86 116
86 117
86 119
86 120
86 121
86 122
86 124
86 126
86 127
86 128
86 129
86 130
86 131
86 132
86 133
86 135
86 136
86 137
86 138
86 139
86 140
86 141
86 142
86 144
86 145
86 146
86 147
86 148
86 149
86 150
86 151
86 153
86 154
86 155
86 156
86 157
86 160
86 161
86 162
86 163
86 164
86 165
86 166
86 167
86 169
86 170
86 171
86 172
86 173
86 175
86 176
86 177
86 178
86 179
86 180
86 181
86 182
86 183
86 185
86 186
86 187
86 189
86 190
86 191
86 192
86 193
86 194
86 195
86 196
86 197
86 198
86 200
86 201
86 202
86 203
86 204
86 205
86 206
86 207
86 208
86 209
86 210
86 211
86 212
86 214
86 216
86 217
86 218
86 219
86 220
86 221
86 222
86 223
86 224
86 226
86 227
86 228
86 229
86 230
86 231
86 232
86 233
86 235
86 236
86 237
86 238
86 239
86 241
86 242
86 243
86 244
86 245
86 246
86 247
86 248
86 250
86 251
86 252
86 253
86 254
86 255
86 256
86 257
86 258
86 260
86 261
86 262
86 263
86 264
86 265
86 266
86 268
86 269
86 270
86 271
86 274
86 275
86 276
86 277
86 278
86 279
86 281
86 282
86 284
86 285
86 286
86 287
86 288
86 289
86 290
86 291
86 293
86 294
86 295
86 296
86 298
86 299
86 300
86 301
86 302
86 303
86 304
86 305
86 306
86 308
86 309
86 310
86 311
86 312
86 313
86 315
86 316
86 317
86 318
86 319
86 320
86 322
86 323
86 324
86 325
86 327
86 328
86 330
86 333
86 334
86 336
86 338
86 339
86 340
86 341
86 342
86 343
86 345
86 346
86 347
86 349
86 351
86 352
86 353
86 354
86 355
86 356
86 357
86 358
86 359
86 360
86 361
86 362
86 363
86 364
86 365
86 366
86 367
86 369
86 370
86 371
86 372
86 373
86 374
86 375
86 376
86 377
86 378
86 379
86 380
86 381
86 382
86 384
86 385
86 386
86 387
86 388
86 389
86 390
86 391
86 392
86 393
86 394
86 395
86 397
86 398
86 399
86 400
86 401
86 402
86 403
86 404
86 405
86 406
86 407
86 408
86 409
86 410
86 411
86 413
86 416
86 417
86 418
86 419
86 420
86 421
86 422
86 423
86 425
86 426
86 427
86 429
86 430
86 431
86 432
86 433
86 434
86 436
86 437
86 438
86 439
86 440
86 441
86 442
86 443
86 445
86 446
86 449
86 450
86 451
86 453
86 454
86 455
86 456
86 458
86 459
86 460
86 461
86 462
86 463
86 464
86 466
86 468
86 469
86 472
86 473
86 474
86 476
86 477
86 478
86 479
86 480
86 481
86 482
86 483
86 484
86 486
86 487
86 488
86 489
86 490
86 491
86 492
86 493
86 494
86 496
86 497
86 500
86 501
86 502
86 503
86 504
86 505
86 506
86 508
86 509
86 510
86 511
86 512
86 513
86 514
86 515
86 517
86 518
86 521
86 522
86 523
86 524
86 525
86 526
86 528
86 531
86 532
86 533
86 534
86 535
86 536
86 537
86 539
86 540
86 541
86 542
86 543
86 544
86 545
86 547
86 550
86 551
86 552
86 554
86 555
86 556
86 557
86 559
86 560
86 561
86 563
86 564
86 566
86 568
86 569
86 570
86 572
86 573
86 577
86 579
86 580
86 581
86 583
86 584
86 585
86 586
86 587
86 588
86 589
86 590
86 591
86 592
86 594
86 595
86 596
86 598
87 88
87 89
87 90
87 91
87 92
87 93
87 94
87 95
87 96
87 97
87 98
87 99
87 100
87 101
87 102
87 103
87 104
87 105
87 106
87 108
87 109
87 111
87 114
87 115
87 116
87 118
87 119
87 120
87 121
87 122
87 124
87 126
87 127
87 128
87 129
87 130
87 131
87 132
87 133
87 135
87 136
87 137
87 138
87 139
87 141
87 142
87 143
87 144
87 146
87 149
87 150
87 151
87 153
87 154
87 155
87 156
87 157
87 160
87 161
87 162
87 163
87 164
87 165
87 166
87 167
87 169
87 170
87 171
87 172
87 173
87 175
87 176
87 177
87 178
87 179
87 180
87 181
87 182
87 183
87 185
87 186
87 187
87 189
87 190
87 191
87 192
87 193
87 194
87 195
87 196
87 197
87 198
87 199
87 200
87 201
87 203
87 205
87 206
87 207
87 208
87 209
87 210
87 211
87 212
87 214
87 216
87 217
87 218
87 219
87 220
87 221
87 222
87 223
87 224
87 226
87 228
87 230
87 231
87 232
87 234
87 235
87 237
87 238
87 239
87 241
87 242
87 243
87 244
87 245
87 246
87 247
87 248
87 250
87 251
87 252
87 253
87 254
87 255
87 256
87 257
87 258
87 260
87 261
87 262
87 263
87 264
87 265
87 266
87 268
87 269
87 270
87 271
87 274
87 276
87 278
87 279
87 280
87 281
87 282
87 284
87 285
87 286
87 287
87 288
87 289
87 290
87 291
87 293
87 294
87 295
87 296
87 298
87 299
87 300
87 301
87 302
87 303
87 304
87 305
87 306
87 308
87 309
87 310
87 311
87 312
87 313
87 315
87 316
87 317
87 318
87 319
87 320
87 322
87 323
87 324
87 325
87 327
87 328
87 329
87 331
87 332
87 333
87 334
87 335
87 336
87 338
87 339
87 340
87 341
87 342
87 343
87 345
87 346
87 347
87 349
87 351
87 352
87 353
87 354
87 355
87 356
87 357
87 358
87 359
87 360
87 361
87 362
87 363
87 364
87 367
87 368
87 369
87 371
87 372
87 373
87 374
87 375
87 376
87 378
87 380
87 381
87 383
87 384
87 386
87 387
87 388
87 390
87 392
87 393
87 394
87 396
87 397
87 398
87 399
87 401
87 402
87 403
87 404
87 405
87 406
87 407
87 408
87 409
87 410
87 411
87 413
87 416
87 417
87 418
87 419
87 420
87 421
87 422
87 423
87 425
87 426
87 427
87 429
87 430
87 431
87 432
87 433
87 434
87 436
87 437
87 438
87 439
87 440
87 441
87 443
87 444
87 445
87 446
87 449
87 450
87 451
87 453
87 454
87 455
87 456
87 458
87 459
87 460
87 461
87 462
87 463
87 464
87 466
87 468
87 469
87 472
87 473
87 474
87 476
87 477
87 478
87 479
87 480
87 481
87 482
87 483
87 484
87 486
87 487
87 488
87 489
87 490
87 491
87 492
87 493
87 494
87 495
87 497
87 498
87 499
87 500
87 501
87 502
87 503
87 504
87 505
87 506
87 507
87 508
87 509
87 510
87 511
87 512
87 513
87 514
87 515
87 516
87 518
87 519
87 520
87 521
87 522
87 523
87 524
87 525
87 526
87 527
87 528
87 531
87 532
87 533
87 534
87 535
87 536
87 537
87 539
87 540
87 541
87 542
87 543
87 544
87 545
87 546
87 547
87 548
87 549
87 551
87 552
87 553
87 554
87 555
87 556
87 557
87 558
87 559
87 560
87 561
87 562
87 563
87 564
87 566
87 568
87 569
87 570
87 572
87 573
87 577
87 579
87 580
87 581
87 583
87 584
87 585
87 586
87 587
87 588
87 589
87 590
87 591
87 592
87 594
87 595
87 596
87 598
88 89
88 90
88 91
88 92
88 93
88 94
88 95
88 96
88 97
88 98
88 99
88 100
88 101
88 102
88 103
88 104
88 105
88 106
88 108
88 109
88 111
88 114
88 115
88 116
88 118
88 119
88 120
88 121
88 122
88 123
88 125
88 126
88 127
88 128
88 129
88 130
88 131
88 132
88 133
88 135
88 136
88 137
88 138
88 139
88 141
88 142
88 143
88 144
88 146
88 149
88 150
88 151
88 153
88 154
88 155
88 156
88 157
88 160
88 161
88 162
88 163
88 164
88 165
88 166
88 167
88 169
88 170
88 171
88 172
88 173
88 175
88 176
88 177
88 178
88 179
88 180
88 181
88 182
88 184
88 185
88 186
88 187
88 188
88 189
88 190
88 191
88 192
88 193
88 194
88 195
88 196
88 197
88 198
88 199
88 200
88 201
88 203
88 205
88 206
88 207
88 208
88 209
88 210
88 211
88 212
88 214
88 216
88 217
88 218
88 219
88 220
88 221
88 222
88 223
88 224
88 226
88 228
88 230
88 231
88 232
88 234
88 235
88 237
88 238
88 239
88 241
88 242
88 243
88 244
88 245
88 246
88 247
88 248
88 250
88 251
88 252
88 253
88 254
88 255
88 256
88 257
88 258
88 260
88 261
88 262
88 263
88 264
88 265
88 266
88 268
88 269
88 270
88 271
88 274
88 276
88 278
88 279
88 280
88 281
88 282
88 284
88 285
88 286
88 287
88 288
88 289
88 290
88 291
88 293
88 294
88 295
88 296
88 298
88 299
88 300
88 301
88 302
88 303
88 304
88 305
88 306
88 308
88 309
88 310
88 311
88 312
88 313
88 315
88 316
88 317
88 318
88 319
88 320
88 322
88 323
88 324
88 325
88 327
88 328
88 330
88 333
88 334
88 336
88 338
88 339
88 340
88 341
88 342
88 343
88 345
88 346
88 347
88 348
88 350
88 351
88 352
88 353
88 354
88 355
88 356
88 357
88 358
88 359
88 360
88 361
88 362
88 363
88 364
88 367
88 368
88 369
88 371
88 372
88 373
88 374
88 375
88 376
88 378
88 380
88 381
88 383
88 384
88 386
88 387
88 388
88 390
88 392
88 393
88 394
88 396
88 397
88 398
88 399
88 401
88 402
88 403
88 404
88 405
88 406
88 407
88 408
88 409
88 410
88 411
88 413
88 416
88 417
88 418
88 419
88 420
88 421
88 422
88 423
88 425
88 426
88 427
88 429
88 430
88 431
88 432
88 433
88 434
88 436
88 437
88 438
88 439
88 440
88 441
88 442
88 444
88 445
88 446
88 449
88 450
88 451
88 453
88 454
88 455
88 456
88 458
88 459
88 460
88 461
88 462
88 463
88 464
88 466
88 468
88 469
88 472
88 473
88 474
88 476
88 477
88 478
88 479
88 480
88 481
88 482
88 483
88 484
88 486
88 487
88 488
88 489
88 490
88 491
88 492
88 493
88 494
88 495
88 496
88 498
88 499
88 500
88 501
88 502
88 503
88 504
88 505
88 506
88 507
88 508
88 509
88 510
88 511
88 512
88 513
88 514
88 515
88 516
88 517
88 519
88 520
88 521
88 522
88 523
88 524
88 525
88 526
88 527
88 528
88 531
88 532
88 533
88 534
88 535
88 536
88 537
88 539
88 540
88 541
88 542
88 543
88 544
88 545
88 546
88 547
88 548
88 549
88 550
88 552
88 553
88 554
88 555
88 556
88 557
88 558
88 559
88 560
88 561
88 562
88 563
88 564
88 566
88 568
88 569
88 570
88 572
88 573
88 577
88 579
88 580
88 581
88 583
88 584
88 585
88 586
88 587
88 588
88 589
88 590
88 591
88 592
88 594
88 595
88 596
88 598
89 90
89 91
89 92
89 93
89 94
89 95
89 96
89 97
89 98
89 99
89 100
89 101
89 102
89 103
89 104
89 105
89 106
89 108
89 109
89 111
89 114
89 115
89 116
89 118
89 119
89 120
89 121
89 122
89 124
89 126
89 127
89 128
89 129
89 130
89 131
89 132
89 134
89 135
89 136
89 137
89 138
89 139
89 140
89 141
89 142
89 143
89 145
89 146
89 147
89 148
89 149
89 150
89 151
89 153
89 154
89 155
89 156
89 157
89 160
89 161
89 162
89 163
89 164
89 165
89 166
89 167
89 169
89 170
89 171
89 172
89 173
89 175
89 176
89 177
89 178
89 179
89 180
89 181
89 182
89 183
89 185
89 186
89 187
89 189
89 190
89 191
89 192
89 193
89 194
89 195
89 196
89 197
89 198
89 199
89 201
89 202
89 203
89 204
89 205
89 206
89 207
89 208
89 209
89 210
89 211
89 212
89 214
89 216
89 217
89 218
89 219
89 220
89 221
89 222
89 224
89 225
89 226
89 228
89 230
89 231
89 232
89 234
89 235
89 237
89 238
89 239
89 241
89 242
89 243
89 244
89 245
89 246
89 248
89 249
89 250
89 251
89 252
89 253
89 254
89 255
89 256
89 258
89 259
89 260
89 261
89 262
89 263
89 264
89 265
89 266
89 268
89 269
89 270
89 271
89 274
89 276
89 278
89 279
89 280
89 281
89 282
89 284
89 285
89 286
89 287
89 288
89 289
89 290
89 292
89 293
89 294
89 295
89 296
89 298
89 299
89 300
89 301
89 302
89 303
89 304
89 305
89 306
89 308
89 309
89 310
89 311
89 312
89 313
89 315
89 316
89 317
89 318
89 319
89 320
89 322
89 323
89 324
89 325
89 327
89 328
89 330
89 333
89 334
89 336
89 338
89 339
89 340
89 341
89 342
89 343
89 345
89 346
89 347
89 349
89 351
89 352
89 353
89 354
89 355
89 356
89 357
89 358
89 359
89 360
89 361
89 362
89 363
89 364
89 367
89 368
89 369
89 371
89 372
89 373
89 375
89 376
89 378
89 380
89 381
89 383
89 384
89 386
89 387
89 388
89 389
89 390
89 391
89 392
89 393
89 394
89 395
89 396
89 398
89 399
89 400
89 401
89 402
89 403
89 404
89 405
89 406
89 407
89 408
89 409
89 411
89 412
89 413
89 416
89 417
89 418
89 419
89 420
89 421
89 423
89 424
89 425
89 426
89 427
89 429
89 430
89 431
89 432
89 433
89 434
89 436
89 437
89 438
89 439
89 440
89 441
89 442
89 443
89 445
89 446
89 449
89 450
89 451
89 453
89 454
89 455
89 456
89 458
89 459
89 460
89 461
89 462
89 463
89 464
89 465
89 467
89 468
89 469
89 472
89 473
89 475
89 476
89 477
89 478
89 479
89 480
89 481
89 482
89 484
89 485
89 486
89 487
89 488
89 489
89 490
89 491
89 492
89 493
89 494
89 496
89 497
89 500
89 501
89 502
89 503
89 504
89 505
89 506
89 508
89 509
89 510
89 511
89 512
89 513
89 514
89 515
89 517
89 518
89 521
89 522
89 523
89 524
89 525
89 526
89 528
89 531
89 532
89 533
89 534
89 535
89 536
89 537
89 539
89 540
89 541
89 542
89 543
89 544
89 545
89 546
89 547
89 548
89 549
89 550
89 551
89 553
89 554
89 555
89 556
89 557
89 558
89 559
89 560
89 561
89 562
89 563
89 564
89 565
89 566
89 567
89 568
89 569
89 570
89 571
89 573
89 574
89 579
89 580
89 581
89 583
89 584
89 585
89 586
89 587
89 588
89 589
89 590
89 591
89 592
89 594
89 595
89 596
89 598
90 91
90 92
90 93
90 94
90 95
90 96
90 97
90 98
90 99
90 100
90 101
90 102
90 103
90 104
90 105
90 106
90 108
90 109
90 111
90 114
90 115
90 116
90 118
90 119
90 120
90 121
90 122
90 124
90 126
90 127
90 128
90 129
90 130
90 131
90 132
90 133
90 135
90 136
90 137
90 138
90 139
90 141
90 142
90 143
90 144
90 146
90 149
90 150
90 151
90 153
90 154
90 155
90 156
90 157
90 160
90 161
90 162
90 163
90 164
90 165
90 166
90 167
90 169
90 170
90 171
90 172
90 173
90 175
90 176
90 177
90 178
90 179
90 180
90 181
90 182
90 183
90 185
90 186
90 187
90 189
90 190
90 191
90 192
90 193
90 194
90 195
90 196
90 197
90 198
90 199
90 200
90 202
90 203
90 204
90 205
90 206
90 207
90 208
90 209
90 210
90 211
90 212
90 214
90 216
90 217
90 218
90 219
90 220
90 221
90 222
90 223
90 225
90 226
90 228
90 230
90 231
90 232
90 234
90 235
90 237
90 238
90 239
90 241
90 242
90 243
90 244
90 245
90 246
90 247
90 249
90 250
90 251
90 252
90 253
90 254
90 255
90 256
90 257
90 259
90 260
90 261
90 262
90 263
90 264
90 265
90 266
90 268
90 269
90 270
90 271
90 274
90 276
90 278
90 279
90 280
90 281
90 282
90 284
90 285
90 286
90 287
90 288
90 289
90 290
90 291
90 293
90 294
90 295
90 296
90 298
90 299
90 300
90 301
90 302
90 303
90 304
90 305
90 306
90 308
90 309
90 310
90 311
90 312
90 313
90 315
90 316
90 317
90 318
90 319
90 320
90 322
90 323
90 324
90 325
90 327
90 328
90 330
90 333
90 334
90 336
90 338
90 339
90 340
90 341
90 342
90 343
90 345
90 346
90 347
90 349
90 351
90 352
90 353
90 354
90 355
90 356
90 357
90 358
90 359
90 360
90 361
90 362
90 363
90 364
90 365
90 366
90 367
90 368
90 370
90 371
90 372
90 373
90 374
90 375
90 376
90 378
90 380
90 381
90 383
90 384
90 386
90 387
90 388
90 390
90 392
90 393
90 394
90 396
90 397
90 398
90 399
90 401
90 402
90 403
90 404
90 405
90 406
90 407
90 408
90 409
90 410
90 412
90 413
90 416
90 417
90 418
90 419
90 420
90 421
90 422
90 424
90 425
90 426
90 427
90 429
90 430
90 431
90 432
90 433
90 434
90 436
90 437
90 438
90 439
90 440
90 441
90 442
90 443
90 445
90 446
90 449
90 450
90 451
90 453
90 454
90 455
90 456
90 458
90 459
90 460
90 461
90 462
90 463
90 464
90 466
90 468
90 469
90 472
90 473
90 474
90 476
90 477
90 478
90 479
90 480
90 481
90 482
90 483
90 485
90 486
90 487
90 488
90 489
90 490
90 491
90 492
90 493
90 494
90 496
90 497
90 500
90 501
90 502
90 503
90 504
90 505
90 506
90 508
90 509
90 510
90 511
90 512
90 513
90 514
90 515
90 517
90 518
90 521
90 522
90 523
90 524
90 525
90 526
90 528
90 531
90 532
90 533
90 534
90 535
90 536
90 537
90 539
90 540
90 541
90 542
90 543
90 544
90 545
90 547
90 550
90 551
90 552
90 554
90 555
90 556
90 557
90 559
90 560
90 561
90 563
90 564
90 566
90 568
90 569
90 570
90 572
90 573
90 577
90 579
90 580
90 581
90 583
90 584
90 585
90 586
90 587
90 588
90 589
90 590
90 591
90 592
90 594
90 595
90 596
90 598
91 92
91 93
91 94
91 95
91 96
91 97
91 98
91 99
91 100
91 101
91 102
91 103
91 104
91 105
91 106
91 108
91 109
91 111
91 113
91 114
91 115
91 116
91 117
91 118
91 120
91 121
91 122
91 124
91 126
91 127
91 128
91 129
91 130
91 131
91 132
91 133
91 135
91 136
91 137
91 138
91 139
91 141
91 142
91 143
91 144
91 146
91 149
91 150
91 151
91 153
91 154
91 155
91 156
91 157
91 160
91 161
91 162
91 163
91 164
91 165
91 166
91 167
91 169
91 170
91 171
91 172
91 173
91 175
91 176
91 177
91 178
91 179
91 180
91 181
91 182
91 183
91 185
91 186
91 187
91 189
91 190
91 191
91 192
91 193
91 194
91 195
91 196
91 197
91 198
91 199
91 200
91 201
91 203
91 205
91 206
91 207
91 208
91 209
91 210
91 211
91 212
91 214
91 216
91 217
91 218
91 219
91 220
91 221
91 222
91 223
91 224
91 226
91 227
91 228
91 229
91 230
91 231
91 232
91 233
91 234
91 236
91 237
91 238
91 240
91 241
91 242
91 243
91 244
91 245
91 246
91 247
91 248
91 250
91 251
91 252
91 253
91 254
91 255
91 256
91 257
91 258
91 260
91 261
91 262
91 263
91 264
91 265
91 266
91 268
91 269
91 270
91 271
91 274
91 275
91 276
91 277
91 278
91 279
91 280
91 282
91 284
91 285
91 286
91 287
91 288
91 289
91 290
91 291
91 293
91 294
91 295
91 296
91 298
91 299
91 300
91 301
91 302
91 303
91 304
91 305
91 306
91 308
91 309
91 310
91 311
91 312
91 313
91 315
91 316
91 317
91 318
91 319
91 320
91 322
91 323
91 325
91 326
91 327
91 328
91 330
91 333
91 334
91 336
91 338
91 339
91 340
91 341
91 342
91 343
91 345
91 346
91 347
91 349
91 351
91 352
91 353
91 354
91 355
91 356
91 357
91 358
91 359
91 360
91 361
91 362
91 363
91 364
91 367
91 368
91 369
91 371
91 372
91 373
91 374
91 375
91 376
91 378
91 380
91 381
91 383
91 384
91 386
91 387
91 388
91 389
91 390
91 391
91 392
91 393
91 394
91 395
91 396
91 397
91 399
91 400
91 401
91 402
91 403
91 404
91 405
91 406
91 407
91 408
91 409
91 410
91 411
91 413
91 416
91 417
91 418
91 419
91 420
91 421
91 422
91 423
91 425
91 426
91 427
91 429
91 430
91 431
91 432
91 433
91 434
91 436
91 437
91 438
91 439
91 440
91 441
91 442
91 443
91 445
91 446
91 449
91 450
91 451
91 453
91 454
91 455
91 456
91 458
91 459
91 460
91 461
91 462
91 463
91 464
91 466
91 468
91 469
91 472
91 473
91 474
91 476
91 477
91 478
91 479
91 480
91 481
91 482
91 483
91 484
91 486
91 487
91 488
91 489
91 490
91 491
91 492
91 493
91 494
91 496
91 497
91 500
91 501
91 502
91 503
91 504
91 505
91 506
91 508
91 509
91 510
91 511
91 512
91 513
91 514
91 515
91 517
91 518
91 521
91 522
91 523
91 524
91 525
91 526
91 528
91 531
91 532
91 533
91 534
91 535
91 536
91 537
91 539
91 540
91 541
91 542
91 543
91 544
91 545
91 547
91 550
91 551
91 552
91 554
91 555
91 556
91 557
91 559
91 560
91 561
91 563
91 564
91 565
91 566
91 567
91 568
91 569
91 570
91 571
91 572
91 574
91 577
91 579
91 580
91 581
91 583
91 584
91 585
91 586
91 587
91 588
91 589
91 590
91 591
91 592
91 594
91 595
91 596
91 598
92 93
92 94
92 95
92 96
92 97
92 98
92 99
92 100
92 101
92 102
92 103
92 104
92 105
92 106
92 108
92 109
92 111
92 114
92 115
92 116
92 118
92 119
92 120
92 121
92 122
92 124
92 126
92 127
92 128
92 129
92 130
92 131
92 132
92 133
92 135
92 136
92 137
92 138
92 139
92 141
92 142
92 143
92 144
92 146
92 149
92 150
92 151
92 153
92 154
92 155
92 156
92 157
92 160
92 161
92 162
92 163
92 164
92 165
92 166
92 167
92 169
92 170
92 171
92 172
92 173
92 175
92 176
92 177
92 178
92 179
92 180
92 181
92 182
92 183
92 185
92 186
92 187
92 189
92 190
92 191
92 192
92 193
92 194
92 195
92 196
92 197
92 198
92 199
92 200
92 201
92 203
92 205
92 206
92 207
92 208
92 209
92 210
92 211
92 212
92 214
92 216
92 217
92 218
92 219
92 220
92 221
92 222
92 223
92 224
92 226
92 228
92 230
92 231
92 232
92 234
92 235
92 237
92 238
92 239
92 241
92 242
92 243
92 244
92 245
92 246
92 247
92 248
92 250
92 251
92 252
92 253
92 254
92 255
92 256
92 257
92 258
92 260
92 261
92 262
92 263
92 264
92 265
92 266
92 268
92 269
92 270
92 271
92 274
92 276
92 278
92 279
92 280
92 281
92 282
92 284
92 285
92 286
92 287
92 288
92 289
92 290
92 291
92 293
92 294
92 295
92 296
92 298
92 299
92 300
92 301
92 302
92 303
92 304
92 305
92 306
92 308
92 309
92 310
92 311
92 312
92 313
92 315
92 316
92 317
92 318
92 319
92 320
92 322
92 323
92 324
92 326
92 327
92 328
92 330
92 333
92 334
92 336
92 338
92 339
92 340
92 341
92 342
92 343
92 345
92 346
92 347
92 349
92 351
92 352
92 353
92 354
92 355
92 356
92 357
92 358
92 359
92 360
92 361
92 362
92 363
92 364
92 367
92 368
92 369
92 371
92 372
92 373
92 374
92 375
92 376
92 377
92 378
92 379
92 380
92 381
92 382
92 383
92 385
92 386
92 387
92 388
92 389
92 390
92 391
92 392
92 393
92 394
92 395
92 396
92 397
92 398
92 400
92 401
92 402
92 403
92 404
92 405
92 406
92 407
92 408
92 409
92 410
92 411
92 413
92 416
92 417
92 418
92 419
92 420
92 421
92 422
92 423
92 425
92 426
92 427
92 429
92 430
92 431
92 432
92 433
92 434
92 436
92 437
92 438
92 439
92 440
92 441
92 442
92 443
92 445
92 446
92 449
92 450
92 451
92 453
92 454
92 455
92 456
92 458
92 459
92 460
92 461
92 462
92 463
92 464
92 466
92 468
92 469
92 472
92 473
92 474
92 476
92 477
92 478
92 479
92 480
92 481
92 482
92 483
92 484
92 486
92 487
92 488
92 489
92 490
92 491
92 492
92 493
92 494
92 496
92 497
92 500
92 501
92 502
92 503
92 504
92 505
92 506
92 508
92 509
92 510
92 511
92 512
92 513
92 514
92 515
92 517
92 518
92 521
92 522
92 523
92 524
92 525
92 526
92 528
92 531
92 532
92 533
92 534
92 535
92 536
92 537
92 539
92 540
92 541
92 542
92 543
92 544
92 545
92 547
92 550
92 551
92 552
92 554
92 555
92 556
92 557
92 559
92 560
92 561
92 563
92 564
92 566
92 568
92 569
92 570
92 572
92 573
92 577
92 579
92 580
92 581
92 583
92 584
92 585
92 586
92 587
92 588
92 589
92 590
92 591
92 592
92 594
92 595
92 596
92 598
93 94
93 95
93 96
93 97
93 98
93 99
93 100
93 101
93 102
93 103
93 104
93 105
93 106
93 108
93 109
93 111
93 114
93 115
93 116
93 118
93 119
93 120
93 121
93 122
93 124
93 126
93 127
93 128
93 129
93 130
93 131
93 132
93 133
93 135
93 136
93 137
93 138
93 139
93 141
93 142
93 143
93 144
93 146
93 149
93 150
93 151
93 153
93 154
93 155
93 156
93 157
93 160
93 161
93 162
93 163
93 164
93 165
93 166
93 167
93 169
93 170
93 171
93 172
93 173
93 175
93 176
93 177
93 178
93 179
93 180
93 181
93 182
93 183
93 185
93 186
93 187
93 189
93 190
93 191
93 192
93 193
93 194
93 195
93 196
93 197
93 198
93 199
93 200
93 201
93 203
93 205
93 206
93 207
93 208
93 209
93 210
93 211
93 212
93 214
93 216
93 217
93 218
93 219
93 220
93 221
93 222
93 223
93 224
93 226
93 228
93 230
93 231
93 232
93 234
93 235
93 237
93 238
93 239
93 241
93 242
93 243
93 244
93 245
93 246
93 247
93 248
93 250
93 251
93 252
93 253
93 254
93 255
93 256
93 257
93 258
93 260
93 261
93 262
93 263
93 264
93 265
93 266
93 268
93 269
93 270
93 271
93 274
93 276
93 278
93 279
93 280
93 281
93 282
93 284
93 285
93 286
93 287
93 288
93 289
93 290
93 291
93 293
93 294
93 295
93 296
93 298
93 299
93 300
93 301
93 302
93 303
93 304
93 305
93 306
93 308
93 309
93 310
93 311
93 312
93 313
93 315
93 316
93 317
93 318
93 319
93 320
93 322
93 323
93 324
93 325
93 327
93 328
93 330
93 333
93 334
93 336
93 338
93 339
93 340
93 341
93 342
93 343
93 345
93 346
93 347
93 349
93 351
93 352
93 353
93 354
93 355
93 356
93 357
93 358
93 359
93 360
93 361
93 362
93 363
93 364
93 367
93 368
93 369
93 371
93 372
93 373
93 374
93 375
93 376
93 378
93 380
93 381
93 383
93 384
93 386
93 387
93 388
93 390
93 392
93 393
93 394
93 396
93 397
93 398
93 399
93 401
93 402
93 403
93 404
93 405
93 406
93 407
93 408
93 409
93 410
93 411
93 413
93 416
93 417
93 418
93 419
93 420
93 421
93 422
93 423
93 425
93 426
93 427
93 429
93 430
93 431
93 432
93 433
93 434
93 436
93 437
93 438
93 439
93 440
93 441
93 442
93 443
93 445
93 446
93 449
93 450
93 451
93 453
93 454
93 455
93 456
93 458
93 459
93 460
93 461
93 462
93 463
93 464
93 466
93 468
93 469
93 472
93 473
93 474
93 476
93 477
93 478
93 479
93 480
93 481
93 482
93 483
93 484
93 486
93 487
93 488
93 489
93 490
93 491
93 492
93 493
93 494
93 496
93 497
93 500
93 501
93 502
93 503
93 504
93 505
93 506
93 508
93 509
93 510
93 511
93 512
93 513
93 514
93 515
93 517
93 518
93 521
93 522
93 523
93 524
93 525
93 526
93 528
93 531
93 532
93 533
93 534
93 535
93 536
93 537
93 539
93 540
93 541
93 542
93 543
93 544
93 545
93 547
93 550
93 551
93 552
93 554
93 555
93 556
93 557
93 559
93 560
93 561
93 563
93 564
93 566
93 568
93 569
93 570
93 572
93 573
93 577
93 579
93 580
93 581
93 583
93 584
93 585
93 586
93 587
93 588
93 589
93 590
93 591
93 592
93 594
93 595
93 596
93 598
94 95
94 96
94 97
94 98
94 99
94 100
94 101
94 102
94 103
94 104
94 105
94 106
94 108
94 109
94 111
94 114
94 115
94 116
94 118
94 119
94 120
94 121
94 122
94 124
94 126
94 127
94 128
94 129
94 130
94 131
94 132
94 133
94 135
94 136
94 137
94 138
94 139
94 141
94 142
94 143
94 144
94 146
94 149
94 150
94 151
94 153
94 154
94 155
94 156
94 157
94 160
94 161
94 162
94 163
94 164
94 165
94 166
94 167
94 169
94 170
94 171
94 172
94 173
94 174
94 176
94 177
94 178
94 179
94 180
94 181
94 182
94 183
94 185
94 186
94 187
94 189
94 190
94 191
94 192
94 193
94 194
94 195
94 196
94 197
94 198
94 199
94 200
94 201
94 203
94 205
94 206
94 207
94 208
94 209
94 210
94 211
94 212
94 214
94 216
94 217
94 218
94 219
94 220
94 221
94 222
94 223
94 224
94 226
94 228
94 230
94 231
94 232
94 234
94 235
94 237
94 238
94 239
94 241
94 242
94 243
94 244
94 245
94 246
94 247
94 248
94 250
94 251
94 252
94 253
94 254
94 255
94 256
94 257
94 258
94 260
94 261
94 262
94 263
94 264
94 265
94 266
94 268
94 269
94 270
94 271
94 274
94 276
94 278
94 279
94 280
94 281
94 282
94 284
94 285
94 286
94 287
94 288
94 289
94 290
94 291
94 293
94 294
94 295
94 296
94 297
94 299
94 300
94 301
94 302
94 303
94 304
94 305
94 306
94 308
94 309
94 310
94 311
94 312
94 313
94 315
94 316
94 317
94 318
94 319
94 320
94 322
94 323
94 324
94 325
94 327
94 328
94 330
94 333
94 334
94 336
94 338
94 339
94 340
94 341
94 342
94 343
94 345
94 346
94 347
94 349
94 351
94 352
94 353
94 354
94 355
94 356
94 357
94 358
94 359
94 360
94 361
94 362
94 363
94 364
94 367
94 368
94 369
94 371
94 372
94 373
94 374
94 375
94 376
94 378
94 380
94 381
94 383
94 384
94 386
94 387
94 388
94 390
94 392
94 393
94 394
94 396
94 397
94 398
94 399
94 401
94 402
94 403
94 404
94 405
94 406
94 407
94 408
94 409
94 410
94 411
94 413
94 416
94 417
94 418
94 419
94 420
94 421
94 422
94 423
94 425
94 426
94 427
94 429
94 430
94 431
94 432
94 433
94 434
94 436
94 437
94 438
94 439
94 440
94 441
94 442
94 443
94 445
94 446
94 449
94 450
94 451
94 453
94 454
94 455
94 456
94 457
94 459
94 460
94 461
94 462
94 463
94 464
94 466
94 468
94 469
94 472
94 473
94 474
94 476
94 477
94 478
94 479
94 480
94 481
94 482
94 483
94 484
94 486
94 487
94 488
94 489
94 490
94 491
94 492
94 493
94 494
94 495
94 496
94 497
94 498
94 499
94 501
94 502
94 503
94 504
94 505
94 506
94 507
94 508
94 509
94 510
94 511
94 512
94 513
94 514
94 515
94 516
94 517
94 518
94 519
94 520
94 522
94 523
94 524
94 525
94 526
94 527
94 528
94 531
94 532
94 533
94 534
94 535
94 536
94 537
94 539
94 540
94 541
94 542
94 543
94 544
94 545
94 546
94 547
94 548
94 549
94 550
94 551
94 552
94 553
94 555
94 556
94 557
94 558
94 559
94 560
94 561
94 562
94 563
94 564
94 566
94 568
94 569
94 570
94 572
94 573
94 577
94 579
94 580
94 581
94 582
94 584
94 585
94 586
94 587
94 588
94 589
94 590
94 591
94 592
94 594
94 595
94 596
94 598
95 96
95 97
95 98
95 99
95 100
95 101
95 102
95 103
95 104
95 105
95 106
95 108
95 109
95 110
95 112
95 114
95 115
95 116
95 118
95 119
95 120
95 121
95 122
95 123
95 124
95 125
95 127
95 128
95 129
95 130
95 131
95 132
95 133
95 135
95 136
95 137
95 138
95 139
95 140
95 141
95 142
95 143
95 144
95 145
95 147
95 148
95 149
95 150
95 151
95 152
95 154
95 155
95 156
95 157
95 158
95 159
95 161
95 162
95 163
95 164
95 165
95 166
95 167
95 169
95 170
95 171
95 172
95 173
95 174
95 175
95 177
95 178
95 179
95 180
95 181
95 182
95 183
95 184
95 186
95 187
95 188
95 189
95 190
95 191
95 192
95 193
95 194
95 195
95 196
95 197
95 198
95 199
95 200
95 201
95 203
95 205
95 206
95 207
95 208
95 209
95 210
95 211
95 212
95 214
95 216
95 217
95 218
95 219
95 220
95 221
95 222
95 223
95 224
95 226
95 228
95 230
95 231
95 232
95 234
95 235
95 237
95 238
95 239
95 241
95 242
95 243
95 244
95 245
95 246
95 247
95 248
95 250
95 251
95 252
95 253
95 254
95 255
95 256
95 257
95 258
95 260
95 261
95 262
95 263
95 264
95 265
95 266
95 268
95 269
95 270
95 271
95 272
95 273
95 276
95 278
95 279
95 280
95 281
95 282
95 284
95 285
95 286
95 287
95 288
95 289
95 290
95 291
95 293
95 294
95 295
95 296
95 297
95 298
95 300
95 301
95 302
95 303
95 304
95 305
95 306
95 307
95 309
95 310
95 311
95 312
95 313
95 315
95 316
95 317
95 318
95 319
95 320
95 322
95 323
95 324
95 325
95 327
95 328
95 329
95 330
95 331
95 332
95 334
95 335
95 336
95 338
95 339
95 340
95 341
95 342
95 343
95 345
95 346
95 347
95 348
95 349
95 350
95 352
95 353
95 354
95 355
95 356
95 357
95 358
95 359
95 360
95 361
95 362
95 363
95 364
95 367
95 368
95 369
95 371
95 372
95 373
95 374
95 375
95 376
95 378
95 380
95 381
95 383
95 384
95 386
95 387
95 388
95 390
95 392
95 393
95 394
95 396
95 397
95 398
95 399
95 401
95 402
95 403
95 404
95 405
95 406
95 407
95 408
95 409
95 410
95 411
95 413
95 416
95 417
95 418
95 419
95 420
95 421
95 422
95 423
95 425
95 426
95 427
95 429
95 430
95 431
95 432
95 433
95 434
95 436
95 437
95 438
95 439
95 440
95 441
95 442
95 443
95 444
95 446
95 449
95 450
95 451
95 453
95 454
95 455
95 456
95 457
95 458
95 460
95 461
95 462
95 463
95 464
95 466
95 468
95 469
95 472
95 473
95 474
95 476
95 477
95 478
95 479
95 480
95 481
95 482
95 483
95 484
95 486
95 487
95 488
95 489
95 490
95 491
95 492
95 493
95 494
95 495
95 496
95 497
95 498
95 499
95 500
95 502
95 503
95 504
95 505
95 506
95 507
95 508
95 509
95 510
95 511
95 512
95 513
95 514
95 515
95 517
95 518
95 521
95 522
95 523
95 524
95 525
95 526
95 528
95 531
95 532
95 533
95 534
95 535
95 536
95 537
95 539
95 540
95 541
95 542
95 543
95 544
95 545
95 546
95 547
95 548
95 549
95 550
95 551
95 552
95 553
95 554
95 556
95 557
95 558
95 559
95 560
95 561
95 562
95 563
95 564
95 566
95 568
95 569
95 570
95 572
95 573
95 577
95 579
95 580
95 581
95 582
95 583
95 585
95 586
95 587
95 588
95 589
95 590
95 591
95 592
95 594
95 595
95 596
95 598
96 97
96 98
96 99
96 100
96 101
96 102
96 103
96 104
96 105
96 106
96 108
96 109
96 111
96 114
96 115
96 116
96 118
96 119
96 120
96 121
96 122
96 124
96 126
96 127
96 128
96 129
96 130
96 131
96 132
96 133
96 135
96 136
96 137
96 138
96 139
96 141
96 142
96 143
96 144
96 146
96 149
96 150
96 151
96 153
96 154
96 155
96 156
96 157
96 160
96 161
96 162
96 163
96 164
96 165
96 166
96 167
96 169
96 170
96 171
96 172
96 173
96 175
96 176
96 177
96 178
96 179
96 180
96 181
96 182
96 183
96 185
96 186
96 187
96 189
96 190
96 191
96 192
96 193
96 194
96 195
96 196
96 197
96 198
96 199
96 200
96 201
96 202
96 204
96 205
96 206
96 207
96 208
96 209
96 210
96 211
96 212
96 214
96 216
96 217
96 218
96 219
96 220
96 221
96 222
96 223
96 224
96 225
96 228
96 230
96 231
96 232
96 234
96 235
96 237
96 238
96 239
96 241
96 242
96 243
96 244
96 245
96 246
96 247
96 248
96 249
96 251
96 252
96 253
96 254
96 255
96 256
96 257
96 258
96 259
96 261
96 262
96 263
96 264
96 265
96 266
96 268
96 269
96 270
96 271
96 274
96 276
96 278
96 279
96 280
96 281
96 282
96 284
96 285
96 286
96 287
96 288
96 289
96 290
96 291
96 292
96 294
96 295
96 296
96 298
96 299
96 300
96 301
96 302
96 303
96 304
96 305
96 306
96 308
96 309
96 310
96 311
96 312
96 313
96 315
96 316
96 317
96 318
96 319
96 320
96 322
96 323
96 324
96 325
96 327
96 328
96 330
96 333
96 334
96 336
96 338
96 339
96 340
96 341
96 342
96 343
96 345
96 346
96 347
96 349
96 351
96 352
96 353
96 354
96 355
96 356
96 357
96 358
96 359
96 360
96 361
96 362
96 363
96 364
96 365
96 366
96 367
96 368
96 369
96 370
96 372
96 373
96 374
96 375
96 376
96 378
96 380
96 381
96 383
96 384
96 386
96 387
96 388
96 390
96 392
96 393
96 394
96 396
96 397
96 398
96 399
96 401
96 402
96 403
96 404
96 405
96 406
96 407
96 408
96 409
96 410
96 411
96 412
96 416
96 417
96 418
96 419
96 420
96 421
96 422
96 423
96 424
96 426
96 427
96 429
96 430
96 431
96 432
96 433
96 434
96 436
96 437
96 438
96 439
96 440
96 441
96 442
96 443
96 445
96 446
96 449
96 450
96 451
96 453
96 454
96 455
96 456
96 458
96 459
96 460
96 461
96 462
96 463
96 464
96 466
96 468
96 469
96 472
96 473
96 474
96 476
96 477
96 478
96 479
96 480
96 481
96 482
96 483
96 484
96 485
96 487
96 488
96 489
96 490
96 491
96 492
96 493
96 494
96 496
96 497
96 500
96 501
96 502
96 503
96 504
96 505
96 506
96 508
96 509
96 510
96 511
96 512
96 513
96 514
96 515
96 517
96 518
96 521
96 522
96 523
96 524
96 525
96 526
96 528
96 531
96 532
96 533
96 534
96 535
96 536
96 537
96 539
96 540
96 541
96 542
96 543
96 544
96 545
96 547
96 550
96 551
96 552
96 554
96 555
96 556
96 557
96 559
96 560
96 561
96 563
96 564
96 566
96 568
96 569
96 570
96 572
96 573
96 577
96 579
96 580
96 581
96 583
96 584
96 585
96 586
96 587
96 588
96 589
96 590
96 591
96 592
96 594
96 595
96 596
96 598
97 98
97 99
97 100
97 101
97 102
97 103
97 104
97 105
97 106
97 108
97 109
97 111
97 114
97 115
97 116
97 118
97 119
97 120
97 121
97 122
97 124
97 126
97 127
97 128
97 129
97 130
97 131
97 132
97 133
97 135
97 136
97 137
97 138
97 139
97 141
97 142
97 143
97 144
97 146
97 149
97 150
97 151
97 152
97 153
97 155
97 156
97 157
97 160
97 161
97 162
97 163
97 164
97 165
97 166
97 167
97 169
97 170
97 171
97 172
97 173
97 175
97 176
97 177
97 178
97 179
97 180
97 181
97 182
97 183
97 185
97 186
97 187
97 189
97 190
97 191
97 192
97 193
97 194
97 195
97 196
97 197
97 198
97 199
97 200
97 201
97 203
97 205
97 206
97 207
97 208
97 209
97 210
97 211
97 212
97 214
97 216
97 217
97 218
97 219
97 220
97 221
97 222
97 223
97 224
97 226
97 228
97 230
97 231
97 232
97 234
97 235
97 237
97 238
97 239
97 241
97 242
97 243
97 244
97 245
97 246
97 247
97 248
97 250
97 251
97 252
97 253
97 254
97 255
97 256
97 257
97 258
97 260
97 261
97 262
97 263
97 264
97 265
97 266
97 268
97 269
97 270
97 271
97 274
97 276
97 278
97 279
97 280
97 281
97 282
97 284
97 285
97 286
97 287
97 288
97 289
97 290
97 291
97 293
97 294
97 295
97 296
97 297
97 298
97 299
97 301
97 302
97 303
97 304
97 305
97 306
97 307
97 308
97 310
97 311
97 312
97 313
97 315
97 316
97 317
97 318
97 319
97 320
97 322
97 323
97 324
97 325
97 327
97 328
97 330
97 333
97 334
97 336
97 338
97 339
97 340
97 341
97 342
97 343
97 345
97 346
97 347
97 349
97 351
97 352
97 353
97 354
97 355
97 356
97 357
97 358
97 359
97 360
97 361
97 362
97 363
97 364
97 367
97 368
97 369
97 371
97 372
97 373
97 374
97 375
97 376
97 378
97 380
97 381
97 383
97 384
97 386
97 387
97 388
97 390
97 392
97 393
97 394
97 396
97 397
97 398
97 399
97 401
97 402
97 403
97 404
97 405
97 406
97 407
97 408
97 409
97 410
97 411
97 413
97 416
97 417
97 418
97 419
97 420
97 421
97 422
97 423
97 425
97 426
97 427
97 429
97 430
97 431
97 432
97 433
97 434
97 436
97 437
97 438
97 439
97 440
97 441
97 442
97 443
97 445
97 446
97 449
97 450
97 451
97 453
97 454
97 455
97 456
97 457
97 458
97 459
97 461
97 462
97 463
97 464
97 466
97 468
97 469
97 472
97 473
97 474
97 476
97 477
97 478
97 479
97 480
97 481
97 482
97 483
97 484
97 486
97 487
97 488
97 489
97 490
97 491
97 492
97 493
97 494
97 495
97 496
97 497
97 498
97 499
97 500
97 501
97 503
97 504
97 505
97 506
97 507
97 508
97 509
97 510
97 511
97 512
97 513
97 514
97 515
97 516
97 517
97 518
97 519
97 520
97 521
97 523
97 524
97 525
97 526
97 527
97 528
97 531
97 532
97 533
97 534
97 535
97 536
97 537
97 539
97 540
97 541
97 542
97 543
97 544
97 545
97 546
97 547
97 548
97 549
97 550
97 551
97 552
97 553
97 554
97 555
97 557
97 558
97 559
97 560
97 561
97 562
97 563
97 564
97 566
97 568
97 569
97 570
97 572
97 573
97 577
97 579
97 580
97 581
97 582
97 583
97 584
97 586
97 587
97 588
97 589
97 590
97 591
97 592
97 594
97 595
97 596
97 598
98 99
98 100
98 101
98 102
98 103
98 104
98 105
98 106
98 108
98 109
98 111
98 114
98 115
98 116
98 118
98 119
98 120
98 121
98 122
98 123
98 124
98 125
98 126
98 128
98 129
98 130
98 131
98 132
98 133
98 135
98 136
98 137
98 138
98 139
98 141
98 142
98 143
98 144
98 146
98 149
98 150
98 151
98 153
98 154
98 155
98 156
98 157
98 158
98 159
98 160
98 162
98 163
98 164
98 165
98 166
98 167
98 169
98 170
98 171
98 172
98 173
98 175
98 176
98 177
98 178
98 179
98 180
98 181
98 182
98 183
98 185
98 186
98 187
98 189
98 190
98 191
98 192
98 193
98 194
98 195
98 196
98 197
98 198
98 199
98 200
98 201
98 203
98 205
98 206
98 207
98 208
98 209
98 210
98 211
98 212
98 214
98 216
98 217
98 218
98 219
98 220
98 221
98 222
98 223
98 224
98 226
98 228
98 230
98 231
98 232
98 234
98 235
98 237
98 238
98 239
98 241
98 242
98 243
98 244
98 245
98 246
98 247
98 248
98 250
98 251
98 252
98 253
98 254
98 255
98 256
98 257
98 258
98 260
98 261
98 262
98 263
98 264
98 265
98 266
98 268
98 269
98 270
98 271
98 274
98 276
98 278
98 279
98 280
98 281
98 282
98 284
98 285
98 286
98 287
98 288
98 289
98 290
98 291
98 293
98 294
98 295
98 296
98 298
98 299
98 300
98 301
98 302
98 303
98 304
98 305
98 306
98 308
98 309
98 310
98 311
98 312
98 313
98 315
98 316
98 317
98 318
98 319
98 320
98 322
98 323
98 324
98 325
98 327
98 328
98 329
98 330
98 331
98 332
98 333
98 335
98 336
98 338
98 339
98 340
98 341
98 342
98 343
98 345
98 346
98 347
98 348
98 349
98 350
98 351
98 353
98 354
98 355
98 356
98 357
98 358
98 359
98 360
98 361
98 362
98 363
98 364
98 367
98 368
98 369
98 371
98 372
98 373
98 374
98 375
98 376
98 378
98 380
98 381
98 383
98 384
98 386
98 387
98 388
98 390
98 392
98 393
98 394
98 396
98 397
98 398
98 399
98 401
98 402
98 403
98 404
98 405
98 406
98 407
98 408
98 409
98 410
98 411
98 413
98 416
98 417
98 418
98 419
98 420
98 421
98 422
98 423
98 425
98 426
98 427
98 429
98 430
98 431
98 432
98 433
98 434
98 436
98 437
98 438
98 439
98 440
98 441
98 442
98 443
98 445
98 446
98 449
98 450
98 451
98 453
98 454
98 455
98 456
98 458
98 459
98 460
98 461
98 462
98 463
98 464
98 466
98 468
98 469
98 472
98 473
98 474
98 476
98 477
98 478
98 479
98 480
98 481
98 482
98 483
98 484
98 486
98 487
98 488
98 489
98 490
98 491
98 492
98 493
98 494
98 495
98 496
98 497
98 498
98 499
98 500
98 501
98 502
98 504
98 505
98 506
98 507
98 508
98 509
98 510
98 511
98 512
98 513
98 514
98 515
98 516
98 517
98 518
98 519
98 520
98 521
98 522
98 524
98 525
98 526
98 527
98 528
98 531
98 532
98 533
98 534
98 535
98 536
98 537
98 539
98 540
98 541
98 542
98 543
98 544
98 545
98 546
98 547
98 548
98 549
98 550
98 551
98 552
98 553
98 554
98 555
98 556
98 558
98 559
98 560
98 561
98 562
98 563
98 564
98 566
98 568
98 569
98 570
98 572
98 573
98 577
98 579
98 580
98 581
98 582
98 583
98 584
98 585
98 587
98 588
98 589
98 590
98 591
98 592
98 594
98 595
98 596
98 598
99 100
99 101
99 102
99 103
99 104
99 105
99 106
99 108
99 109
99 111
99 114
99 115
99 116
99 118
99 119
99 120
99 121
99 122
99 124
99 126
99 127
99 128
99 129
99 130
99 131
99 132
99 133
99 135
99 136
99 137
99 138
99 139
99 141
99 142
99 143
99 144
99 146
99 149
99 150
99 151
99 153
99 154
99 155
99 156
99 157
99 160
99 161
99 162
99 163
99 164
99 165
99 166
99 167
99 169
99 170
99 171
99 172
99 173
99 175
99 176
99 177
99 178
99 179
99 180
99 181
99 182
99 183
99 185
99 186
99 187
99 189
99 190
99 191
99 192
99 193
99 194
99 195
99 196
99 197
99 198
99 199
99 200
99 201
99 203
99 205
99 206
99 207
99 208
99 209
99 210
99 211
99 212
99 213
99 216
99 217
99 218
99 219
99 220
99 221
99 222
99 223
99 224
99 226
99 228
99 230
99 231
99 232
99 234
99 235
99 237
99 238
99 239
99 241
99 242
99 243
99 244
99 245
99 246
99 247
99 248
99 250
99 251
99 252
99 253
99 254
99 255
99 256
99 257
99 258
99 260
99 261
99 262
99 263
99 264
99 265
99 266
99 267
99 269
99 270
99 271
99 274
99 276
99 278
99 279
99 280
99 281
99 282
99 284
99 285
99 286
99 287
99 288
99 289
99 290
99 291
99 293
99 294
99 295
99 296
99 298
99 299
99 300
99 301
99 302
99 303
99 304
99 305
99 306
99 308
99 309
99 310
99 311
99 312
99 313
99 315
99 316
99 317
99 318
99 319
99 320
99 321
99 323
99 324
99 325
99 327
99 328
99 330
99 333
99 334
99 336
99 338
99 339
99 340
99 341
99 342
99 343
99 344
99 346
99 347
99 349
99 351
99 352
99 353
99 354
99 355
99 356
99 357
99 358
99 359
99 360
99 361
99 362
99 363
99 364
99 367
99 368
99 369
99 371
99 372
99 373
99 374
99 375
99 376
99 378
99 380
99 381
99 383
99 384
99 386
99 387
99 388
99 390
99 392
99 393
99 394
99 396
99 397
99 398
99 399
99 401
99 402
99 403
99 404
99 405
99 406
99 407
99 408
99 409
99 410
99 411
99 413
99 416
99 417
99 418
99 419
99 420
99 421
99 422
99 423
99 425
99 426
99 427
99 429
99 430
99 431
99 432
99 433
99 434
99 435
99 437
99 438
99 439
99 440
99 441
99 442
99 443
99 445
99 446
99 449
99 450
99 451
99 453
99 454
99 455
99 456
99 458
99 459
99 460
99 461
99 462
99 463
99 464
99 466
99 468
99 469
99 472
99 473
99 474
99 476
99 477
99 478
99 479
99 480
99 481
99 482
99 483
99 484
99 486
99 487
99 488
99 489
99 490
99 491
99 492
99 493
99 494
99 496
99 497
99 500
99 501
99 502
99 503
99 504
99 505
99 506
99 508
99 509
99 510
99 511
99 512
99 513
99 514
99 515
99 517
99 518
99 521
99 522
99 523
99 524
99 525
99 526
99 528
99 531
99 532
99 533
99 534
99 535
99 536
99 537
99 539
99 540
99 541
99 542
99 543
99 544
99 545
99 547
99 550
99 551
99 552
99 554
99 555
99 556
99 557
99 559
99 560
99 561
99 563
99 564
99 566
99 568
99 569
99 570
99 572
99 573
99 577
99 579
99 580
99 581
99 583
99 584
99 585
99 586
99 587
99 588
99 589
99 590
99 591
99 592
99 593
99 594
99 595
99 596
99 597
100 101
100 102
100 103
100 104
100 105
100 106
100 108
100 109
100 111
100 114
100 115
100 116
100 118
100 119
100 120
100 121
100 122
100 124
100 126
100 127
100 128
100 129
100 130
100 131
100 132
100 133
100 135
100 136
100 137
100 138
100 139
100 141
100 142
100 143
100 144
100 146
100 149
100 150
100 151
100 153
100 154
100 155
100 156
100 157
100 160
100 161
100 162
100 163
100 164
100 165
100 166
100 167
100 169
100 170
100 171
100 172
100 173
100 175
100 176
100 177
100 178
100 179
100 180
100 181
100 182
100 183
100 185
100 186
100 187
100 189
100 190
100 191
100 192
100 193
100 194
100 195
100 196
100 197
100 198
100 199
100 200
100 201
100 203
100 205
100 206
100 207
100 208
100 209
100 210
100 211
100 212
100 214
100 215
100 217
100 218
100 219
100 220
100 221
100 222
100 223
100 224
100 226
100 228
100 230
100 231
100 232
100 234
100 235
100 237
100 238
100 239
100 241
100 242
100 243
100 244
100 245
100 246
100 247
100 248
100 250
100 251
100 252
100 253
100 254
100 255
100 256
100 257
100 258
100 260
100 261
100 262
100 263
100 264
100 265
100 266
100 268
100 269
100 270
100 271
100 274
100 276
100 278
100 279
100 280
100 281
100 282
100 284
100 285
100 286
100 287
100 288
100 289
100 290
100 291
100 293
100 294
100 295
100 296
100 298
100 299
100 300
100 301
100 302
100 303
100 304
100 305
100 306
100 308
100 309
100 310
100 311
100 312
100 313
100 315
100 316
100 317
100 318
100 319
100 320
100 322
100 323
100 324
100 325
100 327
100 328
100 330
100 333
100 334
100 336
100 338
100 339
100 340
100 341
100 342
100 343
100 345
100 346
100 347
100 349
100 351
100 352
100 353
100 354
100 355
100 356
100 357
100 358
100 359
100 360
100 361
100 362
100 363
100 364
100 367
100 368
100 369
100 371
100 372
100 373
100 374
100 375
100 376
100 378
100 380
100 381
100 383
100 384
100 386
100 387
100 388
100 390
100 392
100 393
100 394
100 396
100 397
100 398
100 399
100 401
100 402
100 403
100 404
100 405
100 406
100 407
100 408
100 409
100 410
100 411
100 413
100 416
100 417
100 418
100 419
100 420
100 421
100 422
100 423
100 425
100 426
100 427
100 429
100 430
100 431
100 432
100 433
100 434
100 436
100 437
100 438
100 439
100 440
100 441
100 442
100 443
100 445
100 446
100 449
100 450
100 451
100 453
100 454
100 455
100 456
100 458
100 459
100 460
100 461
100 462
100 463
100 464
100 466
100 468
100 469
100 472
100 473
100 474
100 476
100 477
100 478
100 479
100 480
100 481
100 482
100 483
100 484
100 486
100 487
100 488
100 489
100 490
100 491
100 492
100 493
100 494
100 496
100 497
100 500
100 501
100 502
100 503
100 504
100 505
100 506
100 508
100 509
100 510
100 511
100 512
100 513
100 514
100 515
100 517
100 518
100 521
100 522
100 523
100 524
100 525
100 526
100 528
100 531
100 532
100 533
100 534
100 535
100 536
100 537
100 539
100 540
100 541
100 542
100 543
100 544
100 545
100 547
100 550
100 551
100 552
100 554
100 555
100 556
100 557
100 559
100 560
100 561
100 563
100 564
100 566
100 568
100 569
100 570
100 572
100 573
100 577
100 579
100 580
100 581
100 583
100 584
100 585
100 586
100 587
100 588
100 589
100 590
100 591
100 592
100 594
100 595
100 596
100 598
101 102
101 103
101 104
101 105
101 106
101 108
101 109
101 111
101 114
101 115
101 116
101 118
101 119
101 120
101 121
101 122
101 124
101 126
101 127
101 128
101 129
101 130
101 131
101 132
101 133
101 135
101 136
101 137
101 138
101 139
101 140
101 141
101 142
101 143
101 144
101 145
101 146
101 147
101 148
101 150
101 151
101 153
101 154
101 155
101 156
101 157
101 160
101 161
101 162
101 163
101 164
101 165
101 166
101 167
101 169
101 170
101 171
101 172
101 173
101 175
101 176
101 177
101 178
101 179
101 180
101 181
101 182
101 183
101 185
101 186
101 187
101 189
101 190
101 191
101 192
101 193
101 194
101 195
101 196
101 197
101 198
101 199
101 200
101 201
101 203
101 205
101 206
101 207
101 208
101 209
101 210
101 211
101 212
101 214
101 216
101 217
101 218
101 219
101 220
101 221
101 222
101 223
101 224
101 226
101 228
101 230
101 231
101 232
101 234
101 235
101 237
101 238
101 239
101 241
101 242
101 243
101 244
101 245
101 246
101 247
101 248
101 250
101 251
101 252
101 253
101 254
101 255
101 256
101 257
101 258
101 260
101 261
101 262
101 263
101 264
101 265
101 266
101 268
101 269
101 270
101 271
101 274
101 276
101 278
101 279
101 280
101 281
101 282
101 284
101 285
101 286
101 287
101 288
101 289
101 290
101 291
101 293
101 294
101 295
101 296
101 298
101 299
101 300
101 301
101 302
101 303
101 304
101 305
101 306
101 308
101 309
101 310
101 311
101 312
101 313
101 315
101 316
101 317
101 318
101 319
101 320
101 322
101 323
101 324
101 325
101 327
101 328
101 330
101 333
101 334
101 336
101 338
101 339
101 340
101 341
101 342
101 343
101 345
101 346
101 347
101 349
101 351
101 352
101 353
101 354
101 355
101 356
101 357
101 358
101 359
101 360
101 361
101 362
101 363
101 364
101 367
101 368
101 369
101 371
101 372
101 373
101 374
101 375
101 376
101 378
101 380
101 381
101 383
101 384
101 386
101 387
101 388
101 389
101 390
101 391
101 392
101 393
101 394
101 395
101 396
101 397
101 398
101 399
101 400
101 402
101 403
101 404
101 405
101 406
101 407
101 408
101 409
101 410
101 411
101 413
101 416
101 417
101 418
101 419
101 420
101 421
101 422
101 423
101 425
101 426
101 427
101 429
101 430
101 431
101 432
101 433
101 434
101 436
101 437
101 438
101 439
101 440
101 441
101 442
101 443
101 445
101 446
101 449
101 450
101 451
101 453
101 454
101 455
101 456
101 458
101 459
101 460
101 461
101 462
101 463
101 464
101 466
101 468
101 469
101 472
101 473
101 474
101 476
101 477
101 478
101 479
101 480
101 481
101 482
101 483
101 484
101 486
101 487
101 488
101 489
101 490
101 491
101 492
101 493
101 494
101 496
101 497
101 500
101 501
101 502
101 503
101 504
101 505
101 506
101 508
101 509
101 510
101 511
101 512
101 513
101 514
101 515
101 517
101 518
101 521
101 522
101 523
101 524
101 525
101 526
101 528
101 531
101 532
101 533
101 534
101 535
101 536
101 537
101 539
101 540
101 541
101 542
101 543
101 544
101 545
101 547
101 550
101 551
101 552
101 554
101 555
101 556
101 557
101 559
101 560
101 561
101 563
101 564
101 566
101 568
101 569
101 570
101 572
101 573
101 577
101 579
101 580
101 581
101 583
101 584
101 585
101 586
101 587
101 588
101 589
101 590
101 591
101 592
101 594
101 595
101 596
101 598
102 103
102 104
102 105
102 106
102 108
102 109
102 111
102 114
102 115
102 116
102 118
102 119
102 120
102 121
102 122
102 124
102 126
102 127
102 128
102 129
102 130
102 131
102 132
102 133
102 135
102 136
102 137
102 138
102 139
102 141
102 142
102 143
102 144
102 146
102 149
102 150
102 151
102 153
102 154
102 155
102 156
102 157
102 158
102 159
102 160
102 161
102 163
102 164
102 165
102 166
102 167
102 169
102 170
102 171
102 172
102 173
102 175
102 176
102 177
102 178
102 179
102 180
102 181
102 182
102 183
102 184
102 185
102 187
102 188
102 189
102 190
102 191
102 192
102 193
102 194
102 195
102 196
102 197
102 198
102 199
102 200
102 201
102 203
102 205
102 206
102 207
102 208
102 209
102 210
102 211
102 212
102 214
102 216
102 217
102 218
102 219
102 220
102 221
102 222
102 223
102 224
102 226
102 228
102 230
102 231
102 232
102 234
102 235
102 237
102 238
102 239
102 241
102 242
102 243
102 244
102 245
102 246
102 247
102 248
102 250
102 251
102 252
102 253
102 254
102 255
102 256
102 257
102 258
102 260
102 261
102 262
102 263
102 264
102 265
102 266
102 268
102 269
102 270
102 271
102 274
102 276
102 278
102 279
102 280
102 281
102 282
102 284
102 285
102 286
102 287
102 288
102 289
102 290
102 291
102 293
102 294
102 295
102 296
102 298
102 299
102 300
102 301
102 302
102 303
102 304
102 305
102 306
102 308
102 309
102 310
102 311
102 312
102 313
102 315
102 316
102 317
102 318
102 319
102 320
102 322
102 323
102 324
102 325
102 327
102 328
102 330
102 333
102 334
102 336
102 338
102 339
102 340
102 341
102 342
102 343
102 345
102 346
102 347
102 348
102 349
102 350
102 351
102 352
102 354
102 355
102 356
102 357
102 358
102 359
102 360
102 361
102 362
102 363
102 364
102 367
102 368
102 369
102 371
102 372
102 373
102 374
102 375
102 376
102 378
102 380
102 381
102 383
102 384
102 386
102 387
102 388
102 390
102 392
102 393
102 394
102 396
102 397
102 398
102 399
102 401
102 402
102 403
102 404
102 405
102 406
102 407
102 408
102 409
102 410
102 411
102 413
102 416
102 417
102 418
102 419
102 420
102 421
102 422
102 423
102 425
102 426
102 427
102 429
102 430
102 431
102 432
102 433
102 434
102 436
102 437
102 438
102 439
102 440
102 441
102 442
102 443
102 444
102 445
102 449
102 450
102 451
102 453
102 454
102 455
102 456
102 458
102 459
102 460
102 461
102 462
102 463
102 464
102 466
102 468
102 469
102 472
102 473
102 474
102 476
102 477
102 478
102 479
102 480
102 481
102 482
102 483
102 484
102 486
102 487
102 488
102 489
102 490
102 491
102 492
102 493
102 494
102 495
102 496
102 497
102 498
102 499
102 500
102 501
102 502
102 503
102 505
102 506
102 507
102 508
102 509
102 510
102 511
102 512
102 513
102 514
102 515
102 516
102 517
102 518
102 519
102 520
102 521
102 522
102 523
102 525
102 526
102 527
102 528
102 531
102 532
102 533
102 534
102 535
102 536
102 537
102 539
102 540
102 541
102 542
102 543
102 544
102 545
102 546
102 547
102 548
102 549
102 550
102 551
102 552
102 553
102 554
102 555
102 556
102 557
102 558
102 560
102 561
102 562
102 563
102 564
102 566
102 568
102 569
102 570
102 572
102 573
102 577
102 579
102 580
102 581
102 583
102 584
102 585
102 586
102 587
102 588
102 589
102 590
102 591
102 592
102 594
102 595
102 596
102 598
103 104
103 105
103 106
103 108
103 109
103 111
103 114
103 115
103 116
103 118
103 119
103 120
103 121
103 122
103 124
103 126
103 127
103 128
103 129
103 130
103 131
103 132
103 133
103 135
103 136
103 137
103 138
103 139
103 141
103 142
103 143
103 144
103 146
103 149
103 150
103 151
103 153
103 154
103 155
103 156
103 157
103 160
103 161
103 162
103 163
103 164
103 165
103 166
103 167
103 169
103 170
103 171
103 172
103 173
103 174
103 175
103 176
103 178
103 179
103 180
103 181
103 182
103 183
103 185
103 186
103 187
103 189
103 190
103 191
103 192
103 193
103 194
103 195
103 196
103 197
103 198
103 199
103 200
103 201
103 203
103 205
103 206
103 207
103 208
103 209
103 210
103 211
103 212
103 214
103 216
103 217
103 218
103 219
103 220
103 221
103 222
103 223
103 224
103 226
103 228
103 230
103 231
103 232
103 234
103 235
103 237
103 238
103 239
103 241
103 242
103 243
103 244
103 245
103 246
103 247
103 248
103 250
103 251
103 252
103 253
103 254
103 255
103 256
103 257
103 258
103 260
103 261
103 262
103 263
103 264
103 265
103 266
103 268
103 269
103 270
103 271
103 274
103 276
103 278
103 279
103 280
103 281
103 282
103 284
103 285
103 286
103 287
103 288
103 289
103 290
103 291
103 293
103 294
103 295
103 296
103 297
103 298
103 299
103 300
103 302
103 303
103 304
103 305
103 306
103 307
103 308
103 309
103 311
103 312
103 313
103 315
103 316
103 317
103 318
103 319
103 320
103 322
103 323
103 324
103 325
103 327
103 328
103 330
103 333
103 334
103 336
103 338
103 339
103 340
103 341
103 342
103 343
103 345
103 346
103 347
103 349
103 351
103 352
103 353
103 354
103 355
103 356
103 357
103 358
103 359
103 360
103 361
103 362
103 363
103 364
103 367
103 368
103 369
103 371
103 372
103 373
103 374
103 375
103 376
103 378
103 380
103 381
103 383
103 384
103 386
103 387
103 388
103 390
103 392
103 393
103 394
103 396
103 397
103 398
103 399
103 401
103 402
103 403
103 404
103 405
103 406
103 407
103 408
103 409
103 410
103 411
103 413
103 416
103 417
103 418
103 419
103 420
103 421
103 422
103 423
103 425
103 426
103 427
103 429
103 430
103 431
103 432
103 433
103 434
103 436
103 437
103 438
103 439
103 440
103 441
103 442
103 443
103 445
103 446
103 449
103 450
103 451
103 453
103 454
103 455
103 456
103 458
103 459
103 460
103 461
103 462
103 463
103 464
103 466
103 468
103 469
103 472
103 473
103 474
103 476
103 477
103 478
103 479
103 480
103 481
103 482
103 483
103 484
103 486
103 487
103 488
103 489
103 490
103 491
103 492
103 493
103 494
103 495
103 496
103 497
103 498
103 499
103 500
103 501
103 502
103 503
103 504
103 506
103 507
103 508
103 509
103 510
103 511
103 512
103 513
103 514
103 515
103 516
103 517
103 518
103 519
103 520
103 521
103 522
103 523
103 524
103 526
103 527
103 528
103 531
103 532
103 533
103 534
103 535
103 536
103 537
103 539
103 540
103 541
103 542
103 543
103 544
103 545
103 546
103 547
103 548
103 549
103 550
103 551
103 552
103 553
103 554
103 555
103 556
103 557
103 558
103 559
103 561
103 562
103 563
103 564
103 566
103 568
103 569
103 570
103 572
103 573
103 577
103 579
103 580
103 581
103 582
103 583
103 584
103 585
103 586
103 588
103 589
103 590
103 591
103 592
103 594
103 595
103 596
103 598
104 105
104 106
104 108
104 109
104 111
104 114
104 115
104 116
104 118
104 119
104 120
104 121
104 122
104 124
104 126
104 127
104 128
104 129
104 130
104 131
104 132
104 133
104 135
104 136
104 137
104 138
104 139
104 140
104 141
104 142
104 143
104 144
104 145
104 146
104 147
104 148
104 149
104 151
104 153
104 154
104 155
104 156
104 157
104 160
104 161
104 162
104 163
104 164
104 165
104 166
104 167
104 169
104 170
104 171
104 172
104 173
104 175
104 176
104 177
104 178
104 179
104 180
104 181
104 182
104 183
104 185
104 186
104 187
104 189
104 190
104 191
104 192
104 193
104 194
104 195
104 196
104 197
104 198
104 199
104 200
104 201
104 202
104 203
104 204
104 206
104 207
104 208
104 209
104 210
104 211
104 212
104 214
104 216
104 217
104 218
104 219
104 220
104 221
104 222
104 223
104 224
104 226
104 228
104 230
104 231
104 232
104 234
104 235
104 237
104 238
104 239
104 241
104 242
104 243
104 244
104 245
104 246
104 247
104 248
104 250
104 251
104 252
104 253
104 254
104 255
104 256
104 257
104 258
104 260
104 261
104 262
104 263
104 264
104 265
104 266
104 268
104 269
104 270
104 271
104 274
104 276
104 278
104 279
104 280
104 281
104 282
104 284
104 285
104 286
104 287
104 288
104 289
104 290
104 291
104 293
104 294
104 295
104 296
104 298
104 299
104 300
104 301
104 302
104 303
104 304
104 305
104 306
104 308
104 309
104 310
104 311
104 312
104 313
104 315
104 316
104 317
104 318
104 319
104 320
104 322
104 323
104 324
104 325
104 327
104 328
104 330
104 333
104 334
104 336
104 338
104 339
104 340
104 341
104 342
104 343
104 345
104 346
104 347
104 349
104 351
104 352
104 353
104 354
104 355
104 356
104 357
104 358
104 359
104 360
104 361
104 362
104 363
104 364
104 365
104 366
104 367
104 368
104 369
104 370
104 371
104 373
104 374
104 375
104 376
104 378
104 380
104 381
104 383
104 384
104 386
104 387
104 388
104 389
104 390
104 391
104 392
104 393
104 394
104 395
104 396
104 397
104 398
104 399
104 400
104 401
104 403
104 404
104 405
104 406
104 407
104 408
104 409
104 410
104 411
104 413
104 416
104 417
104 418
104 419
104 420
104 421
104 422
104 423
104 425
104 426
104 427
104 429
104 430
104 431
104 432
104 433
104 434
104 436
104 437
104 438
104 439
104 440
104 441
104 442
104 443
104 445
104 446
104 449
104 450
104 451
104 453
104 454
104 455
104 456
104 458
104 459
104 460
104 461
104 462
104 463
104 464
104 466
104 468
104 469
104 472
104 473
104 474
104 476
104 477
104 478
104 479
104 480
104 481
104 482
104 483
104 484
104 486
104 487
104 488
104 489
104 490
104 491
104 492
104 493
104 494
104 496
104 497
104 500
104 501
104 502
104 503
104 504
104 505
104 506
104 508
104 509
104 510
104 511
104 512
104 513
104 514
104 515
104 517
104 518
104 521
104 522
104 523
104 524
104 525
104 526
104 528
104 531
104 532
104 533
104 534
104 535
104 536
104 537
104 539
104 540
104 541
104 542
104 543
104 544
104 545
104 546
104 547
104 548
104 549
104 550
104 551
104 552
104 553
104 554
104 555
104 556
104 557
104 558
104 559
104 560
104 562
104 563
104 564
104 566
104 568
104 569
104 570
104 572
104 573
104 577
104 579
104 580
104 581
104 583
104 584
104 585
104 586
104 587
104 588
104 589
104 590
104 591
104 592
104 594
104 595
104 596
104 598
105 106
105 108
105 109
105 111
105 114
105 115
105 116
105 118
105 119
105 120
105 121
105 122
105 124
105 126
105 127
105 128
105 129
105 130
105 131
105 132
105 133
105 135
105 136
105 137
105 138
105 139
105 141
105 142
105 143
105 144
105 146
105 149
105 150
105 151
105 153
105 154
105 155
105 156
105 157
105 160
105 161
105 162
105 163
105 164
105 165
105 166
105 167
105 169
105 170
105 171
105 172
105 173
105 175
105 176
105 177
105 178
105 179
105 180
105 181
105 182
105 183
105 185
105 186
105 187
105 189
105 190
105 191
105 192
105 193
105 194
105 195
105 196
105 197
105 198
105 199
105 200
105 201
105 202
105 203
105 204
105 205
105 207
105 208
105 209
105 210
105 211
105 212
105 214
105 216
105 217
105 218
105 219
105 220
105 221
105 222
105 223
105 224
105 226
105 228
105 230
105 231
105 232
105 234
105 235
105 237
105 238
105 239
105 241
105 242
105 243
105 244
105 245
105 246
105 247
105 248
105 250
105 251
105 252
105 253
105 254
105 255
105 256
105 257
105 258
105 260
105 261
105 262
105 263
105 264
105 265
105 266
105 268
105 269
105 270
105 271
105 274
105 276
105 278
105 279
105 280
105 281
105 282
105 284
105 285
105 286
105 287
105 288
105 289
105 290
105 291
105 293
105 294
105 295
105 296
105 298
105 299
105 300
105 301
105 302
105 303
105 304
105 305
105 306
105 308
105 309
105 310
105 311
105 312
105 313
105 315
105 316
105 317
105 318
105 319
105 320
105 322
105 323
105 324
105 325
105 327
105 328
105 330
105 333
105 334
105 336
105 338
105 339
105 340
105 341
105 342
105 343
105 345
105 346
105 347
105 349
105 351
105 352
105 353
105 354
105 355
105 356
105 357
105 358
105 359
105 360
105 361
105 362
105 363
105 364
105 365
105 366
105 367
105 368
105 369
105 370
105 371
105 372
105 374
105 376
105 378
105 380
105 381
105 383
105 384
105 386
105 387
105 388
105 389
105 390
105 391
105 392
105 393
105 394
105 395
105 396
105 397
105 398
105 399
105 400
105 401
105 402
105 404
105 405
105 406
105 407
105 408
105 409
105 410
105 411
105 413
105 416
105 417
105 418
105 419
105 420
105 421
105 422
105 423
105 425
105 426
105 427
105 429
105 430
105 431
105 432
105 433
105 434
105 436
105 437
105 438
105 439
105 440
105 441
105 442
105 443
105 445
105 446
105 449
105 450
105 451
105 453
105 454
105 455
105 456
105 458
105 459
105 460
105 461
105 462
105 463
105 464
105 466
105 468
105 469
105 472
105 473
105 474
105 475
105 477
105 478
105 479
105 480
105 481
105 482
105 483
105 484
105 486
105 487
105 488
105 489
105 490
105 491
105 492
105 493
105 494
105 496
105 497
105 500
105 501
105 502
105 503
105 504
105 505
105 506
105 508
105 509
105 510
105 511
105 512
105 513
105 514
105 515
105 517
105 518
105 521
105 522
105 523
105 524
105 525
105 526
105 528
105 531
105 532
105 533
105 534
105 535
105 536
105 537
105 539
105 540
105 541
105 542
105 543
105 544
105 545
105 547
105 550
105 551
105 552
105 554
105 555
105 556
105 557
105 559
105 560
105 561
105 563
105 564
105 566
105 568
105 569
105 570
105 572
105 573
105 577
105 579
105 580
105 581
105 583
105 584
105 585
105 586
105 587
105 588
105 589
105 590
105 591
105 592
105 594
105 595
105 596
105 598
106 108
106 109
106 111
106 114
106 115
106 116
106 118
106 119
106 120
106 121
106 122
106 123
106 124
106 125
106 126
106 127
106 129
106 130
106 131
106 132
106 133
106 135
106 136
106 137
106 138
106 139
106 141
106 142
106 143
106 144
106 146
106 149
106 150
106 151
106 153
106 154
106 155
106 156
106 157
106 158
106 159
106 160
106 161
106 162
106 164
106 165
106 166
106 167
106 169
106 170
106 171
106 172
106 173
106 174
106 175
106 176
106 177
106 179
106 180
106 181
106 182
106 183
106 184
106 185
106 186
106 188
106 189
106 190
106 191
106 192
106 193
106 194
106 195
106 196
106 197
106 198
106 199
106 200
106 201
106 203
106 205
106 206
106 207
106 208
106 209
106 210
106 211
106 212
106 214
106 216
106 217
106 218
106 219
106 220
106 221
106 222
106 223
106 224
106 226
106 228
106 230
106 231
106 232
106 234
106 235
106 237
106 238
106 239
106 241
106 242
106 243
106 244
106 245
106 246
106 247
106 248
106 250
106 251
106 252
106 253
106 254
106 255
106 256
106 257
106 258
106 260
106 261
106 262
106 263
106 264
106 265
106 266
106 268
106 269
106 270
106 271
106 274
106 276
106 278
106 279
106 280
106 281
106 282
106 284
106 285
106 286
106 287
106 288
106 289
106 290
106 291
106 293
106 294
106 295
106 296
106 297
106 298
106 299
106 300
106 301
106 303
106 304
106 305
106 306
106 307
106 308
106 309
106 310
106 312
106 313
106 315
106 316
106 317
106 318
106 319
106 320
106 322
106 323
106 324
106 325
106 327
106 328
106 330
106 333
106 334
106 336
106 338
106 339
106 340
106 341
106 342
106 343
106 345
106 346
106 347
106 348
106 349
106 350
106 351
106 352
106 353
106 355
106 356
106 357
106 358
106 359
106 360
106 361
106 362
106 363
106 364
106 367
106 368
106 369
106 371
106 372
106 373
106 374
106 375
106 376
106 378
106 380
106 381
106 383
106 384
106 386
106 387
106 388
106 390
106 392
106 393
106 394
106 396
106 397
106 398
106 399
106 401
106 402
106 403
106 404
106 405
106 406
106 407
106 408
106 409
106 410
106 411
106 413
106 416
106 417
106 418
106 419
106 420
106 421
106 422
106 423
106 425
106 426
106 427
106 429
106 430
106 431
106 432
106 433
106 434
106 436
106 437
106 438
106 439
106 440
106 441
106 442
106 443
106 445
106 446
106 449
106 450
106 451
106 453
106 454
106 455
106 456
106 457
106 458
106 459
106 460
106 462
106 463
106 464
106 466
106 468
106 469
106 472
106 473
106 474
106 476
106 477
106 478
106 479
106 480
106 481
106 482
106 483
106 484
106 486
106 487
106 488
106 489
106 490
106 491
106 492
106 493
106 494
106 495
106 496
106 497
106 498
106 499
106 500
106 501
106 502
106 503
106 504
106 505
106 507
106 508
106 509
106 510
106 511
106 512
106 513
106 514
106 515
106 516
106 517
106 518
106 519
106 520
106 521
106 522
106 523
106 524
106 525
106 527
106 528
106 531
106 532
106 533
106 534
106 535
106 536
106 537
106 539
106 540
106 541
106 542
106 543
106 544
106 545
106 546
106 547
106 548
106 549
106 550
106 551
106 552
106 553
106 554
106 555
106 556
106 557
106 558
106 559
106 560
106 561
106 562
106 564
106 566
106 568
106 569
106 570
106 572
106 573
106 577
106 579
106 580
106 581
106 582
106 583
106 584
106 585
106 586
106 587
106 589
106 590
106 591
106 592
106 594
106 595
106 596
106 598
108 109
108 110
108 111
108 112
108 122
108 123
108 126
108 141
108 146
108 151
108 153
108 157
108 158
108 160
108 173
108 176
108 180
108 181
108 182
108 183
108 184
108 185
108 186
108 187
108 188
108 271
108 272
108 273
108 274
108 296
108 299
108 306
108 308
108 328
108 329
108 333
108 335
108 347
108 348
108 351
108 438
108 439
108 440
108 441
108 442
108 443
108 444
108 445
108 446
108 456
108 459
108 489
108 490
108 491
108 492
108 493
108 494
108 495
108 496
108 497
108 498
108 499
108 500
108 501
108 502
108 503
108 504
108 505
108 506
108 507
108 509
108 510
108 511
108 512
108 513
108 514
108 515
108 516
108 517
108 518
108 519
108 520
108 521
108 522
108 523
108 524
108 525
108 526
108 527
108 539
108 541
108 542
108 543
108 544
108 545
108 546
108 547
108 548
108 549
108 550
108 551
108 552
108 553
108 554
108 555
108 556
108 557
108 558
108 559
108 560
108 561
108 562
108 563
108 581
108 584
109 110
109 111
109 112
109 120
109 121
109 123
109 124
109 125
109 126
109 127
109 128
109 135
109 136
109 137
109 138
109 139
109 140
109 142
109 143
109 144
109 145
109 146
109 147
109 148
109 149
109 150
109 152
109 153
109 154
109 155
109 156
109 158
109 159
109 160
109 161
109 162
109 163
109 169
109 170
109 171
109 172
109 174
109 175
109 176
109 177
109 178
109 179
109 180
109 181
109 183
109 184
109 185
109 186
109 187
109 188
109 270
109 272
109 273
109 274
109 294
109 295
109 297
109 298
109 299
109 300
109 301
109 302
109 303
109 304
109 305
109 307
109 308
109 309
109 310
109 311
109 327
109 329
109 330
109 331
109 332
109 333
109 334
109 335
109 346
109 348
109 349
109 350
109 351
109 352
109 353
109 354
109 437
109 438
109 439
109 440
109 442
109 443
109 444
109 445
109 446
109 453
109 454
109 455
109 457
109 458
109 459
109 460
109 461
109 488
109 495
109 501
109 507
109 508
109 509
109 510
109 511
109 512
109 513
109 514
109 516
109 517
109 518
109 519
109 520
109 521
109 522
109 523
109 524
109 525
109 526
109 527
109 539
109 540
109 541
109 542
109 543
109 544
109 545
109 546
109 548
109 549
109 550
109 551
109 552
109 553
109 554
109 555
109 556
109 557
109 558
109 559
109 560
109 561
109 562
109 563
109 579
109 580
109 582
109 583
109 584
109 585
109 586
109 587
109 588
110 111
110 112
110 120
110 121
110 122
110 124
110 125
110 126
110 127
110 128
110 141
110 146
110 151
110 153
110 155
110 156
110 157
110 159
110 160
110 161
110 162
110 163
110 173
110 176
110 179
110 182
110 185
110 188
110 270
110 271
110 273
110 274
110 296
110 299
110 306
110 308
110 327
110 328
110 330
110 331
110 332
110 333
110 334
110 335
110 346
110 347
110 349
110 350
110 351
110 352
110 353
110 354
110 437
110 441
110 445
110 456
110 459
110 488
110 489
110 490
110 491
110 492
110 493
110 494
110 496
110 497
110 498
110 499
110 500
110 501
110 502
110 503
110 504
110 505
110 506
110 507
110 508
110 509
110 510
110 511
110 512
110 513
110 514
110 515
110 517
110 518
110 519
110 520
110 521
110 522
110 523
110 524
110 525
110 526
110 527
110 539
110 540
110 541
110 542
110 543
110 544
110 545
110 546
110 547
110 549
110 550
110 551
110 552
110 553
110 554
110 555
110 556
110 557
110 558
110 559
110 560
110 561
110 562
110 563
110 581
110 584
111 112
111 120
111 121
111 122
111 123
111 124
111 125
111 127
111 128
111 135
111 136
111 137
111 138
111 139
111 140
111 141
111 142
111 143
111 144
111 145
111 147
111 148
111 149
111 150
111 151
111 152
111 154
111 155
111 156
111 157
111 158
111 159
111 161
111 162
111 163
111 169
111 170
111 171
111 172
111 173
111 174
111 175
111 177
111 178
111 179
111 180
111 181
111 182
111 183
111 184
111 186
111 187
111 188
111 270
111 271
111 272
111 273
111 294
111 295
111 296
111 297
111 298
111 300
111 301
111 302
111 303
111 304
111 305
111 306
111 307
111 309
111 310
111 311
111 327
111 328
111 329
111 330
111 331
111 332
111 334
111 335
111 346
111 347
111 348
111 349
111 350
111 352
111 353
111 354
111 437
111 438
111 439
111 440
111 441
111 442
111 443
111 444
111 446
111 453
111 454
111 455
111 456
111 457
111 458
111 460
111 461
111 488
111 489
111 490
111 491
111 492
111 493
111 494
111 495
111 496
111 497
111 498
111 499
111 500
111 502
111 503
111 504
111 505
111 506
111 507
111 508
111 515
111 516
111 527
111 539
111 540
111 541
111 542
111 543
111 544
111 545
111 546
111 547
111 548
111 549
111 550
111 551
111 552
111 553
111 554
111 556
111 557
111 558
111 559
111 560
111 561
111 562
111 563
111 579
111 580
111 581
111 582
111 583
111 585
111 586
111 587
111 588
112 122
112 123
112 126
112 141
112 146
112 151
112 153
112 157
112 158
112 160
112 173
112 176
112 179
112 180
112 181
112 182
112 183
112 184
112 185
112 186
112 187
112 270
112 271
112 272
112 274
112 296
112 299
112 306
112 308
112 327
112 328
112 329
112 330
112 331
112 332
112 333
112 334
112 347
112 348
112 351
112 437
112 441
112 445
112 456
112 459
112 488
112 489
112 490
112 491
112 492
112 493
112 494
112 495
112 496
112 497
112 498
112 499
112 500
112 501
112 502
112 503
112 504
112 505
112 506
112 508
112 509
112 510
112 511
112 512
112 513
112 514
112 515
112 516
112 517
112 518
112 519
112 520
112 521
112 522
112 523
112 524
112 525
112 526
112 540
112 547
112 548
112 555
112 581
112 584
113 114
113 115
113 116
113 117
113 118
113 119
113 131
113 137
113 139
113 143
113 191
113 199
113 228
113 229
113 230
113 231
113 232
113 233
113 234
113 235
113 236
113 238
113 239
113 276
113 277
113 278
113 279
113 280
113 281
113 312
113 323
113 324
113 358
113 368
113 376
113 378
113 379
113 380
113 381
113 382
113 383
113 384
113 385
113 386
113 387
113 388
113 390
113 391
113 392
113 393
113 394
113 395
113 396
113 397
113 398
113 399
113 400
113 401
113 402
113 403
113 449
113 450
113 463
113 473
113 541
113 564
113 566
113 567
113 568
113 569
113 570
113 571
113 572
113 573
113 574
114 115
114 116
114 117
114 118
114 119
114 129
114 130
114 132
114 133
114 134
114 135
114 136
114 138
114 139
114 140
114 141
114 142
114 143
114 144
114 145
114 146
114 147
114 148
114 149
114 150
114 189
114 190
114 192
114 193
114 194
114 195
114 196
114 197
114 198
114 199
114 200
114 201
114 202
114 203
114 204
114 205
114 206
114 227
114 229
114 230
114 231
114 232
114 233
114 234
114 235
114 236
114 237
114 239
114 240
114 275
114 277
114 278
114 279
114 280
114 281
114 313
114 314
114 324
114 325
114 326
114 355
114 356
114 357
114 359
114 360
114 361
114 362
114 363
114 364
114 365
114 366
114 367
114 368
114 369
114 370
114 371
114 372
114 373
114 376
114 377
114 379
114 380
114 381
114 382
114 383
114 384
114 385
114 389
114 392
114 394
114 395
114 396
114 398
114 449
114 450
114 462
114 464
114 465
114 466
114 467
114 472
114 474
114 475
114 476
114 539
114 540
114 542
114 543
114 544
114 545
114 546
114 547
114 548
114 549
114 550
114 551
114 552
114 553
114 554
114 555
114 556
114 557
114 558
114 559
114 560
114 561
114 562
114 563
114 564
114 565
114 567
114 568
114 569
114 570
114 571
114 572
114 573
114 574
115 116
115 117
115 118
115 119
115 131
115 135
115 136
115 137
115 138
115 140
115 141
115 142
115 143
115 144
115 145
115 146
115 147
115 148
115 149
115 150
115 191
115 199
115 227
115 228
115 232
115 233
115 234
115 235
115 238
115 239
115 275
115 276
115 277
115 279
115 280
115 281
115 312
115 323
115 324
115 358
115 368
115 376
115 377
115 378
115 379
115 381
115 382
115 383
115 384
115 385
115 386
115 387
115 388
115 389
115 390
115 391
115 393
115 394
115 395
115 396
115 397
115 398
115 399
115 400
115 401
115 402
115 403
115 450
115 451
115 452
115 463
115 473
115 541
115 564
115 565
115 566
115 567
115 569
115 570
115 571
115 572
115 573
115 574
116 117
116 118
116 119
116 131
116 137
116 139
116 143
116 191
116 199
116 227
116 228
116 229
116 230
116 231
116 233
116 234
116 235
116 236
116 238
116 239
116 275
116 276
116 277
116 278
116 280
116 281
116 312
116 323
116 324
116 358
116 368
116 376
116 377
116 378
116 379
116 380
116 382
116 383
116 384
116 385
116 386
116 387
116 388
116 389
116 390
116 391
116 392
116 393
116 395
116 396
116 397
116 398
116 399
116 400
116 401
116 402
116 403
116 449
116 451
116 452
116 463
116 473
116 541
116 564
116 565
116 566
116 567
116 568
116 569
116 571
116 572
116 573
116 574
117 118
117 119
117 131
117 137
117 139
117 143
117 191
117 199
117 227
117 228
117 229
117 230
117 231
117 232
117 234
117 235
117 236
117 238
117 239
117 275
117 276
117 278
117 279
117 280
117 281
117 312
117 323
117 324
117 358
117 368
117 376
117 377
117 378
117 379
117 380
117 381
117 383
117 384
117 385
117 386
117 387
117 388
117 389
117 390
117 391
117 392
117 393
117 394
117 396
117 397
117 398
117 399
117 400
117 401
117 402
117 403
117 449
117 450
117 463
117 473
117 541
117 564
117 565
117 566
117 567
117 568
117 569
117 570
117 572
117 573
117 574
118 119
118 131
118 135
118 136
118 137
118 138
118 139
118 140
118 141
118 142
118 144
118 145
118 146
118 147
118 148
118 149
118 150
118 189
118 190
118 191
118 192
118 193
118 194
118 195
118 196
118 197
118 198
118 200
118 201
118 202
118 203
118 204
118 205
118 206
118 227
118 228
118 229
118 230
118 231
118 232
118 233
118 235
118 236
118 238
118 239
118 275
118 276
118 277
118 278
118 279
118 281
118 312
118 323
118 324
118 355
118 356
118 357
118 358
118 359
118 360
118 361
118 362
118 363
118 364
118 365
118 366
118 367
118 369
118 370
118 371
118 372
118 373
118 376
118 377
118 378
118 379
118 380
118 381
118 382
118 384
118 385
118 386
118 387
118 388
118 389
118 390
118 391
118 392
118 393
118 394
118 395
118 397
118 398
118 399
118 400
118 401
118 402
118 403
118 449
118 450
118 463
118 473
118 541
118 565
118 566
118 568
118 570
118 571
118 573
119 131
119 137
119 139
119 143
119 191
119 199
119 227
119 228
119 229
119 230
119 231
119 232
119 233
119 234
119 236
119 237
119 238
119 240
119 275
119 276
119 277
119 278
119 279
119 280
119 312
119 323
119 325
119 326
119 358
119 368
119 377
119 378
119 380
119 381
119 382
119 383
119 386
119 387
119 388
119 389
119 390
119 391
119 392
119 393
119 394
119 395
119 396
119 397
119 399
119 400
119 401
119 402
119 403
119 449
119 450
119 463
119 473
119 541
119 564
119 565
119 566
119 567
119 568
119 569
119 570
119 571
119 572
119 574
120 121
120 122
120 123
120 124
120 125
120 126
120 127
120 128
120 129
120 131
120 132
120 133
120 134
120 135
120 137
120 138
120 139
120 140
120 141
120 142
120 143
120 144
120 145
120 146
120 147
120 148
120 149
120 150
120 151
120 152
120 153
120 156
120 157
120 158
120 159
120 160
120 161
120 162
120 163
120 164
120 166
120 168
120 170
120 171
120 172
120 173
120 174
120 175
120 176
120 177
120 178
120 179
120 181
120 182
120 183
120 184
120 185
120 186
120 187
120 188
120 190
120 191
120 192
120 193
120 194
120 195
120 196
120 197
120 198
120 199
120 200
120 201
120 202
120 203
120 204
120 205
120 206
120 213
120 215
120 225
120 236
120 240
120 249
120 259
120 267
120 271
120 272
120 274
120 283
120 292
120 295
120 296
120 297
120 298
120 299
120 300
120 301
120 302
120 304
120 305
120 306
120 307
120 308
120 309
120 310
120 311
120 314
120 321
120 326
120 328
120 329
120 330
120 331
120 332
120 333
120 334
120 335
120 337
120 344
120 347
120 348
120 349
120 350
120 351
120 352
120 353
120 354
120 355
120 357
120 358
120 359
120 360
120 361
120 362
120 363
120 364
120 365
120 366
120 367
120 368
120 369
120 370
120 371
120 372
120 373
120 385
120 386
120 387
120 389
120 390
120 391
120 392
120 393
120 394
120 395
120 396
120 397
120 398
120 399
120 400
120 401
120 402
120 403
120 412
120 424
120 428
120 435
120 437
120 439
120 440
120 441
120 442
120 443
120 444
120 445
120 446
120 452
120 454
120 455
120 456
120 457
120 458
120 459
120 460
120 461
120 467
120 470
120 475
120 485
120 488
120 490
120 491
120 492
120 493
120 494
120 495
120 496
120 497
120 498
120 499
120 500
120 501
120 502
120 503
120 504
120 505
120 506
120 507
120 508
120 510
120 511
120 512
120 513
120 514
120 515
120 516
120 517
120 518
120 519
120 520
120 521
120 522
120 523
120 524
120 525
120 526
120 527
120 529
120 530
120 538
120 542
120 547
120 548
120 551
120 553
120 555
120 557
120 563
120 574
120 578
120 580
120 581
120 582
120 583
120 584
120 585
120 586
120 587
120 588
120 597
121 122
121 123
121 124
121 125
121 126
121 127
121 128
121 130
121 134
121 136
121 141
121 145
121 146
121 151
121 152
121 153
121 155
121 157
121 158
121 159
121 160
121 161
121 162
121 163
121 165
121 168
121 169
121 173
121 174
121 176
121 178
121 179
121 180
121 182
121 183
121 184
121 185
121 186
121 187
121 188
121 189
121 202
121 213
121 215
121 225
121 236
121 240
121 249
121 259
121 267
121 271
121 272
121 274
121 282
121 292
121 294
121 296
121 297
121 299
121 302
121 303
121 306
121 307
121 308
121 311
121 314
121 321
121 326
121 327
121 328
121 329
121 332
121 333
121 334
121 337
121 344
121 346
121 347
121 348
121 349
121 350
121 351
121 352
121 354
121 356
121 370
121 385
121 388
121 400
121 412
121 424
121 428
121 435
121 437
121 438
121 440
121 441
121 442
121 443
121 444
121 445
121 446
121 452
121 453
121 456
121 457
121 459
121 461
121 467
121 470
121 475
121 485
121 488
121 489
121 491
121 492
121 493
121 494
121 495
121 496
121 497
121 498
121 499
121 500
121 501
121 502
121 503
121 504
121 505
121 506
121 507
121 508
121 509
121 511
121 512
121 513
121 514
121 515
121 516
121 517
121 518
121 519
121 520
121 521
121 522
121 523
121 524
121 525
121 526
121 527
121 528
121 538
121 539
121 540
121 541
121 543
121 544
121 545
121 546
121 547
121 548
121 549
121 550
121 551
121 552
121 553
121 554
121 555
121 556
121 557
121 558
121 559
121 560
121 561
121 562
121 563
121 574
121 578
121 579
121 581
121 582
121 584
121 586
121 588
121 597
122 123
122 124
122 125
122 126
122 127
122 128
122 130
122 134
122 135
122 136
122 137
122 138
122 139
122 140
122 142
122 143
122 144
122 145
122 146
122 147
122 148
122 149
122 150
122 152
122 153
122 154
122 155
122 156
122 158
122 159
122 160
122 161
122 162
122 163
122 165
122 168
122 169
122 170
122 171
122 172
122 174
122 175
122 176
122 177
122 178
122 179
122 180
122 181
122 183
122 184
122 185
122 186
122 187
122 188
122 189
122 202
122 213
122 215
122 225
122 236
122 240
122 249
122 259
122 267
122 270
122 272
122 273
122 274
122 282
122 292
122 294
122 295
122 297
122 298
122 299
122 300
122 301
122 302
122 303
122 304
122 305
122 307
122 308
122 309
122 310
122 311
122 314
122 321
122 326
122 327
122 329
122 330
122 331
122 332
122 333
122 334
122 335
122 337
122 344
122 346
122 348
122 349
122 350
122 351
122 352
122 353
122 354
122 356
122 370
122 385
122 388
122 400
122 412
122 424
122 428
122 435
122 437
122 438
122 439
122 440
122 442
122 443
122 444
122 445
122 446
122 452
122 453
122 454
122 455
122 457
122 458
122 459
122 460
122 461
122 467
122 470
122 475
122 485
122 489
122 490
122 495
122 497
122 499
122 501
122 503
122 506
122 508
122 509
122 510
122 511
122 512
122 513
122 514
122 516
122 517
122 518
122 519
122 520
122 521
122 522
122 523
122 524
122 525
122 526
122 527
122 528
122 538
122 539
122 540
122 541
122 542
122 543
122 544
122 545
122 546
122 548
122 549
122 550
122 551
122 552
122 553
122 554
122 555
122 556
122 557
122 558
122 559
122 560
122 561
122 562
122 563
122 574
122 578
122 579
122 580
122 582
122 583
122 584
122 585
122 586
122 587
122 588
122 597
123 124
123 125
123 126
123 127
123 128
123 130
123 134
123 136
123 141
123 145
123 146
123 151
123 152
123 153
123 155
123 156
123 157
123 159
123 160
123 161
123 162
123 163
123 165
123 168
123 169
123 173
123 174
123 176
123 178
123 180
123 181
123 182
123 183
123 185
123 187
123 189
123 202
123 213
123 215
123 225
123 236
123 240
123 249
123 259
123 267
123 270
123 271
123 273
123 274
123 282
123 292
123 294
123 296
123 297
123 299
123 302
123 303
123 306
123 307
123 308
123 311
123 314
123 321
123 326
123 327
123 328
123 330
123 331
123 332
123 333
123 334
123 335
123 337
123 344
123 346
123 347
123 349
123 350
123 351
123 352
123 353
123 354
123 356
123 370
123 385
123 388
123 400
123 412
123 424
123 428
123 435
123 438
123 439
123 441
123 443
123 444
123 445
123 452
123 453
123 456
123 457
123 459
123 461
123 467
123 470
123 475
123 485
123 488
123 489
123 490
123 491
123 492
123 493
123 494
123 496
123 497
123 498
123 499
123 500
123 501
123 502
123 503
123 504
123 505
123 506
123 507
123 508
123 509
123 510
123 511
123 512
123 513
123 514
123 515
123 517
123 518
123 519
123 520
123 521
123 522
123 523
123 524
123 525
123 526
123 527
123 528
123 538
123 539
123 540
123 541
123 542
123 543
123 544
123 545
123 546
123 547
123 549
123 550
123 551
123 552
123 553
123 554
123 555
123 556
123 557
123 558
123 559
123 560
123 561
123 562
123 563
123 574
123 578
123 579
123 581
123 582
123 584
123 586
123 588
123 597
124 125
124 126
124 127
124 128
124 130
124 134
124 136
124 141
124 145
124 146
124 151
124 152
124 153
124 155
124 156
124 157
124 158
124 159
124 160
124 161
124 163
124 165
124 168
124 169
124 173
124 174
124 176
124 178
124 179
124 180
124 181
124 182
124 184
124 185
124 186
124 187
124 188
124 189
124 202
124 213
124 215
124 225
124 236
124 240
124 249
124 259
124 267
124 271
124 272
124 274
124 282
124 292
124 294
124 296
124 297
124 299
124 302
124 303
124 306
124 307
124 308
124 311
124 314
124 321
124 326
124 327
124 328
124 329
124 332
124 333
124 334
124 337
124 344
124 346
124 347
124 348
124 350
124 351
124 352
124 353
124 354
124 356
124 370
124 385
124 388
124 400
124 412
124 424
124 428
124 435
124 437
124 438
124 439
124 440
124 441
124 442
124 444
124 445
124 446
124 452
124 453
124 456
124 457
124 459
124 461
124 467
124 470
124 475
124 485
124 488
124 489
124 490
124 491
124 492
124 493
124 494
124 495
124 496
124 498
124 499
124 500
124 501
124 502
124 503
124 504
124 505
124 506
124 507
124 508
124 509
124 510
124 511
124 512
124 513
124 514
124 515
124 516
124 517
124 519
124 520
124 521
124 522
124 523
124 524
124 525
124 526
124 527
124 528
124 538
124 539
124 540
124 541
124 542
124 543
124 544
124 545
124 546
124 547
124 548
124 549
124 550
124 552
124 553
124 554
124 555
124 556
124 557
124 558
124 559
124 560
124 561
124 562
124 563
124 574
124 578
124 579
124 581
124 582
124 584
124 586
124 588
124 597
125 126
125 127
125 128
125 129
125 130
125 131
125 132
125 133
125 135
125 136
125 137
125 138
125 139
125 140
125 141
125 142
125 143
125 144
125 146
125 147
125 148
125 149
125 150
125 151
125 153
125 154
125 155
125 156
125 157
125 158
125 160
125 161
125 162
125 163
125 165
125 167
125 169
125 170
125 171
125 172
125 173
125 175
125 176
125 177
125 178
125 180
125 181
125 182
125 183
125 185
125 187
125 189
125 190
125 191
125 192
125 193
125 194
125 195
125 196
125 197
125 198
125 199
125 200
125 201
125 203
125 204
125 205
125 206
125 207
125 208
125 209
125 210
125 211
125 212
125 214
125 216
125 217
125 218
125 219
125 220
125 221
125 222
125 223
125 224
125 226
125 227
125 228
125 229
125 230
125 231
125 232
125 233
125 234
125 235
125 237
125 238
125 239
125 241
125 242
125 243
125 244
125 245
125 246
125 247
125 248
125 250
125 251
125 252
125 253
125 254
125 255
125 256
125 257
125 258
125 260
125 261
125 262
125 263
125 264
125 265
125 266
125 268
125 271
125 272
125 274
125 282
125 284
125 285
125 286
125 287
125 288
125 289
125 290
125 291
125 293
125 294
125 295
125 296
125 298
125 299
125 300
125 301
125 302
125 303
125 304
125 305
125 306
125 308
125 309
125 310
125 311
125 312
125 313
125 315
125 316
125 317
125 318
125 319
125 320
125 322
125 323
125 324
125 325
125 327
125 328
125 329
125 330
125 331
125 333
125 334
125 335
125 336
125 338
125 339
125 340
125 341
125 342
125 343
125 345
125 346
125 347
125 348
125 349
125 351
125 352
125 353
125 354
125 355
125 356
125 357
125 358
125 359
125 360
125 361
125 362
125 363
125 364
125 365
125 366
125 367
125 368
125 369
125 371
125 372
125 373
125 376
125 377
125 378
125 379
125 380
125 381
125 382
125 383
125 384
125 386
125 387
125 388
125 389
125 390
125 391
125 392
125 393
125 394
125 395
125 396
125 397
125 398
125 399
125 401
125 402
125 403
125 404
125 405
125 406
125 407
125 408
125 409
125 410
125 411
125 413
125 416
125 417
125 418
125 419
125 420
125 421
125 422
125 423
125 425
125 426
125 427
125 429
125 430
125 431
125 432
125 433
125 434
125 436
125 437
125 438
125 439
125 440
125 441
125 442
125 443
125 445
125 446
125 449
125 450
125 451
125 453
125 454
125 455
125 456
125 458
125 459
125 460
125 461
125 462
125 463
125 464
125 465
125 466
125 468
125 469
125 472
125 473
125 474
125 476
125 477
125 478
125 479
125 480
125 481
125 482
125 483
125 484
125 486
125 488
125 489
125 490
125 491
125 492
125 493
125 494
125 495
125 496
125 497
125 498
125 500
125 501
125 502
125 503
125 504
125 505
125 506
125 507
125 508
125 509
125 510
125 511
125 512
125 513
125 514
125 515
125 516
125 517
125 518
125 519
125 521
125 522
125 523
125 524
125 525
125 526
125 527
125 528
125 531
125 532
125 533
125 534
125 535
125 536
125 537
125 539
125 540
125 541
125 542
125 543
125 544
125 545
125 546
125 547
125 548
125 549
125 550
125 551
125 552
125 554
125 555
125 556
125 557
125 558
125 559
125 560
125 561
125 562
125 563
125 564
125 565
125 566
125 567
125 568
125 569
125 570
125 571
125 572
125 573
125 579
125 580
125 581
125 583
125 584
125 585
125 586
125 587
125 588
125 589
125 590
125 591
125 592
125 593
125 594
125 595
125 596
125 598
126 127
126 128
126 130
126 134
126 135
126 136
126 137
126 138
126 139
126 140
126 141
126 142
126 143
126 144
126 145
126 147
126 148
126 149
126 150
126 151
126 152
126 154
126 155
126 156
126 157
126 158
126 159
126 161
126 162
126 163
126 165
126 168
126 169
126 170
126 171
126 172
126 173
126 174
126 175
126 177
126 178
126 179
126 180
126 181
126 182
126 183
126 184
126 186
126 187
126 188
126 189
126 202
126 213
126 215
126 225
126 236
126 240
126 249
126 259
126 267
126 270
126 271
126 272
126 273
126 282
126 292
126 294
126 295
126 296
126 297
126 298
126 300
126 301
126 302
126 303
126 304
126 305
126 306
126 307
126 309
126 310
126 311
126 314
126 321
126 326
126 327
126 328
126 329
126 330
126 331
126 332
126 334
126 335
126 337
126 344
126 346
126 347
126 348
126 349
126 350
126 352
126 353
126 354
126 356
126 370
126 385
126 388
126 400
126 412
126 424
126 428
126 435
126 437
126 438
126 439
126 440
126 441
126 442
126 443
126 444
126 446
126 452
126 453
126 454
126 455
126 456
126 457
126 458
126 460
126 461
126 467
126 470
126 475
126 485
126 488
126 489
126 490
126 491
126 492
126 493
126 494
126 495
126 496
126 497
126 498
126 499
126 500
126 502
126 503
126 504
126 505
126 506
126 507
126 509
126 510
126 515
126 516
126 518
126 520
126 523
126 526
126 528
126 538
126 539
126 540
126 541
126 542
126 543
126 544
126 545
126 546
126 547
126 548
126 549
126 550
126 551
126 552
126 553
126 554
126 556
126 557
126 558
126 559
126 560
126 561
126 562
126 563
126 574
126 578
126 579
126 580
126 581
126 582
126 583
126 585
126 586
126 587
126 588
126 597
127 128
127 130
127 134
127 136
127 141
127 145
127 146
127 151
127 152
127 153
127 155
127 156
127 157
127 158
127 159
127 160
127 162
127 163
127 165
127 168
127 169
127 173
127 174
127 176
127 178
127 180
127 181
127 182
127 183
127 185
127 187
127 189
127 202
127 213
127 215
127 225
127 236
127 240
127 249
127 259
127 267
127 271
127 272
127 274
127 282
127 292
127 294
127 296
127 297
127 299
127 302
127 303
127 306
127 307
127 308
127 311
127 314
127 321
127 326
127 327
127 328
127 329
127 330
127 331
127 332
127 333
127 335
127 337
127 344
127 346
127 347
127 348
127 349
127 350
127 351
127 353
127 354
127 356
127 370
127 385
127 388
127 400
127 412
127 424
127 428
127 435
127 438
127 439
127 441
127 443
127 444
127 445
127 452
127 453
127 456
127 457
127 459
127 461
127 467
127 470
127 475
127 485
127 488
127 489
127 490
127 491
127 492
127 493
127 494
127 495
127 496
127 497
127 498
127 499
127 500
127 501
127 502
127 504
127 505
127 506
127 507
127 508
127 509
127 510
127 511
127 512
127 513
127 514
127 515
127 516
127 517
127 518
127 519
127 520
127 521
127 522
127 524
127 525
127 526
127 527
127 528
127 538
127 539
127 540
127 541
127 542
127 543
127 544
127 545
127 546
127 547
127 548
127 549
127 550
127 551
127 552
127 553
127 554
127 555
127 556
127 558
127 559
127 560
127 561
127 562
127 563
127 574
127 578
127 579
127 580
127 581
127 582
127 583
127 584
127 585
127 587
127 588
127 597
128 130
128 134
128 136
128 141
128 145
128 146
128 151
128 152
128 153
128 155
128 156
128 157
128 158
128 159
128 160
128 161
128 162
128 165
128 168
128 169
128 170
128 171
128 172
128 173
128 174
128 175
128 176
128 177
128 179
128 180
128 181
128 182
128 183
128 184
128 185
128 186
128 188
128 189
128 202
128 213
128 215
128 225
128 236
128 240
128 249
128 259
128 267
128 271
128 272
128 274
128 282
128 292
128 294
128 295
128 296
128 297
128 298
128 299
128 300
128 301
128 303
128 304
128 305
128 306
128 307
128 308
128 309
128 310
128 314
128 321
128 326
128 327
128 328
128 329
128 332
128 333
128 334
128 337
128 344
128 346
128 347
128 348
128 349
128 350
128 351
128 352
128 353
128 356
128 370
128 385
128 388
128 400
128 412
128 424
128 428
128 435
128 438
128 439
128 441
128 443
128 444
128 445
128 452
128 453
128 454
128 455
128 456
128 457
128 458
128 459
128 460
128 467
128 470
128 475
128 485
128 488
128 489
128 490
128 491
128 492
128 493
128 494
128 495
128 496
128 497
128 498
128 499
128 500
128 501
128 502
128 503
128 504
128 505
128 507
128 508
128 509
128 510
128 511
128 512
128 513
128 514
128 515
128 516
128 517
128 518
128 519
128 520
128 521
128 522
128 523
128 524
128 525
128 527
128 528
128 538
128 539
128 540
128 541
128 542
128 543
128 544
128 545
128 546
128 547
128 548
128 549
128 550
128 551
128 552
128 553
128 554
128 555
128 556
128 557
128 558
128 559
128 560
128 561
128 562
128 574
128 578
128 579
128 580
128 581
128 582
128 583
128 584
128 585
128 586
128 587
128 597
129 130
129 131
129 132
129 133
129 134
129 136
129 137
129 138
129 139
129 140
129 141
129 142
129 143
129 144
129 145
129 146
129 147
129 148
129 149
129 150
129 152
129 155
129 159
129 165
129 166
129 168
129 169
129 174
129 180
129 189
129 191
129 195
129 200
129 202
129 213
129 215
129 218
129 219
129 220
129 221
129 222
129 223
129 224
129 225
129 226
129 228
129 230
129 236
129 238
129 240
129 242
129 243
129 244
129 245
129 246
129 247
129 248
129 249
129 250
129 252
129 253
129 254
129 255
129 256
129 257
129 258
129 259
129 260
129 267
129 276
129 282
129 285
129 286
129 287
129 288
129 289
129 290
129 291
129 292
129 293
129 294
129 297
129 303
129 307
129 312
129 313
129 314
129 321
129 323
129 326
129 327
129 332
129 336
129 337
129 344
129 346
129 350
129 356
129 357
129 358
129 359
129 360
129 361
129 362
129 363
129 364
129 365
129 366
129 367
129 368
129 369
129 370
129 371
129 372
129 373
129 374
129 378
129 385
129 387
129 388
129 389
129 390
129 391
129 392
129 393
129 394
129 395
129 396
129 397
129 398
129 399
129 400
129 401
129 402
129 403
129 405
129 406
129 407
129 408
129 409
129 410
129 411
129 412
129 413
129 417
129 418
129 419
129 420
129 421
129 422
129 423
129 424
129 425
129 428
129 435
129 438
129 444
129 452
129 453
129 457
129 463
129 464
129 465
129 466
129 467
129 468
129 470
129 473
129 474
129 475
129 476
129 478
129 479
129 480
129 481
129 482
129 483
129 484
129 485
129 486
129 487
129 489
129 492
129 499
129 509
129 512
129 520
129 528
129 538
129 540
129 541
129 542
129 543
129 544
129 545
129 546
129 547
129 548
129 549
129 550
129 551
129 552
129 553
129 554
129 555
129 556
129 557
129 558
129 559
129 560
129 561
129 562
129 563
129 565
129 566
129 567
129 568
129 569
129 570
129 571
129 572
129 573
129 574
129 577
129 578
129 579
129 582
129 597
130 131
130 132
130 133
130 134
130 135
130 137
130 138
130 139
130 140
130 141
130 142
130 143
130 144
130 145
130 146
130 147
130 148
130 149
130 150
130 152
130 156
130 157
130 158
130 159
130 160
130 161
130 162
130 163
130 164
130 166
130 168
130 170
130 171
130 172
130 173
130 174
130 175
130 176
130 177
130 178
130 179
130 181
130 182
130 183
130 184
130 185
130 186
130 187
130 188
130 190
130 191
130 192
130 193
130 194
130 195
130 196
130 197
130 198
130 199
130 200
130 201
130 202
130 203
130 204
130 205
130 206
130 213
130 215
130 217
130 223
130 225
130 228
130 230
130 236
130 238
130 240
130 241
130 247
130 249
130 251
130 257
130 259
130 267
130 276
130 283
130 284
130 291
130 292
130 295
130 296
130 297
130 298
130 299
130 300
130 301
130 302
130 304
130 305
130 306
130 307
130 308
130 309
130 310
130 311
130 312
130 313
130 314
130 321
130 323
130 326
130 328
130 329
130 330
130 331
130 332
130 333
130 334
130 335
130 336
130 337
130 344
130 347
130 348
130 349
130 350
130 351
130 352
130 353
130 354
130 355
130 357
130 358
130 359
130 360
130 361
130 362
130 363
130 364
130 365
130 366
130 367
130 368
130 369
130 370
130 371
130 372
130 373
130 374
130 378
130 385
130 386
130 387
130 389
130 390
130 391
130 392
130 393
130 394
130 395
130 396
130 397
130 398
130 399
130 400
130 401
130 402
130 403
130 404
130 410
130 412
130 416
130 422
130 424
130 428
130 435
130 437
130 439
130 440
130 441
130 442
130 443
130 444
130 445
130 446
130 452
130 454
130 455
130 456
130 457
130 458
130 459
130 460
130 461
130 462
130 463
130 466
130 467
130 468
130 470
130 472
130 473
130 474
130 475
130 477
130 483
130 485
130 487
130 488
130 490
130 491
130 492
130 493
130 494
130 495
130 496
130 497
130 498
130 499
130 500
130 501
130 502
130 503
130 504
130 505
130 506
130 507
130 508
130 510
130 511
130 512
130 513
130 514
130 515
130 516
130 517
130 518
130 519
130 520
130 521
130 522
130 523
130 524
130 525
130 526
130 527
130 529
130 530
130 538
130 539
130 541
130 544
130 552
130 553
130 564
130 566
130 569
130 572
130 574
130 577
130 578
130 580
130 581
130 582
130 583
130 584
130 585
130 586
130 587
130 588
130 597
131 132
131 133
131 134
131 135
131 136
131 138
131 139
131 140
131 141
131 142
131 143
131 144
131 145
131 146
131 147
131 148
131 149
131 150
131 152
131 155
131 159
131 164
131 165
131 166
131 168
131 169
131 174
131 180
131 189
131 190
131 192
131 193
131 194
131 195
131 196
131 197
131 198
131 199
131 200
131 201
131 202
131 203
131 204
131 205
131 206
131 213
131 215
131 217
131 223
131 225
131 227
131 229
131 230
131 231
131 232
131 233
131 234
131 235
131 236
131 237
131 239
131 240
131 241
131 247
131 249
131 251
131 257
131 259
131 267
131 275
131 277
131 278
131 279
131 280
131 281
131 282
131 284
131 291
131 292
131 294
131 297
131 303
131 307
131 313
131 314
131 321
131 324
131 325
131 326
131 327
131 332
131 336
131 337
131 344
131 346
131 350
131 355
131 356
131 357
131 359
131 360
131 361
131 362
131 363
131 364
131 365
131 366
131 367
131 368
131 369
131 370
131 371
131 372
131 373
131 374
131 376
131 377
131 379
131 380
131 381
131 382
131 383
131 384
131 385
131 386
131 388
131 393
131 397
131 400
131 404
131 410
131 412
131 416
131 422
131 424
131 428
131 435
131 438
131 444
131 452
131 453
131 457
131 462
131 464
131 465
131 466
131 467
131 468
131 470
131 472
131 474
131 475
131 476
131 477
131 483
131 485
131 487
131 489
131 492
131 499
131 509
131 512
131 520
131 528
131 538
131 539
131 540
131 542
131 543
131 544
131 545
131 546
131 547
131 548
131 549
131 550
131 551
131 552
131 553
131 554
131 555
131 556
131 557
131 558
131 559
131 560
131 561
131 562
131 563
131 564
131 565
131 567
131 568
131 569
131 570
131 571
131 572
131 573
131 574
131 577
131 578
131 579
131 582
131 597
132 133
132 134
132 135
132 136
132 137
132 144
132 145
132 152
132 155
132 159
132 164
132 165
132 168
132 169
132 174
132 180
132 189
132 190
132 191
132 192
132 193
132 194
132 196
132 197
132 198
132 199
132 200
132 201
132 202
132 203
132 204
132 205
132 206
132 213
132 215
132 217
132 223
132 225
132 227
132 228
132 229
132 231
132 232
132 233
132 234
132 235
132 236
132 238
132 240
132 241
132 247
132 249
132 251
132 257
132 259
132 267
132 276
132 282
132 284
132 291
132 292
132 294
132 297
132 303
132 307
132 312
132 314
132 321
132 323
132 326
132 327
132 332
132 337
132 344
132 346
132 350
132 355
132 356
132 357
132 358
132 359
132 360
132 361
132 363
132 364
132 365
132 366
132 367
132 368
132 369
132 370
132 371
132 372
132 373
132 374
132 378
132 385
132 386
132 387
132 388
132 389
132 390
132 391
132 392
132 394
132 395
132 396
132 397
132 398
132 399
132 400
132 401
132 402
132 403
132 404
132 410
132 412
132 416
132 422
132 424
132 428
132 435
132 438
132 444
132 452
132 453
132 457
132 462
132 463
132 466
132 467
132 469
132 470
132 472
132 473
132 474
132 475
132 477
132 483
132 485
132 488
132 489
132 490
132 491
132 493
132 494
132 495
132 496
132 497
132 498
132 499
132 500
132 501
132 502
132 503
132 504
132 505
132 506
132 507
132 508
132 509
132 510
132 511
132 513
132 514
132 515
132 516
132 517
132 518
132 519
132 520
132 521
132 522
132 523
132 524
132 525
132 526
132 527
132 528
132 538
132 539
132 540
132 541
132 542
132 543
132 545
132 546
132 547
132 548
132 549
132 550
132 551
132 552
132 553
132 554
132 555
132 556
132 557
132 558
132 559
132 560
132 561
132 562
132 563
132 564
132 565
132 566
132 567
132 568
132 570
132 571
132 572
132 573
132 574
132 577
132 578
132 579
132 582
132 597
133 134
133 135
133 136
133 137
133 138
133 139
133 140
133 141
133 142
133 143
133 145
133 146
133 147
133 148
133 149
133 150
133 152
133 155
133 159
133 164
133 165
133 166
133 168
133 169
133 174
133 180
133 189
133 190
133 191
133 192
133 193
133 194
133 195
133 196
133 197
133 198
133 199
133 201
133 202
133 203
133 204
133 205
133 206
133 213
133 215
133 217
133 218
133 219
133 220
133 221
133 222
133 224
133 225
133 226
133 228
133 230
133 236
133 238
133 240
133 241
133 242
133 243
133 244
133 245
133 246
133 248
133 249
133 250
133 251
133 252
133 253
133 254
133 255
133 256
133 258
133 259
133 260
133 267
133 276
133 282
133 284
133 285
133 286
133 287
133 288
133 289
133 290
133 292
133 293
133 294
133 297
133 303
133 307
133 312
133 313
133 314
133 321
133 323
133 326
133 327
133 332
133 336
133 337
133 344
133 346
133 350
133 355
133 356
133 358
133 362
133 370
133 375
133 378
133 385
133 386
133 387
133 388
133 389
133 390
133 391
133 392
133 393
133 394
133 395
133 396
133 398
133 399
133 400
133 401
133 402
133 403
133 404
133 405
133 406
133 407
133 408
133 409
133 411
133 412
133 413
133 416
133 417
133 418
133 419
133 420
133 421
133 423
133 424
133 425
133 428
133 435
133 438
133 444
133 452
133 453
133 457
133 462
133 463
133 464
133 465
133 467
133 468
133 470
133 472
133 473
133 475
133 476
133 477
133 478
133 479
133 480
133 481
133 482
133 484
133 485
133 486
133 487
133 489
133 492
133 499
133 509
133 512
133 520
133 528
133 538
133 539
133 540
133 541
133 542
133 543
133 544
133 545
133 546
133 547
133 548
133 549
133 550
133 551
133 553
133 554
133 555
133 556
133 557
133 558
133 559
133 560
133 561
133 562
133 563
133 564
133 565
133 566
133 567
133 568
133 569
133 570
133 571
133 573
133 574
133 578
133 579
133 582
133 597
134 135
134 136
134 137
134 138
134 139
134 140
134 141
134 142
134 143
134 144
134 146
134 147
134 148
134 149
134 150
134 151
134 153
134 154
134 155
134 156
134 157
134 158
134 160
134 161
134 162
134 163
134 164
134 165
134 166
134 167
134 169
134 170
134 171
134 172
134 173
134 175
134 176
134 177
134 178
134 180
134 189
134 190
134 191
134 192
134 193
134 194
134 195
134 196
134 197
134 198
134 199
134 200
134 201
134 203
134 204
134 205
134 206
134 207
134 208
134 209
134 210
134 211
134 212
134 214
134 216
134 217
134 218
134 219
134 220
134 221
134 222
134 223
134 224
134 226
134 227
134 228
134 229
134 230
134 231
134 232
134 233
134 234
134 235
134 237
134 238
134 239
134 241
134 242
134 243
134 244
134 245
134 246
134 247
134 248
134 250
134 251
134 252
134 253
134 254
134 255
134 256
134 257
134 258
134 260
134 261
134 262
134 263
134 264
134 265
134 266
134 268
134 276
134 282
134 284
134 285
134 286
134 287
134 288
134 289
134 290
134 291
134 293
134 294
134 295
134 296
134 298
134 299
134 300
134 301
134 302
134 303
134 304
134 305
134 306
134 308
134 309
134 310
134 311
134 312
134 313
134 315
134 316
134 317
134 318
134 319
134 320
134 322
134 323
134 324
134 325
134 327
134 328
134 329
134 330
134 331
134 333
134 334
134 335
134 336
134 338
134 339
134 340
134 341
134 342
134 343
134 345
134 346
134 347
134 348
134 349
134 351
134 352
134 353
134 354
134 355
134 356
134 357
134 358
134 359
134 360
134 361
134 362
134 363
134 364
134 365
134 366
134 367
134 368
134 369
134 371
134 372
134 373
134 374
134 376
134 377
134 378
134 379
134 380
134 381
134 382
134 383
134 384
134 386
134 387
134 388
134 389
134 390
134 391
134 392
134 393
134 394
134 395
134 396
134 397
134 398
134 399
134 401
134 402
134 403
134 404
134 405
134 406
134 407
134 408
134 409
134 410
134 411
134 413
134 416
134 417
134 418
134 419
134 420
134 421
134 422
134 423
134 425
134 426
134 427
134 429
134 430
134 431
134 432
134 433
134 434
134 436
134 437
134 438
134 439
134 440
134 441
134 442
134 443
134 445
134 446
134 449
134 450
134 451
134 453
134 454
134 455
134 456
134 458
134 459
134 460
134 461
134 462
134 463
134 464
134 465
134 466
134 468
134 469
134 472
134 473
134 474
134 476
134 477
134 478
134 479
134 480
134 481
134 482
134 483
134 484
134 486
134 487
134 488
134 489
134 490
134 491
134 492
134 493
134 494
134 495
134 496
134 497
134 498
134 500
134 501
134 502
134 503
134 504
134 505
134 506
134 507
134 508
134 509
134 510
134 511
134 512
134 513
134 514
134 515
134 516
134 517
134 518
134 519
134 521
134 522
134 523
134 524
134 525
134 526
134 527
134 528
134 531
134 532
134 533
134 534
134 535
134 536
134 537
134 539
134 540
134 541
134 542
134 543
134 544
134 545
134 546
134 547
134 548
134 549
134 550
134 551
134 552
134 554
134 555
134 556
134 557
134 558
134 559
134 560
134 561
134 562
134 563
134 564
134 565
134 566
134 567
134 568
134 569
134 570
134 571
134 572
134 573
134 577
134 579
134 580
134 581
134 583
134 584
134 585
134 586
134 587
134 588
134 589
134 590
134 591
134 592
134 593
134 594
134 595
134 596
134 598
135 136
135 137
135 138
135 139
135 140
135 141
135 142
135 143
135 144
135 145
135 146
135 147
135 148
135 149
135 150
135 151
135 152
135 153
135 155
135 157
135 159
135 160
135 165
135 166
135 168
135 169
135 173
135 174
135 176
135 180
135 182
135 185
135 189
135 191
135 199
135 200
135 202
135 204
135 205
135 213
135 215
135 218
135 219
135 220
135 221
135 222
135 223
135 224
135 225
135 226
135 228
135 234
135 236
135 238
135 240
135 242
135 243
135 244
135 245
135 246
135 247
135 248
135 249
135 250
135 252
135 253
135 254
135 255
135 256
135 257
135 258
135 259
135 260
135 267
135 271
135 274
135 276
135 278
135 280
135 282
135 285
135 286
135 287
135 288
135 289
135 290
135 291
135 292
135 293
135 294
135 296
135 297
135 299
135 303
135 306
135 307
135 308
135 312
135 314
135 321
135 323
135 326
135 327
135 328
135 332
135 333
135 337
135 344
135 346
135 347
135 350
135 351
135 356
135 357
135 358
135 359
135 360
135 361
135 362
135 363
135 364
135 365
135 366
135 367
135 368
135 369
135 370
135 371
135 372
135 373
135 374
135 378
135 380
135 383
135 385
135 387
135 388
135 389
135 390
135 391
135 392
135 393
135 394
135 395
135 396
135 397
135 398
135 399
135 400
135 401
135 402
135 403
135 405
135 406
135 407
135 408
135 409
135 410
135 411
135 412
135 413
135 417
135 418
135 419
135 420
135 421
135 422
135 423
135 424
135 425
135 428
135 435
135 438
135 441
135 444
135 445
135 449
135 451
135 452
135 453
135 456
135 457
135 459
135 463
135 464
135 465
135 466
135 467
135 470
135 473
135 474
135 475
135 476
135 478
135 479
135 480
135 481
135 482
135 483
135 484
135 485
135 486
135 489
135 499
135 501
135 509
135 515
135 520
135 528
135 538
135 540
135 541
135 542
135 543
135 544
135 545
135 546
135 547
135 548
135 549
135 550
135 551
135 552
135 553
135 554
135 555
135 556
135 557
135 558
135 559
135 560
135 561
135 562
135 563
135 565
135 566
135 567
135 568
135 569
135 570
135 571
135 572
135 573
135 574
135 577
135 578
135 579
135 581
135 582
135 584
135 597
136 137
136 138
136 139
136 140
136 141
136 142
136 143
136 144
136 145
136 146
136 147
136 148
136 149
136 150
136 151
136 152
136 153
136 156
136 157
136 158
136 159
136 160
136 161
136 162
136 163
136 164
136 166
136 168
136 170
136 171
136 172
136 173
136 174
136 175
136 176
136 177
136 178
136 179
136 181
136 182
136 183
136 184
136 185
136 186
136 187
136 188
136 190
136 191
136 192
136 193
136 194
136 195
136 196
136 197
136 198
136 199
136 200
136 201
136 202
136 203
136 204
136 205
136 206
136 213
136 215
136 217
136 223
136 225
136 228
136 234
136 236
136 238
136 240
136 241
136 247
136 249
136 251
136 257
136 259
136 267
136 271
136 274
136 276
136 278
136 280
136 283
136 284
136 291
136 292
136 295
136 296
136 297
136 298
136 299
136 300
136 301
136 302
136 304
136 305
136 306
136 307
136 308
136 309
136 310
136 311
136 312
136 314
136 321
136 323
136 326
136 328
136 329
136 330
136 331
136 332
136 333
136 334
136 335
136 337
136 344
136 347
136 348
136 349
136 350
136 351
136 352
136 353
136 354
136 355
136 357
136 358
136 359
136 360
136 361
136 362
136 363
136 364
136 365
136 366
136 367
136 368
136 369
136 370
136 371
136 372
136 373
136 374
136 378
136 380
136 383
136 385
136 386
136 387
136 389
136 390
136 391
136 392
136 393
136 394
136 395
136 396
136 397
136 398
136 399
136 400
136 401
136 402
136 403
136 404
136 410
136 412
136 416
136 422
136 424
136 428
136 435
136 437
136 439
136 440
136 441
136 442
136 443
136 444
136 445
136 446
136 449
136 451
136 452
136 454
136 455
136 456
136 457
136 458
136 459
136 460
136 461
136 462
136 463
136 466
136 467
136 470
136 472
136 473
136 474
136 475
136 477
136 483
136 485
136 488
136 490
136 491
136 492
136 493
136 494
136 495
136 496
136 497
136 498
136 499
136 500
136 501
136 502
136 503
136 504
136 505
136 506
136 507
136 508
136 510
136 511
136 512
136 513
136 514
136 515
136 516
136 517
136 518
136 519
136 520
136 521
136 522
136 523
136 524
136 525
136 526
136 527
136 529
136 530
136 538
136 539
136 541
136 547
136 552
136 553
136 555
136 558
136 561
136 564
136 566
136 568
136 572
136 574
136 577
136 578
136 580
136 581
136 582
136 583
136 584
136 585
136 586
136 587
136 588
136 597
137 138
137 139
137 140
137 141
137 142
137 143
137 144
137 145
137 146
137 147
137 148
137 149
137 150
137 151
137 152
137 153
137 155
137 157
137 159
137 160
137 164
137 165
137 168
137 169
137 173
137 174
137 176
137 180
137 182
137 185
137 189
137 190
137 192
137 193
137 194
137 195
137 196
137 197
137 198
137 199
137 200
137 201
137 202
137 203
137 204
137 205
137 206
137 213
137 215
137 217
137 223
137 225
137 227
137 229
137 230
137 231
137 232
137 233
137 234
137 235
137 236
137 237
137 239
137 240
137 241
137 247
137 249
137 251
137 257
137 259
137 267
137 271
137 274
137 275
137 277
137 278
137 279
137 280
137 281
137 282
137 284
137 291
137 292
137 294
137 296
137 297
137 299
137 303
137 306
137 307
137 308
137 313
137 314
137 321
137 324
137 325
137 326
137 327
137 328
137 332
137 333
137 337
137 344
137 346
137 347
137 350
137 351
137 355
137 356
137 357
137 359
137 360
137 361
137 362
137 363
137 364
137 365
137 366
137 367
137 368
137 369
137 370
137 371
137 372
137 373
137 374
137 376
137 377
137 379
137 380
137 381
137 382
137 383
137 384
137 385
137 386
137 388
137 392
137 396
137 397
137 400
137 401
137 402
137 404
137 410
137 412
137 416
137 422
137 424
137 428
137 435
137 438
137 441
137 444
137 445
137 449
137 451
137 452
137 453
137 456
137 457
137 459
137 462
137 464
137 465
137 466
137 467
137 470
137 472
137 474
137 475
137 476
137 477
137 483
137 485
137 489
137 499
137 501
137 509
137 515
137 520
137 528
137 538
137 539
137 540
137 542
137 543
137 544
137 545
137 546
137 547
137 548
137 549
137 550
137 551
137 552
137 553
137 554
137 555
137 556
137 557
137 558
137 559
137 560
137 561
137 562
137 563
137 564
137 565
137 567
137 568
137 569
137 570
137 571
137 572
137 573
137 574
137 577
137 578
137 579
137 581
137 582
137 584
137 597
138 139
138 140
138 141
138 142
138 143
138 144
138 145
138 146
138 147
138 148
138 149
138 150
138 151
138 152
138 153
138 155
138 157
138 159
138 160
138 164
138 165
138 168
138 169
138 173
138 174
138 176
138 180
138 182
138 185
138 189
138 191
138 199
138 200
138 202
138 204
138 205
138 213
138 215
138 217
138 223
138 225
138 228
138 234
138 236
138 238
138 240
138 241
138 247
138 249
138 251
138 257
138 259
138 267
138 271
138 274
138 276
138 278
138 280
138 282
138 284
138 291
138 292
138 294
138 296
138 297
138 299
138 303
138 306
138 307
138 308
138 312
138 314
138 321
138 323
138 326
138 327
138 328
138 332
138 333
138 337
138 344
138 346
138 347
138 350
138 351
138 355
138 356
138 358
138 368
138 370
138 372
138 374
138 378
138 380
138 383
138 385
138 386
138 388
138 392
138 396
138 397
138 400
138 401
138 402
138 404
138 410
138 412
138 416
138 422
138 424
138 428
138 435
138 438
138 441
138 444
138 445
138 449
138 451
138 452
138 453
138 456
138 457
138 459
138 462
138 463
138 466
138 467
138 470
138 472
138 473
138 474
138 475
138 477
138 483
138 485
138 489
138 499
138 501
138 509
138 515
138 520
138 528
138 538
138 539
138 541
138 547
138 552
138 553
138 555
138 558
138 561
138 564
138 566
138 568
138 572
138 574
138 577
138 578
138 579
138 581
138 582
138 584
138 597
139 140
139 141
139 142
139 143
139 144
139 145
139 146
139 147
139 148
139 149
139 150
139 151
139 152
139 153
139 155
139 157
139 159
139 160
139 164
139 165
139 168
139 169
139 173
139 174
139 176
139 180
139 182
139 185
139 189
139 191
139 199
139 200
139 202
139 204
139 205
139 213
139 215
139 217
139 223
139 225
139 228
139 234
139 236
139 238
139 240
139 241
139 247
139 249
139 251
139 257
139 259
139 267
139 271
139 274
139 275
139 276
139 277
139 279
139 280
139 281
139 282
139 284
139 291
139 292
139 294
139 296
139 297
139 299
139 303
139 306
139 307
139 308
139 312
139 314
139 321
139 323
139 326
139 327
139 328
139 332
139 333
139 337
139 344
139 346
139 347
139 350
139 351
139 355
139 356
139 358
139 368
139 370
139 372
139 374
139 376
139 377
139 378
139 379
139 381
139 382
139 383
139 384
139 385
139 386
139 387
139 388
139 389
139 390
139 391
139 393
139 394
139 395
139 396
139 397
139 398
139 399
139 400
139 401
139 402
139 403
139 404
139 410
139 412
139 416
139 422
139 424
139 428
139 435
139 438
139 441
139 444
139 445
139 450
139 451
139 452
139 453
139 456
139 457
139 459
139 462
139 463
139 466
139 467
139 470
139 472
139 473
139 474
139 475
139 477
139 483
139 485
139 489
139 499
139 501
139 509
139 515
139 520
139 528
139 538
139 539
139 541
139 547
139 552
139 553
139 555
139 558
139 561
139 564
139 565
139 566
139 567
139 569
139 570
139 571
139 572
139 573
139 574
139 577
139 578
139 579
139 581
139 582
139 584
139 597
140 141
140 142
140 143
140 144
140 145
140 146
140 147
140 148
140 149
140 150
140 151
140 152
140 153
140 155
140 157
140 159
140 160
140 164
140 165
140 168
140 169
140 173
140 174
140 176
140 180
140 182
140 185
140 189
140 191
140 199
140 200
140 202
140 204
140 205
140 213
140 215
140 217
140 223
140 225
140 228
140 234
140 236
140 238
140 240
140 241
140 247
140 249
140 251
140 257
140 259
140 267
140 271
140 274
140 276
140 278
140 280
140 282
140 284
140 291
140 292
140 294
140 296
140 297
140 299
140 303
140 306
140 307
140 308
140 312
140 314
140 321
140 323
140 326
140 327
140 328
140 332
140 333
140 337
140 344
140 346
140 347
140 350
140 351
140 355
140 356
140 358
140 368
140 370
140 372
140 374
140 378
140 380
140 383
140 385
140 386
140 388
140 392
140 396
140 397
140 400
140 401
140 402
140 404
140 410
140 412
140 416
140 422
140 424
140 428
140 435
140 438
140 441
140 444
140 445
140 449
140 451
140 452
140 453
140 456
140 457
140 459
140 462
140 463
140 466
140 467
140 470
140 472
140 473
140 474
140 475
140 477
140 483
140 485
140 489
140 499
140 501
140 509
140 515
140 520
140 528
140 538
140 539
140 541
140 547
140 552
140 553
140 555
140 558
140 561
140 564
140 566
140 568
140 572
140 574
140 577
140 578
140 579
140 581
140 582
140 584
140 597
141 142
141 143
141 144
141 145
141 146
141 147
141 148
141 149
141 150
141 152
141 153
141 154
141 155
141 156
141 158
141 159
141 160
141 161
141 162
141 163
141 164
141 165
141 168
141 169
141 170
141 171
141 172
141 174
141 175
141 176
141 177
141 178
141 179
141 180
141 181
141 183
141 184
141 185
141 186
141 187
141 188
141 189
141 191
141 199
141 200
141 202
141 204
141 205
141 213
141 215
141 217
141 223
141 225
141 228
141 234
141 236
141 238
141 240
141 241
141 247
141 249
141 251
141 257
141 259
141 267
141 270
141 272
141 273
141 274
141 276
141 278
141 280
141 282
141 284
141 291
141 292
141 294
141 295
141 297
141 298
141 299
141 300
141 301
141 302
141 303
141 304
141 305
141 307
141 308
141 309
141 310
141 311
141 312
141 314
141 321
141 323
141 326
141 327
141 329
141 330
141 331
141 332
141 333
141 334
141 335
141 337
141 344
141 346
141 348
141 349
141 350
141 351
141 352
141 353
141 354
141 355
141 356
141 358
141 368
141 370
141 372
141 374
141 378
141 380
141 383
141 385
141 386
141 388
141 392
141 396
141 397
141 400
141 401
141 402
141 404
141 410
141 412
141 416
141 422
141 424
141 428
141 435
141 437
141 438
141 439
141 440
141 442
141 443
141 444
141 445
141 446
141 449
141 451
141 452
141 453
141 454
141 455
141 457
141 458
141 459
141 460
141 461
141 462
141 463
141 466
141 467
141 470
141 472
141 473
141 474
141 475
141 477
141 483
141 485
141 489
141 499
141 501
141 508
141 509
141 510
141 511
141 512
141 513
141 514
141 516
141 517
141 518
141 519
141 520
141 521
141 522
141 523
141 524
141 525
141 526
141 527
141 528
141 538
141 539
141 540
141 541
141 542
141 543
141 544
141 545
141 546
141 548
141 549
141 550
141 551
141 552
141 553
141 554
141 555
141 556
141 557
141 558
141 559
141 560
141 561
141 562
141 563
141 564
141 566
141 568
141 572
141 574
141 577
141 578
141 579
141 580
141 582
141 583
141 584
141 585
141 586
141 587
141 588
141 597
142 143
142 144
142 145
142 146
142 147
142 148
142 149
142 150
142 151
142 152
142 153
142 155
142 157
142 159
142 160
142 164
142 165
142 168
142 169
142 173
142 174
142 176
142 180
142 182
142 185
142 189
142 191
142 199
142 200
142 202
142 204
142 205
142 213
142 215
142 217
142 223
142 225
142 228
142 234
142 236
142 238
142 240
142 241
142 247
142 249
142 251
142 257
142 259
142 267
142 271
142 274
142 276
142 278
142 280
142 282
142 284
142 291
142 292
142 294
142 296
142 297
142 299
142 303
142 306
142 307
142 308
142 312
142 314
142 321
142 323
142 326
142 327
142 328
142 332
142 333
142 337
142 344
142 346
142 347
142 350
142 351
142 355
142 356
142 358
142 368
142 370
142 372
142 374
142 378
142 380
142 383
142 385
142 386
142 388
142 392
142 396
142 397
142 400
142 401
142 402
142 404
142 410
142 412
142 416
142 422
142 424
142 428
142 435
142 438
142 441
142 444
142 445
142 449
142 450
142 452
142 453
142 456
142 457
142 459
142 462
142 463
142 466
142 467
142 470
142 472
142 473
142 474
142 475
142 477
142 483
142 485
142 489
142 499
142 501
142 509
142 515
142 520
142 528
142 538
142 539
142 541
142 547
142 552
142 553
142 555
142 558
142 561
142 564
142 566
142 568
142 572
142 574
142 577
142 578
142 579
142 581
142 582
142 584
142 597
143 144
143 145
143 146
143 147
143 148
143 149
143 150
143 151
143 152
143 153
143 155
143 157
143 159
143 160
143 164
143 165
143 168
143 169
143 173
143 174
143 176
143 180
143 182
143 185
143 189
143 190
143 191
143 192
143 193
143 194
143 195
143 196
143 197
143 198
143 200
143 201
143 202
143 203
143 204
143 205
143 206
143 213
143 215
143 217
143 223
143 225
143 227
143 228
143 229
143 230
143 231
143 232
143 233
143 235
143 236
143 238
143 240
143 241
143 247
143 249
143 251
143 257
143 259
143 267
143 271
143 274
143 275
143 276
143 277
143 278
143 279
143 281
143 282
143 284
143 291
143 292
143 294
143 296
143 297
143 299
143 303
143 306
143 307
143 308
143 312
143 314
143 321
143 323
143 326
143 327
143 328
143 332
143 333
143 337
143 344
143 346
143 347
143 350
143 351
143 355
143 356
143 357
143 358
143 359
143 360
143 361
143 362
143 363
143 364
143 365
143 366
143 367
143 369
143 370
143 371
143 372
143 373
143 374
143 376
143 377
143 378
143 379
143 380
143 381
143 382
143 384
143 385
143 386
143 387
143 388
143 389
143 390
143 391
143 392
143 393
143 394
143 395
143 397
143 398
143 399
143 400
143 401
143 402
143 403
143 404
143 410
143 412
143 416
143 422
143 424
143 428
143 435
143 438
143 441
143 444
143 445
143 449
143 451
143 452
143 453
143 456
143 457
143 459
143 462
143 463
143 466
143 467
143 470
143 472
143 473
143 474
143 475
143 477
143 483
143 485
143 489
143 499
143 501
143 509
143 515
143 520
143 528
143 538
143 539
143 541
143 547
143 552
143 553
143 555
143 558
143 561
143 564
143 566
143 568
143 572
143 574
143 577
143 578
143 579
143 581
143 582
143 584
143 597
144 145
144 146
144 147
144 148
144 149
144 150
144 151
144 152
144 153
144 155
144 157
144 159
144 160
144 164
144 165
144 168
144 169
144 173
144 174
144 176
144 180
144 182
144 185
144 189
144 190
144 191
144 192
144 193
144 194
144 195
144 196
144 197
144 198
144 199
144 201
144 202
144 203
144 204
144 205
144 206
144 213
144 215
144 217
144 218
144 219
144 220
144 221
144 222
144 224
144 225
144 226
144 228
144 234
144 236
144 238
144 240
144 241
144 242
144 243
144 244
144 245
144 246
144 248
144 249
144 250
144 251
144 252
144 253
144 254
144 255
144 256
144 258
144 259
144 260
144 267
144 271
144 274
144 276
144 278
144 280
144 282
144 284
144 285
144 286
144 287
144 288
144 289
144 290
144 292
144 293
144 294
144 296
144 297
144 299
144 303
144 306
144 307
144 308
144 312
144 314
144 321
144 323
144 326
144 327
144 328
144 332
144 333
144 337
144 344
144 346
144 347
144 350
144 351
144 355
144 356
144 358
144 368
144 370
144 372
144 375
144 378
144 380
144 383
144 385
144 386
144 387
144 388
144 389
144 390
144 391
144 392
144 393
144 394
144 395
144 396
144 398
144 399
144 400
144 401
144 402
144 403
144 404
144 405
144 406
144 407
144 408
144 409
144 411
144 412
144 413
144 416
144 417
144 418
144 419
144 420
144 421
144 423
144 424
144 425
144 428
144 435
144 438
144 441
144 444
144 445
144 449
144 451
144 452
144 453
144 456
144 457
144 459
144 462
144 463
144 464
144 465
144 467
144 470
144 472
144 473
144 475
144 476
144 477
144 478
144 479
144 480
144 481
144 482
144 484
144 485
144 486
144 489
144 499
144 501
144 509
144 515
144 520
144 528
144 538
144 539
144 540
144 541
144 542
144 543
144 544
144 545
144 546
144 547
144 548
144 549
144 550
144 551
144 553
144 554
144 555
144 556
144 557
144 558
144 559
144 560
144 561
144 562
144 563
144 564
144 565
144 566
144 567
144 568
144 569
144 570
144 571
144 573
144 574
144 578
144 579
144 581
144 582
144 584
144 597
145 146
145 147
145 148
145 149
145 150
145 151
145 153
145 154
145 155
145 156
145 157
145 158
145 160
145 161
145 162
145 163
145 164
145 165
145 167
145 169
145 170
145 171
145 172
145 173
145 175
145 176
145 177
145 178
145 180
145 182
145 185
145 189
145 190
145 191
145 192
145 193
145 194
145 195
145 196
145 197
145 198
145 199
145 200
145 201
145 203
145 204
145 205
145 206
145 207
145 208
145 209
145 210
145 211
145 212
145 214
145 216
145 217
145 218
145 219
145 220
145 221
145 222
145 223
145 224
145 226
145 227
145 228
145 229
145 230
145 231
145 232
145 233
145 234
145 235
145 237
145 238
145 239
145 241
145 242
145 243
145 244
145 245
145 246
145 247
145 248
145 250
145 251
145 252
145 253
145 254
145 255
145 256
145 257
145 258
145 260
145 261
145 262
145 263
145 264
145 265
145 266
145 268
145 271
145 274
145 276
145 278
145 280
145 282
145 284
145 285
145 286
145 287
145 288
145 289
145 290
145 291
145 293
145 294
145 295
145 296
145 298
145 299
145 300
145 301
145 302
145 303
145 304
145 305
145 306
145 308
145 309
145 310
145 311
145 312
145 313
145 315
145 316
145 317
145 318
145 319
145 320
145 322
145 323
145 324
145 325
145 327
145 328
145 329
145 330
145 331
145 333
145 334
145 335
145 336
145 338
145 339
145 340
145 341
145 342
145 343
145 345
145 346
145 347
145 348
145 349
145 351
145 352
145 353
145 354
145 355
145 356
145 357
145 358
145 359
145 360
145 361
145 362
145 363
145 364
145 365
145 366
145 367
145 368
145 369
145 371
145 372
145 373
145 374
145 376
145 377
145 378
145 379
145 380
145 381
145 382
145 383
145 384
145 386
145 387
145 388
145 389
145 390
145 391
145 392
145 393
145 394
145 395
145 396
145 397
145 398
145 399
145 401
145 402
145 403
145 404
145 405
145 406
145 407
145 408
145 409
145 410
145 411
145 413
145 416
145 417
145 418
145 419
145 420
145 421
145 422
145 423
145 425
145 426
145 427
145 429
145 430
145 431
145 432
145 433
145 434
145 436
145 437
145 438
145 439
145 440
145 441
145 442
145 443
145 445
145 446
145 449
145 450
145 451
145 453
145 454
145 455
145 456
145 458
145 459
145 460
145 461
145 462
145 463
145 464
145 465
145 466
145 468
145 469
145 472
145 473
145 474
145 476
145 477
145 478
145 479
145 480
145 481
145 482
145 483
145 484
145 486
145 488
145 489
145 490
145 491
145 492
145 493
145 494
145 495
145 496
145 497
145 498
145 500
145 501
145 502
145 503
145 504
145 505
145 506
145 507
145 508
145 509
145 510
145 511
145 512
145 513
145 514
145 515
145 516
145 517
145 518
145 519
145 521
145 522
145 523
145 524
145 525
145 526
145 527
145 528
145 531
145 532
145 533
145 534
145 535
145 536
145 537
145 539
145 540
145 541
145 542
145 543
145 544
145 545
145 546
145 547
145 548
145 549
145 550
145 551
145 552
145 554
145 555
145 556
145 557
145 558
145 559
145 560
145 561
145 562
145 563
145 564
145 565
145 566
145 567
145 568
145 569
145 570
145 571
145 572
145 573
145 577
145 579
145 580
145 581
145 583
145 584
145 585
145 586
145 587
145 588
145 589
145 590
145 591
145 592
145 593
145 594
145 595
145 596
145 598
146 147
146 148
146 149
146 150
146 151
146 152
146 154
146 155
146 156
146 157
146 158
146 159
146 161
146 162
146 163
146 164
146 165
146 168
146 169
146 170
146 171
146 172
146 173
146 174
146 175
146 177
146 178
146 179
146 180
146 181
146 182
146 183
146 184
146 186
146 187
146 188
146 189
146 191
146 199
146 200
146 202
146 204
146 205
146 213
146 215
146 217
146 223
146 225
146 228
146 234
146 236
146 238
146 240
146 241
146 247
146 249
146 251
146 257
146 259
146 267
146 270
146 271
146 272
146 273
146 276
146 278
146 280
146 282
146 284
146 291
146 292
146 294
146 295
146 296
146 297
146 298
146 300
146 301
146 302
146 303
146 304
146 305
146 306
146 307
146 309
146 310
146 311
146 312
146 314
146 321
146 323
146 326
146 327
146 328
146 329
146 330
146 331
146 332
146 334
146 335
146 337
146 344
146 346
146 347
146 348
146 349
146 350
146 352
146 353
146 354
146 355
146 356
146 358
146 368
146 370
146 372
146 374
146 378
146 380
146 383
146 385
146 386
146 388
146 392
146 396
146 397
146 400
146 401
146 402
146 404
146 410
146 412
146 416
146 422
146 424
146 428
146 435
146 437
146 438
146 439
146 440
146 441
146 442
146 443
146 444
146 446
146 449
146 451
146 452
146 453
146 454
146 455
146 456
146 457
146 458
146 460
146 461
146 462
146 463
146 466
146 467
146 470
146 472
146 473
146 474
146 475
146 477
146 483
146 485
146 488
146 489
146 490
146 491
146 492
146 493
146 494
146 495
146 496
146 497
146 498
146 499
146 500
146 502
146 503
146 504
146 505
146 506
146 507
146 509
146 515
146 520
146 528
146 538
146 539
146 540
146 541
146 542
146 543
146 544
146 545
146 546
146 547
146 548
146 549
146 550
146 551
146 552
146 553
146 554
146 556
146 557
146 558
146 559
146 560
146 561
146 562
146 563
146 564
146 566
146 568
146 572
146 574
146 577
146 578
146 579
146 580
146 581
146 582
146 583
146 585
146 586
146 587
146 588
146 597
147 148
147 149
147 150
147 151
147 152
147 153
147 155
147 157
147 159
147 160
147 164
147 165
147 168
147 169
147 173
147 174
147 176
147 180
147 182
147 185
147 189
147 191
147 199
147 200
147 202
147 204
147 205
147 213
147 215
147 217
147 223
147 225
147 228
147 234
147 236
147 238
147 240
147 241
147 247
147 249
147 251
147 257
147 259
147 267
147 271
147 274
147 276
147 278
147 280
147 282
147 284
147 291
147 292
147 294
147 296
147 297
147 299
147 303
147 306
147 307
147 308
147 312
147 314
147 321
147 323
147 326
147 327
147 328
147 332
147 333
147 337
147 344
147 346
147 347
147 350
147 351
147 355
147 356
147 358
147 368
147 370
147 372
147 374
147 378
147 380
147 383
147 385
147 386
147 388
147 392
147 396
147 397
147 400
147 401
147 402
147 404
147 410
147 412
147 416
147 422
147 424
147 428
147 435
147 438
147 441
147 444
147 445
147 449
147 451
147 452
147 453
147 456
147 457
147 459
147 462
147 463
147 466
147 467
147 470
147 472
147 473
147 474
147 475
147 477
147 483
147 485
147 489
147 499
147 501
147 509
147 515
147 520
147 528
147 538
147 539
147 541
147 547
147 552
147 553
147 555
147 558
147 561
147 564
147 566
147 568
147 572
147 574
147 577
147 578
147 579
147 581
147 582
147 584
147 597
148 149
148 150
148 151
148 152
148 153
148 155
148 157
148 159
148 160
148 164
148 165
148 168
148 169
148 173
148 174
148 176
148 180
148 182
148 185
148 189
148 190
148 191
148 192
148 193
148 194
148 195
148 196
148 197
148 198
148 199
148 200
148 201
148 202
148 203
148 205
148 206
148 213
148 215
148 217
148 223
148 225
148 228
148 234
148 236
148 238
148 240
148 241
148 247
148 249
148 251
148 257
148 259
148 267
148 271
148 274
148 276
148 278
148 280
148 282
148 284
148 291
148 292
148 294
148 296
148 297
148 299
148 303
148 306
148 307
148 308
148 312
148 314
148 321
148 323
148 326
148 327
148 328
148 332
148 333
148 337
148 344
148 346
148 347
148 350
148 351
148 355
148 356
148 358
148 368
148 370
148 372
148 374
148 378
148 380
148 383
148 385
148 386
148 388
148 392
148 396
148 397
148 400
148 401
148 402
148 404
148 410
148 412
148 416
148 422
148 424
148 428
148 435
148 438
148 441
148 444
148 445
148 449
148 451
148 452
148 453
148 456
148 457
148 459
148 462
148 463
148 466
148 467
148 470
148 472
148 473
148 474
148 475
148 477
148 483
148 485
148 489
148 499
148 501
148 509
148 515
148 520
148 528
148 538
148 539
148 540
148 541
148 542
148 543
148 544
148 545
148 546
148 547
148 548
148 549
148 550
148 551
148 552
148 553
148 554
148 555
148 556
148 557
148 559
148 560
148 561
148 562
148 563
148 564
148 566
148 568
148 572
148 574
148 577
148 578
148 579
148 581
148 582
148 584
148 597
149 150
149 151
149 152
149 153
149 155
149 157
149 159
149 160
149 164
149 165
149 168
149 169
149 173
149 174
149 176
149 180
149 182
149 185
149 189
149 191
149 199
149 200
149 202
149 204
149 205
149 213
149 215
149 217
149 223
149 225
149 228
149 234
149 236
149 238
149 240
149 241
149 247
149 249
149 251
149 257
149 259
149 267
149 271
149 274
149 276
149 278
149 280
149 282
149 284
149 291
149 292
149 294
149 296
149 297
149 299
149 303
149 306
149 307
149 308
149 312
149 314
149 321
149 323
149 326
149 327
149 328
149 332
149 333
149 337
149 344
149 346
149 347
149 350
149 351
149 355
149 356
149 358
149 368
149 370
149 372
149 374
149 378
149 380
149 383
149 385
149 386
149 387
149 388
149 389
149 390
149 391
149 392
149 393
149 394
149 395
149 396
149 397
149 398
149 399
149 400
149 402
149 403
149 404
149 410
149 412
149 416
149 422
149 424
149 428
149 435
149 438
149 441
149 444
149 445
149 449
149 451
149 452
149 453
149 456
149 457
149 459
149 462
149 463
149 466
149 467
149 470
149 472
149 473
149 474
149 475
149 477
149 483
149 485
149 489
149 499
149 501
149 509
149 515
149 520
149 528
149 538
149 539
149 541
149 547
149 552
149 553
149 555
149 558
149 561
149 564
149 566
149 568
149 572
149 574
149 577
149 578
149 579
149 581
149 582
149 584
149 597
150 151
150 152
150 153
150 155
150 157
150 159
150 160
150 164
150 165
150 168
150 169
150 173
150 174
150 176
150 180
150 182
150 185
150 189
150 190
150 191
150 192
150 193
150 194
150 195
150 196
150 197
150 198
150 199
150 200
150 201
150 202
150 203
150 204
150 206
150 213
150 215
150 217
150 223
150 225
150 228
150 234
150 236
150 238
150 240
150 241
150 247
150 249
150 251
150 257
150 259
150 267
150 271
150 274
150 276
150 278
150 280
150 282
150 284
150 291
150 292
150 294
150 296
150 297
150 299
150 303
150 306
150 307
150 308
150 312
150 314
150 321
150 323
150 326
150 327
150 328
150 332
150 333
150 337
150 344
150 346
150 347
150 350
150 351
150 355
150 356
150 357
150 358
150 359
150 360
150 361
150 362
150 363
150 364
150 365
150 366
150 367
150 368
150 369
150 370
150 371
150 373
150 374
150 378
150 380
150 383
150 385
150 386
150 387
150 388
150 389
150 390
150 391
150 392
150 393
150 394
150 395
150 396
150 397
150 398
150 399
150 400
150 401
150 403
150 404
150 410
150 412
150 416
150 422
150 424
150 428
150 435
150 438
150 441
150 444
150 445
150 449
150 451
150 452
150 453
150 456
150 457
150 459
150 462
150 463
150 466
150 467
150 470
150 472
150 473
150 474
150 475
150 477
150 483
150 485
150 489
150 499
150 501
150 509
150 515
150 520
150 528
150 538
150 539
150 540
150 541
150 542
150 543
150 544
150 545
150 546
150 547
150 548
150 549
150 550
150 551
150 552
150 553
150 554
150 555
150 556
150 557
150 558
150 559
150 560
150 562
150 563
150 564
150 566
150 568
150 572
150 574
150 577
150 578
150 579
150 581
150 582
150 584
150 597
151 152
151 153
151 154
151 155
151 156
151 158
151 159
151 160
151 161
151 162
151 163
151 168
151 169
151 170
151 171
151 172
151 174
151 175
151 176
151 177
151 178
151 179
151 180
151 181
151 183
151 184
151 185
151 186
151 187
151 188
151 202
151 213
151 215
151 225
151 236
151 240
151 249
151 259
151 267
151 270
151 272
151 273
151 274
151 292
151 294
151 295
151 297
151 298
151 299
151 300
151 301
151 302
151 303
151 304
151 305
151 307
151 308
151 309
151 310
151 311
151 314
151 321
151 326
151 327
151 329
151 330
151 331
151 332
151 333
151 334
151 335
151 337
151 344
151 346
151 348
151 349
151 350
151 351
151 352
151 353
151 354
151 370
151 385
151 400
151 412
151 424
151 428
151 435
151 437
151 438
151 439
151 440
151 442
151 443
151 444
151 445
151 446
151 452
151 453
151 454
151 455
151 457
151 458
151 459
151 460
151 461
151 467
151 470
151 475
151 485
151 499
151 501
151 502
151 508
151 509
151 510
151 511
151 512
151 513
151 514
151 516
151 517
151 518
151 519
151 520
151 521
151 522
151 523
151 524
151 525
151 526
151 527
151 538
151 539
151 540
151 541
151 542
151 543
151 544
151 545
151 546
151 548
151 549
151 550
151 551
151 552
151 553
151 554
151 555
151 556
151 557
151 558
151 559
151 560
151 561
151 562
151 563
151 574
151 578
151 579
151 580
151 582
151 583
151 584
151 585
151 586
151 587
151 588
151 597
152 153
152 154
152 155
152 156
152 157
152 158
152 160
152 161
152 162
152 163
152 167
152 169
152 170
152 171
152 172
152 173
152 175
152 176
152 177
152 178
152 182
152 185
152 189
152 190
152 191
152 192
152 193
152 194
152 195
152 196
152 197
152 198
152 199
152 200
152 201
152 203
152 204
152 205
152 206
152 207
152 208
152 209
152 210
152 211
152 212
152 214
152 216
152 217
152 218
152 219
152 220
152 221
152 222
152 223
152 224
152 226
152 227
152 228
152 229
152 230
152 231
152 232
152 233
152 234
152 235
152 237
152 238
152 239
152 241
152 242
152 243
152 244
152 245
152 246
152 247
152 248
152 250
152 251
152 252
152 253
152 254
152 255
152 256
152 257
152 258
152 260
152 261
152 262
152 263
152 264
152 265
152 266
152 268
152 271
152 274
152 284
152 285
152 286
152 287
152 288
152 289
152 290
152 291
152 293
152 294
152 295
152 296
152 298
152 299
152 300
152 301
152 302
152 303
152 304
152 305
152 306
152 308
152 309
152 310
152 311
152 312
152 313
152 315
152 316
152 317
152 318
152 319
152 320
152 322
152 323
152 324
152 325
152 327
152 328
152 329
152 330
152 331
152 333
152 334
152 335
152 336
152 338
152 339
152 340
152 341
152 342
152 343
152 345
152 346
152 347
152 348
152 349
152 351
152 352
152 353
152 354
152 355
152 356
152 357
152 358
152 359
152 360
152 361
152 362
152 363
152 364
152 365
152 366
152 367
152 368
152 369
152 371
152 372
152 373
152 376
152 377
152 378
152 379
152 380
152 381
152 382
152 383
152 384
152 386
152 387
152 388
152 389
152 390
152 391
152 392
152 393
152 394
152 395
152 396
152 397
152 398
152 399
152 401
152 402
152 403
152 404
152 405
152 406
152 407
152 408
152 409
152 410
152 411
152 413
152 416
152 417
152 418
152 419
152 420
152 421
152 422
152 423
152 425
152 426
152 427
152 429
152 430
152 431
152 432
152 433
152 434
152 436
152 437
152 438
152 439
152 440
152 441
152 442
152 443
152 445
152 446
152 449
152 450
152 451
152 453
152 454
152 455
152 456
152 458
152 459
152 460
152 461
152 462
152 463
152 464
152 465
152 466
152 468
152 469
152 472
152 473
152 474
152 476
152 477
152 478
152 479
152 480
152 481
152 482
152 483
152 484
152 486
152 488
152 489
152 490
152 491
152 492
152 493
152 494
152 495
152 496
152 497
152 498
152 500
152 501
152 502
152 503
152 504
152 505
152 506
152 507
152 508
152 509
152 510
152 511
152 512
152 513
152 514
152 515
152 516
152 517
152 518
152 519
152 521
152 522
152 523
152 524
152 525
152 526
152 527
152 531
152 532
152 533
152 534
152 535
152 536
152 537
152 539
152 540
152 541
152 542
152 543
152 544
152 545
152 546
152 547
152 548
152 549
152 550
152 551
152 552
152 554
152 555
152 556
152 557
152 558
152 559
152 560
152 561
152 562
152 563
152 564
152 565
152 566
152 567
152 568
152 569
152 570
152 571
152 572
152 573
152 579
152 580
152 581
152 583
152 584
152 585
152 586
152 587
152 588
152 589
152 590
152 591
152 592
152 593
152 594
152 595
152 596
152 598
153 154
153 155
153 156
153 157
153 158
153 159
153 161
153 162
153 163
153 168
153 169
153 170
153 171
153 172
153 173
153 174
153 175
153 177
153 178
153 179
153 180
153 181
153 182
153 183
153 184
153 186
153 187
153 188
153 202
153 213
153 215
153 225
153 236
153 240
153 249
153 259
153 267
153 270
153 271
153 272
153 273
153 292
153 294
153 295
153 296
153 297
153 298
153 300
153 301
153 302
153 303
153 304
153 305
153 306
153 307
153 309
153 310
153 311
153 314
153 321
153 326
153 327
153 328
153 329
153 330
153 331
153 332
153 334
153 335
153 337
153 344
153 346
153 347
153 348
153 349
153 350
153 352
153 353
153 354
153 370
153 385
153 400
153 412
153 424
153 428
153 435
153 437
153 438
153 439
153 440
153 441
153 442
153 443
153 444
153 446
153 452
153 453
153 454
153 455
153 456
153 457
153 458
153 460
153 461
153 467
153 470
153 475
153 485
153 488
153 489
153 490
153 491
153 492
153 493
153 494
153 495
153 496
153 497
153 498
153 499
153 500
153 502
153 503
153 504
153 505
153 506
153 507
153 515
153 520
153 522
153 538
153 539
153 540
153 541
153 542
153 543
153 544
153 545
153 546
153 547
153 548
153 549
153 550
153 551
153 552
153 553
153 554
153 556
153 557
153 558
153 559
153 560
153 561
153 562
153 563
153 574
153 578
153 579
153 580
153 581
153 582
153 583
153 585
153 586
153 587
153 588
153 597
154 157
154 159
154 160
154 168
154 173
154 174
154 176
154 182
154 185
154 202
154 213
154 215
154 225
154 236
154 240
154 249
154 259
154 267
154 271
154 274
154 292
154 294
154 295
154 296
154 297
154 298
154 299
154 301
154 302
154 303
154 304
154 305
154 306
154 307
154 308
154 310
154 311
154 314
154 321
154 326
154 328
154 332
154 333
154 337
154 344
154 347
154 350
154 351
154 370
154 385
154 400
154 412
154 424
154 428
154 435
154 441
154 444
154 445
154 452
154 453
154 454
154 455
154 456
154 457
154 458
154 459
154 461
154 467
154 470
154 475
154 485
154 488
154 489
154 490
154 491
154 492
154 493
154 494
154 495
154 496
154 497
154 498
154 499
154 500
154 501
154 503
154 504
154 505
154 506
154 507
154 508
154 509
154 510
154 511
154 512
154 513
154 514
154 515
154 516
154 517
154 518
154 519
154 520
154 521
154 523
154 524
154 525
154 526
154 527
154 538
154 539
154 540
154 541
154 542
154 543
154 544
154 545
154 546
154 547
154 548
154 549
154 550
154 551
154 552
154 553
154 554
154 555
154 557
154 558
154 559
154 560
154 561
154 562
154 563
154 574
154 578
154 579
154 580
154 581
154 582
154 583
154 584
154 586
154 587
154 588
154 597
155 156
155 157
155 158
155 159
155 160
155 161
155 162
155 163
155 164
155 166
155 168
155 170
155 171
155 172
155 173
155 174
155 175
155 176
155 177
155 178
155 179
155 181
155 182
155 183
155 184
155 185
155 186
155 187
155 188
155 190
155 191
155 192
155 193
155 194
155 195
155 196
155 197
155 198
155 199
155 200
155 201
155 202
155 203
155 204
155 205
155 206
155 213
155 215
155 225
155 236
155 240
155 249
155 259
155 267
155 271
155 272
155 274
155 283
155 292
155 295
155 296
155 297
155 298
155 299
155 300
155 301
155 302
155 304
155 305
155 306
155 307
155 308
155 309
155 310
155 311
155 314
155 321
155 326
155 328
155 329
155 330
155 331
155 332
155 333
155 334
155 335
155 337
155 344
155 347
155 348
155 349
155 350
155 351
155 352
155 353
155 354
155 355
155 357
155 358
155 359
155 360
155 361
155 362
155 363
155 364
155 365
155 366
155 367
155 368
155 369
155 370
155 371
155 372
155 373
155 385
155 386
155 387
155 389
155 390
155 391
155 392
155 393
155 394
155 395
155 396
155 397
155 398
155 399
155 400
155 401
155 402
155 403
155 412
155 424
155 428
155 435
155 437
155 439
155 440
155 441
155 442
155 443
155 444
155 445
155 446
155 452
155 454
155 455
155 456
155 457
155 458
155 459
155 460
155 461
155 467
155 470
155 475
155 485
155 488
155 490
155 491
155 492
155 493
155 494
155 495
155 496
155 497
155 498
155 499
155 500
155 501
155 502
155 503
155 504
155 505
155 506
155 507
155 508
155 510
155 511
155 512
155 513
155 514
155 515
155 516
155 517
155 518
155 519
155 520
155 521
155 522
155 523
155 524
155 525
155 526
155 527
155 529
155 530
155 538
155 542
155 547
155 548
155 553
155 555
155 557
155 559
155 563
155 574
155 578
155 580
155 581
155 582
155 583
155 584
155 585
155 586
155 587
155 588
155 597
156 157
156 158
156 159
156 160
156 161
156 162
156 163
156 165
156 168
156 169
156 173
156 174
156 176
156 178
156 179
156 180
156 182
156 183
156 184
156 185
156 186
156 187
156 188
156 189
156 202
156 213
156 215
156 225
156 236
156 240
156 249
156 259
156 267
156 271
156 272
156 274
156 282
156 292
156 294
156 296
156 297
156 299
156 302
156 303
156 306
156 307
156 308
156 311
156 314
156 321
156 326
156 327
156 328
156 329
156 332
156 333
156 334
156 337
156 344
156 346
156 347
156 348
156 350
156 351
156 352
156 353
156 354
156 356
156 370
156 385
156 388
156 400
156 412
156 424
156 428
156 435
156 437
156 438
156 440
156 441
156 442
156 443
156 444
156 445
156 446
156 452
156 453
156 456
156 457
156 459
156 461
156 467
156 470
156 475
156 485
156 488
156 489
156 491
156 492
156 493
156 494
156 495
156 496
156 497
156 498
156 499
156 500
156 501
156 502
156 503
156 504
156 505
156 506
156 507
156 508
156 509
156 511
156 512
156 513
156 514
156 515
156 516
156 517
156 518
156 519
156 520
156 521
156 522
156 523
156 524
156 525
156 526
156 527
156 528
156 538
156 539
156 540
156 541
156 543
156 544
156 545
156 546
156 547
156 548
156 549
156 550
156 551
156 552
156 553
156 554
156 555
156 556
156 557
156 558
156 559
156 560
156 561
156 562
156 563
156 574
156 578
156 579
156 581
156 582
156 584
156 586
156 588
156 597
157 158
157 159
157 160
157 161
157 162
157 163
157 165
157 168
157 169
157 170
157 171
157 172
157 174
157 175
157 176
157 177
157 178
157 179
157 180
157 181
157 183
157 184
157 185
157 186
157 187
157 188
157 189
157 202
157 213
157 215
157 225
157 236
157 240
157 249
157 259
157 267
157 270
157 272
157 273
157 274
157 282
157 292
157 294
157 295
157 297
157 298
157 299
157 300
157 301
157 302
157 303
157 304
157 305
157 307
157 308
157 309
157 310
157 311
157 314
157 321
157 326
157 327
157 329
157 330
157 331
157 332
157 333
157 334
157 335
157 337
157 344
157 346
157 348
157 349
157 350
157 351
157 352
157 353
157 354
157 356
157 370
157 385
157 388
157 400
157 412
157 424
157 428
157 435
157 437
157 438
157 439
157 440
157 442
157 443
157 444
157 445
157 446
157 452
157 453
157 454
157 455
157 457
157 458
157 459
157 460
157 461
157 467
157 470
157 475
157 485
157 489
157 490
157 495
157 499
157 501
157 503
157 504
157 506
157 508
157 509
157 510
157 511
157 512
157 513
157 514
157 516
157 517
157 518
157 519
157 520
157 521
157 522
157 523
157 524
157 525
157 526
157 527
157 528
157 538
157 539
157 540
157 541
157 542
157 543
157 544
157 545
157 546
157 548
157 549
157 550
157 551
157 552
157 553
157 554
157 555
157 556
157 557
157 558
157 559
157 560
157 561
157 562
157 563
157 574
157 578
157 579
157 580
157 582
157 583
157 584
157 585
157 586
157 587
157 588
157 597
158 159
158 160
158 161
158 162
158 163
158 165
158 168
158 169
158 173
158 174
158 176
158 178
158 180
158 181
158 182
158 185
158 186
158 187
158 189
158 202
158 213
158 215
158 225
158 236
158 240
158 249
158 259
158 267
158 270
158 271
158 273
158 274
158 282
158 292
158 294
158 296
158 297
158 299
158 302
158 303
158 306
158 307
158 308
158 311
158 314
158 321
158 326
158 327
158 328
158 330
158 331
158 332
158 333
158 334
158 335
158 337
158 344
158 346
158 347
158 349
158 350
158 351
158 352
158 353
158 354
158 356
158 370
158 385
158 388
158 400
158 412
158 424
158 428
158 435
158 438
158 439
158 441
158 444
158 445
158 446
158 452
158 453
158 456
158 457
158 459
158 461
158 467
158 470
158 475
158 485
158 488
158 489
158 490
158 491
158 492
158 493
158 494
158 496
158 497
158 498
158 499
158 500
158 501
158 502
158 503
158 504
158 505
158 506
158 507
158 508
158 509
158 510
158 511
158 512
158 513
158 514
158 515
158 517
158 518
158 519
158 520
158 521
158 522
158 523
158 524
158 525
158 526
158 527
158 528
158 538
158 539
158 540
158 541
158 542
158 543
158 544
158 545
158 546
158 547
158 549
158 550
158 551
158 552
158 553
158 554
158 555
158 556
158 557
158 558
158 559
158 560
158 561
158 562
158 563
158 574
158 578
158 579
158 581
158 582
158 584
158 586
158 588
158 597
159 160
159 161
159 162
159 163
159 165
159 167
159 169
159 170
159 171
159 172
159 173
159 175
159 176
159 177
159 178
159 180
159 181
159 182
159 185
159 186
159 187
159 189
159 190
159 191
159 192
159 193
159 194
159 195
159 196
159 197
159 198
159 199
159 200
159 201
159 203
159 204
159 205
159 206
159 207
159 208
159 209
159 210
159 211
159 212
159 214
159 216
159 217
159 218
159 219
159 220
159 221
159 222
159 223
159 224
159 226
159 227
159 228
159 229
159 230
159 231
159 232
159 233
159 234
159 235
159 237
159 238
159 239
159 241
159 242
159 243
159 244
159 245
159 246
159 247
159 248
159 250
159 251
159 252
159 253
159 254
159 255
159 256
159 257
159 258
159 260
159 261
159 262
159 263
159 264
159 265
159 266
159 268
159 271
159 272
159 274
159 282
159 284
159 285
159 286
159 287
159 288
159 289
159 290
159 291
159 293
159 294
159 295
159 296
159 298
159 299
159 300
159 301
159 302
159 303
159 304
159 305
159 306
159 308
159 309
159 310
159 311
159 312
159 313
159 315
159 316
159 317
159 318
159 319
159 320
159 322
159 323
159 324
159 325
159 327
159 328
159 329
159 330
159 331
159 333
159 334
159 335
159 336
159 338
159 339
159 340
159 341
159 342
159 343
159 345
159 346
159 347
159 348
159 349
159 351
159 352
159 353
159 354
159 355
159 356
159 357
159 358
159 359
159 360
159 361
159 362
159 363
159 364
159 365
159 366
159 367
159 368
159 369
159 371
159 372
159 373
159 376
159 377
159 378
159 379
159 380
159 381
159 382
159 383
159 384
159 386
159 387
159 388
159 389
159 390
159 391
159 392
159 393
159 394
159 395
159 396
159 397
159 398
159 399
159 401
159 402
159 403
159 404
159 405
159 406
159 407
159 408
159 409
159 410
159 411
159 413
159 416
159 417
159 418
159 419
159 420
159 421
159 422
159 423
159 425
159 426
159 427
159 429
159 430
159 431
159 432
159 433
159 434
159 436
159 437
159 438
159 439
159 440
159 441
159 442
159 443
159 445
159 446
159 449
159 450
159 451
159 453
159 454
159 455
159 456
159 458
159 459
159 460
159 461
159 462
159 463
159 464
159 465
159 466
159 468
159 469
159 472
159 473
159 474
159 476
159 477
159 478
159 479
159 480
159 481
159 482
159 483
159 484
159 486
159 488
159 489
159 490
159 491
159 492
159 493
159 494
159 495
159 496
159 497
159 498
159 500
159 501
159 502
159 503
159 504
159 505
159 506
159 507
159 508
159 509
159 510
159 511
159 512
159 513
159 514
159 515
159 516
159 517
159 518
159 519
159 521
159 522
159 523
159 524
159 525
159 526
159 527
159 528
159 531
159 532
159 533
159 534
159 535
159 536
159 537
159 539
159 540
159 541
159 542
159 543
159 544
159 545
159 546
159 547
159 548
159 549
159 550
159 551
159 552
159 554
159 555
159 556
159 557
159 558
159 559
159 560
159 561
159 562
159 563
159 564
159 565
159 566
159 567
159 568
159 569
159 570
159 571
159 572
159 573
159 579
159 580
159 581
159 583
159 584
159 585
159 586
159 587
159 588
159 589
159 590
159 591
159 592
159 593
159 594
159 595
159 596
159 598
160 161
160 162
160 163
160 165
160 168
160 169
160 170
160 171
160 172
160 173
160 174
160 175
160 177
160 178
160 179
160 180
160 181
160 182
160 183
160 184
160 186
160 187
160 188
160 189
160 202
160 213
160 215
160 225
160 236
160 240
160 249
160 259
160 267
160 270
160 271
160 272
160 273
160 282
160 292
160 294
160 295
160 296
160 297
160 298
160 300
160 301
160 302
160 303
160 304
160 305
160 306
160 307
160 309
160 310
160 311
160 314
160 321
160 326
160 327
160 328
160 329
160 330
160 331
160 332
160 334
160 335
160 337
160 344
160 346
160 347
160 348
160 349
160 350
160 352
160 353
160 354
160 356
160 370
160 385
160 388
160 400
160 412
160 424
160 428
160 435
160 437
160 438
160 439
160 440
160 441
160 442
160 443
160 444
160 446
160 452
160 453
160 454
160 455
160 456
160 457
160 458
160 460
160 461
160 467
160 470
160 475
160 485
160 488
160 489
160 490
160 491
160 492
160 493
160 494
160 495
160 496
160 497
160 498
160 499
160 500
160 502
160 503
160 504
160 505
160 506
160 507
160 509
160 510
160 515
160 516
160 520
160 523
160 524
160 526
160 528
160 538
160 539
160 540
160 541
160 542
160 543
160 544
160 545
160 546
160 547
160 548
160 549
160 550
160 551
160 552
160 553
160 554
160 556
160 557
160 558
160 559
160 560
160 561
160 562
160 563
160 574
160 578
160 579
160 580
160 581
160 582
160 583
160 585
160 586
160 587
160 588
160 597
161 162
161 163
161 165
161 168
161 169
161 173
161 174
161 176
161 178
161 180
161 181
161 182
161 185
161 186
161 187
161 189
161 202
161 213
161 215
161 225
161 236
161 240
161 249
161 259
161 267
161 271
161 272
161 274
161 282
161 292
161 294
161 296
161 297
161 299
161 302
161 303
161 306
161 307
161 308
161 311
161 314
161 321
161 326
161 327
161 328
161 329
161 330
161 331
161 332
161 333
161 335
161 337
161 344
161 346
161 347
161 348
161 349
161 350
161 351
161 353
161 354
161 356
161 370
161 385
161 388
161 400
161 412
161 424
161 428
161 435
161 438
161 439
161 441
161 444
161 445
161 446
161 452
161 453
161 456
161 457
161 459
161 461
161 467
161 470
161 475
161 485
161 488
161 489
161 490
161 491
161 492
161 493
161 494
161 495
161 496
161 497
161 498
161 499
161 500
161 501
161 502
161 504
161 505
161 506
161 507
161 508
161 509
161 510
161 511
161 512
161 513
161 514
161 515
161 516
161 517
161 518
161 519
161 520
161 521
161 522
161 524
161 525
161 526
161 527
161 528
161 538
161 539
161 540
161 541
161 542
161 543
161 544
161 545
161 546
161 547
161 548
161 549
161 550
161 551
161 552
161 553
161 554
161 555
161 556
161 558
161 559
161 560
161 561
161 562
161 563
161 574
161 578
161 579
161 580
161 581
161 582
161 583
161 584
161 585
161 587
161 588
161 597
162 163
162 165
162 168
162 169
162 173
162 174
162 176
162 178
162 179
162 180
162 181
162 182
162 183
162 184
162 185
162 187
162 188
162 189
162 202
162 213
162 215
162 225
162 236
162 240
162 249
162 259
162 267
162 271
162 272
162 274
162 282
162 292
162 294
162 296
162 297
162 299
162 302
162 303
162 306
162 307
162 308
162 311
162 314
162 321
162 326
162 327
162 328
162 329
162 332
162 333
162 334
162 337
162 344
162 346
162 347
162 348
162 349
162 350
162 351
162 352
162 354
162 356
162 370
162 385
162 388
162 400
162 412
162 424
162 428
162 435
162 437
162 438
162 439
162 440
162 441
162 442
162 443
162 444
162 445
162 452
162 453
162 456
162 457
162 459
162 461
162 467
162 470
162 475
162 485
162 488
162 489
162 490
162 491
162 492
162 493
162 494
162 495
162 496
162 497
162 498
162 499
162 500
162 501
162 502
162 503
162 505
162 506
162 507
162 508
162 509
162 510
162 511
162 512
162 513
162 514
162 515
162 516
162 517
162 518
162 519
162 520
162 521
162 522
162 523
162 525
162 526
162 527
162 528
162 538
162 539
162 540
162 541
162 542
162 543
162 544
162 545
162 546
162 547
162 548
162 549
162 550
162 551
162 552
162 553
162 554
162 555
162 556
162 557
162 558
162 560
162 561
162 562
162 563
162 574
162 578
162 579
162 581
162 582
162 584
162 586
162 588
162 597
163 165
163 168
163 169
163 170
163 171
163 172
163 173
163 174
163 175
163 176
163 177
163 179
163 180
163 181
163 182
163 183
163 184
163 185
163 186
163 188
163 189
163 202
163 213
163 215
163 225
163 236
163 240
163 249
163 259
163 267
163 271
163 272
163 274
163 282
163 292
163 294
163 295
163 296
163 297
163 298
163 299
163 300
163 301
163 303
163 304
163 305
163 306
163 307
163 308
163 309
163 310
163 314
163 321
163 326
163 327
163 328
163 329
163 332
163 333
163 334
163 337
163 344
163 346
163 347
163 348
163 349
163 350
163 351
163 352
163 353
163 356
163 370
163 385
163 388
163 400
163 412
163 424
163 428
163 435
163 438
163 439
163 441
163 444
163 445
163 446
163 452
163 453
163 454
163 455
163 456
163 457
163 458
163 459
163 460
163 467
163 470
163 475
163 485
163 488
163 489
163 490
163 491
163 492
163 493
163 494
163 495
163 496
163 497
163 498
163 499
163 500
163 501
163 502
163 503
163 504
163 505
163 507
163 508
163 509
163 510
163 511
163 512
163 513
163 514
163 515
163 516
163 517
163 518
163 519
163 520
163 521
163 522
163 523
163 524
163 525
163 527
163 528
163 538
163 539
163 540
163 541
163 542
163 543
163 544
163 545
163 546
163 547
163 548
163 549
163 550
163 551
163 552
163 553
163 554
163 555
163 556
163 557
163 558
163 559
163 560
163 561
163 562
163 574
163 578
163 579
163 580
163 581
163 582
163 583
163 584
163 585
163 586
163 587
163 597
164 165
164 166
164 169
164 180
164 189
164 195
164 218
164 219
164 220
164 221
164 222
164 223
164 224
164 225
164 226
164 230
164 242
164 243
164 244
164 245
164 246
164 247
164 248
164 249
164 250
164 252
164 253
164 254
164 255
164 256
164 257
164 258
164 259
164 260
164 282
164 285
164 286
164 287
164 288
164 289
164 290
164 291
164 292
164 293
164 294
164 303
164 313
164 327
164 336
164 346
164 356
164 357
164 358
164 359
164 360
164 361
164 362
164 363
164 364
164 365
164 366
164 367
164 368
164 369
164 370
164 371
164 372
164 373
164 387
164 388
164 389
164 390
164 391
164 392
164 393
164 394
164 395
164 396
164 397
164 398
164 399
164 400
164 401
164 402
164 403
164 405
164 406
164 407
164 408
164 409
164 410
164 411
164 412
164 413
164 417
164 418
164 419
164 420
164 421
164 422
164 423
164 424
164 425
164 438
164 453
164 463
164 464
164 465
164 466
164 467
164 468
164 473
164 474
164 475
164 476
164 478
164 479
164 480
164 481
164 482
164 483
164 484
164 485
164 486
164 487
164 489
164 492
164 509
164 512
164 528
164 540
164 541
164 542
164 543
164 544
164 545
164 546
164 547
164 548
164 549
164 550
164 551
164 552
164 553
164 554
164 555
164 556
164 557
164 558
164 559
164 560
164 561
164 562
164 563
164 565
164 566
164 567
164 568
164 569
164 570
164 571
164 572
164 573
164 574
164 579
165 166
165 170
165 171
165 172
165 173
165 174
165 175
165 176
165 177
165 178
165 179
165 181
165 182
165 183
165 184
165 185
165 186
165 187
165 188
165 190
165 191
165 192
165 193
165 194
165 195
165 196
165 197
165 198
165 199
165 200
165 201
165 202
165 203
165 204
165 205
165 206
165 217
165 230
165 241
165 251
165 283
165 284
165 295
165 296
165 297
165 298
165 299
165 300
165 301
165 302
165 304
165 305
165 306
165 307
165 308
165 309
165 310
165 311
165 313
165 328
165 329
165 330
165 331
165 332
165 333
165 334
165 335
165 336
165 347
165 348
165 349
165 350
165 351
165 352
165 353
165 354
165 355
165 357
165 358
165 359
165 360
165 361
165 362
165 363
165 364
165 365
165 366
165 367
165 368
165 369
165 370
165 371
165 372
165 373
165 386
165 387
165 389
165 390
165 391
165 392
165 393
165 394
165 395
165 396
165 397
165 398
165 399
165 400
165 401
165 402
165 403
165 404
165 416
165 437
165 439
165 440
165 441
165 442
165 443
165 444
165 445
165 446
165 454
165 455
165 456
165 457
165 458
165 459
165 460
165 461
165 462
165 468
165 472
165 477
165 487
165 488
165 490
165 491
165 492
165 493
165 494
165 495
165 496
165 497
165 498
165 499
165 500
165 501
165 502
165 503
165 504
165 505
165 506
165 507
165 508
165 510
165 511
165 512
165 513
165 514
165 515
165 516
165 517
165 518
165 519
165 520
165 521
165 522
165 523
165 524
165 525
165 526
165 527
165 529
165 530
165 539
165 544
165 564
165 569
165 580
165 581
165 582
165 583
165 584
165 585
165 586
165 587
165 588
166 169
166 180
166 189
166 190
166 191
166 192
166 193
166 194
166 196
166 197
166 198
166 199
166 200
166 201
166 202
166 203
166 204
166 205
166 206
166 217
166 227
166 228
166 229
166 231
166 232
166 233
166 234
166 235
166 236
166 241
166 251
166 282
166 284
166 294
166 303
166 312
166 314
166 327
166 337
166 346
166 355
166 356
166 357
166 358
166 359
166 360
166 361
166 363
166 364
166 365
166 366
166 367
166 368
166 369
166 370
166 371
166 372
166 373
166 386
166 387
166 388
166 389
166 390
166 391
166 392
166 394
166 395
166 396
166 397
166 398
166 399
166 400
166 401
166 402
166 403
166 404
166 416
166 438
166 453
166 462
166 469
166 470
166 472
166 477
166 488
166 489
166 490
166 491
166 493
166 494
166 495
166 496
166 497
166 498
166 499
166 500
166 501
166 502
166 503
166 504
166 505
166 506
166 507
166 508
166 509
166 510
166 511
166 513
166 514
166 515
166 516
166 517
166 518
166 519
166 520
166 521
166 522
166 523
166 524
166 525
166 526
166 527
166 528
166 539
166 540
166 541
166 542
166 543
166 545
166 546
166 547
166 548
166 549
166 550
166 551
166 552
166 553
166 554
166 555
166 556
166 557
166 558
166 559
166 560
166 561
166 562
166 563
166 564
166 565
166 566
166 567
166 568
166 570
166 571
166 572
166 573
166 574
166 579
167 168
167 174
167 202
167 213
167 215
167 225
167 236
167 240
167 249
167 259
167 267
167 292
167 297
167 307
167 314
167 321
167 326
167 332
167 337
167 344
167 350
167 370
167 385
167 400
167 412
167 424
167 428
167 435
167 444
167 452
167 457
167 467
167 470
167 475
167 485
167 499
167 520
167 538
167 553
167 574
167 578
167 582
167 597
168 169
168 170
168 171
168 172
168 173
168 175
168 176
168 177
168 178
168 189
168 190
168 191
168 192
168 193
168 194
168 195
168 196
168 197
168 198
168 199
168 200
168 201
168 203
168 204
168 205
168 206
168 207
168 208
168 209
168 210
168 211
168 212
168 214
168 216
168 217
168 218
168 219
168 220
168 221
168 222
168 223
168 224
168 226
168 227
168 228
168 229
168 230
168 231
168 232
168 233
168 234
168 235
168 237
168 238
168 239
168 241
168 242
168 243
168 244
168 245
168 246
168 247
168 248
168 250
168 251
168 252
168 253
168 254
168 255
168 256
168 257
168 258
168 260
168 261
168 262
168 263
168 264
168 265
168 266
168 268
168 284
168 285
168 286
168 287
168 288
168 289
168 290
168 291
168 293
168 294
168 295
168 296
168 298
168 299
168 300
168 301
168 302
168 303
168 304
168 305
168 306
168 308
168 309
168 310
168 311
168 312
168 313
168 315
168 316
168 317
168 318
168 319
168 320
168 322
168 323
168 324
168 325
168 327
168 328
168 329
168 330
168 331
168 333
168 334
168 335
168 336
168 338
168 339
168 340
168 341
168 342
168 343
168 345
168 346
168 347
168 348
168 349
168 351
168 352
168 353
168 354
168 355
168 356
168 357
168 358
168 359
168 360
168 361
168 362
168 363
168 364
168 365
168 366
168 367
168 368
168 369
168 371
168 372
168 373
168 376
168 377
168 378
168 379
168 380
168 381
168 382
168 383
168 384
168 386
168 387
168 388
168 389
168 390
168 391
168 392
168 393
168 394
168 395
168 396
168 397
168 398
168 399
168 401
168 402
168 403
168 404
168 405
168 406
168 407
168 408
168 409
168 410
168 411
168 413
168 416
168 417
168 418
168 419
168 420
168 421
168 422
168 423
168 425
168 426
168 427
168 429
168 430
168 431
168 432
168 433
168 434
168 436
168 437
168 438
168 439
168 440
168 441
168 442
168 443
168 445
168 446
168 449
168 450
168 451
168 453
168 454
168 455
168 456
168 458
168 459
168 460
168 461
168 462
168 463
168 464
168 465
168 466
168 468
168 469
168 472
168 473
168 474
168 476
168 477
168 478
168 479
168 480
168 481
168 482
168 483
168 484
168 486
168 488
168 489
168 490
168 491
168 492
168 493
168 494
168 495
168 496
168 497
168 498
168 500
168 501
168 502
168 503
168 504
168 505
168 506
168 507
168 508
168 509
168 510
168 511
168 512
168 513
168 514
168 515
168 516
168 517
168 518
168 519
168 521
168 522
168 523
168 524
168 525
168 526
168 527
168 531
168 532
168 533
168 534
168 535
168 536
168 537
168 539
168 540
168 541
168 542
168 543
168 544
168 545
168 546
168 547
168 548
168 549
168 550
168 551
168 552
168 554
168 555
168 556
168 557
168 558
168 559
168 560
168 561
168 562
168 563
168 564
168 565
168 566
168 567
168 568
168 569
168 570
168 571
168 572
168 573
168 579
168 580
168 581
168 583
168 584
168 585
168 586
168 587
168 588
168 589
168 590
168 591
168 592
168 593
168 594
168 595
168 596
168 598
169 170
169 171
169 172
169 173
169 174
169 175
169 176
169 177
169 178
169 179
169 181
169 182
169 183
169 184
169 185
169 186
169 187
169 188
169 190
169 191
169 192
169 193
169 194
169 195
169 196
169 197
169 198
169 199
169 200
169 201
169 202
169 203
169 204
169 205
169 206
169 213
169 215
169 225
169 236
169 240
169 249
169 259
169 267
169 271
169 274
169 283
169 292
169 295
169 296
169 297
169 298
169 299
169 300
169 301
169 302
169 304
169 305
169 306
169 307
169 308
169 309
169 310
169 311
169 314
169 321
169 326
169 328
169 329
169 330
169 331
169 332
169 333
169 334
169 335
169 337
169 344
169 347
169 348
169 349
169 350
169 351
169 352
169 353
169 354
169 355
169 357
169 358
169 359
169 360
169 361
169 362
169 363
169 364
169 365
169 366
169 367
169 368
169 369
169 370
169 371
169 372
169 373
169 385
169 386
169 387
169 389
169 390
169 391
169 392
169 393
169 394
169 395
169 396
169 397
169 398
169 399
169 400
169 401
169 402
169 403
169 412
169 424
169 428
169 435
169 437
169 439
169 440
169 441
169 442
169 443
169 444
169 445
169 446
169 452
169 454
169 455
169 456
169 457
169 458
169 459
169 460
169 461
169 467
169 470
169 475
169 485
169 488
169 490
169 491
169 492
169 493
169 494
169 495
169 496
169 497
169 498
169 499
169 500
169 501
169 502
169 503
169 504
169 505
169 506
169 507
169 508
169 510
169 511
169 512
169 513
169 514
169 515
169 516
169 517
169 518
169 519
169 520
169 521
169 522
169 523
169 524
169 525
169 526
169 527
169 529
169 530
169 538
169 543
169 545
169 547
169 553
169 554
169 555
169 560
169 563
169 574
169 578
169 580
169 581
169 582
169 583
169 584
169 585
169 586
169 587
169 588
169 597
170 171
170 172
170 173
170 174
170 175
170 176
170 177
170 178
170 180
170 182
170 185
170 187
170 189
170 202
170 213
170 215
170 225
170 236
170 240
170 249
170 259
170 267
170 271
170 274
170 282
170 292
170 294
170 295
170 296
170 297
170 298
170 299
170 301
170 302
170 303
170 305
170 306
170 307
170 308
170 309
170 310
170 311
170 314
170 321
170 326
170 327
170 328
170 332
170 333
170 337
170 344
170 346
170 347
170 350
170 351
170 354
170 356
170 370
170 385
170 388
170 400
170 412
170 424
170 428
170 435
170 438
170 440
170 441
170 444
170 445
170 452
170 453
170 455
170 456
170 457
170 458
170 459
170 460
170 461
170 467
170 470
170 475
170 485
170 488
170 489
170 490
170 492
170 493
170 494
170 495
170 496
170 497
170 498
170 499
170 500
170 501
170 502
170 503
170 504
170 505
170 506
170 507
170 508
170 509
170 510
170 512
170 513
170 514
170 515
170 516
170 517
170 518
170 519
170 520
170 521
170 522
170 523
170 524
170 525
170 526
170 527
170 528
170 538
170 539
170 540
170 541
170 542
170 544
170 545
170 546
170 547
170 548
170 549
170 550
170 551
170 552
170 553
170 554
170 555
170 556
170 557
170 558
170 559
170 560
170 561
170 562
170 563
170 574
170 578
170 579
170 581
170 582
170 583
170 584
170 585
170 586
170 587
170 588
170 597
171 172
171 173
171 174
171 175
171 176
171 177
171 178
171 180
171 182
171 185
171 187
171 189
171 202
171 213
171 215
171 225
171 236
171 240
171 249
171 259
171 267
171 271
171 274
171 282
171 292
171 294
171 296
171 297
171 298
171 299
171 300
171 301
171 302
171 303
171 304
171 306
171 307
171 308
171 309
171 310
171 311
171 314
171 321
171 326
171 327
171 328
171 332
171 333
171 337
171 344
171 346
171 347
171 350
171 351
171 354
171 356
171 370
171 385
171 388
171 400
171 412
171 424
171 428
171 435
171 437
171 438
171 439
171 441
171 442
171 443
171 444
171 445
171 446
171 452
171 453
171 454
171 456
171 457
171 458
171 459
171 460
171 461
171 467
171 470
171 475
171 485
171 488
171 489
171 490
171 491
171 492
171 494
171 495
171 496
171 497
171 498
171 499
171 500
171 501
171 502
171 503
171 504
171 505
171 506
171 507
171 508
171 509
171 510
171 511
171 512
171 514
171 515
171 516
171 517
171 518
171 519
171 520
171 521
171 522
171 523
171 524
171 525
171 526
171 527
171 528
171 538
171 539
171 540
171 541
171 542
171 543
171 544
171 546
171 547
171 548
171 549
171 550
171 551
171 552
171 553
171 554
171 555
171 556
171 557
171 558
171 559
171 560
171 561
171 562
171 563
171 574
171 578
171 579
171 580
171 581
171 582
171 583
171 584
171 587
171 588
171 597
172 173
172 174
172 175
172 176
172 177
172 178
172 180
172 182
172 185
172 187
172 189
172 202
172 213
172 215
172 225
172 236
172 240
172 249
172 259
172 267
172 271
172 274
172 282
172 292
172 294
172 295
172 296
172 297
172 298
172 299
172 301
172 302
172 303
172 304
172 305
172 306
172 307
172 308
172 310
172 311
172 314
172 321
172 326
172 327
172 328
172 332
172 333
172 337
172 344
172 346
172 347
172 350
172 351
172 354
172 356
172 370
172 385
172 388
172 400
172 412
172 424
172 428
172 435
172 438
172 440
172 441
172 444
172 445
172 452
172 453
172 454
172 455
172 456
172 457
172 458
172 459
172 461
172 467
172 470
172 475
172 485
172 488
172 489
172 490
172 491
172 492
172 493
172 495
172 496
172 497
172 498
172 499
172 500
172 501
172 502
172 503
172 504
172 505
172 506
172 507
172 508
172 509
172 510
172 511
172 512
172 513
172 515
172 516
172 517
172 518
172 519
172 520
172 521
172 522
172 523
172 524
172 525
172 526
172 527
172 528
172 538
172 543
172 545
172 547
172 553
172 554
172 555
172 560
172 563
172 574
172 578
172 579
172 580
172 581
172 582
172 583
172 584
172 587
172 588
172 597
173 174
173 175
173 176
173 177
173 178
173 179
173 180
173 181
173 183
173 184
173 185
173 186
173 187
173 188
173 189
173 202
173 213
173 215
173 225
173 236
173 240
173 249
173 259
173 267
173 270
173 272
173 273
173 274
173 282
173 292
173 294
173 295
173 297
173 298
173 299
173 300
173 301
173 302
173 303
173 304
173 305
173 307
173 308
173 309
173 310
173 311
173 314
173 321
173 326
173 327
173 329
173 330
173 331
173 332
173 333
173 334
173 335
173 337
173 344
173 346
173 348
173 349
173 350
173 351
173 352
173 353
173 354
173 356
173 370
173 385
173 388
173 400
173 412
173 424
173 428
173 435
173 437
173 438
173 439
173 440
173 442
173 443
173 444
173 445
173 446
173 452
173 453
173 454
173 455
173 457
173 458
173 459
173 460
173 461
173 467
173 470
173 475
173 485
173 489
173 491
173 493
173 494
173 499
173 500
173 501
173 505
173 506
173 508
173 509
173 510
173 511
173 512
173 513
173 514
173 516
173 517
173 518
173 519
173 520
173 521
173 522
173 523
173 524
173 525
173 526
173 527
173 528
173 538
173 539
173 540
173 541
173 542
173 543
173 544
173 545
173 546
173 548
173 549
173 550
173 551
173 552
173 553
173 554
173 555
173 556
173 557
173 558
173 559
173 560
173 561
173 562
173 563
173 574
173 578
173 579
173 580
173 582
173 583
173 584
173 585
173 586
173 587
173 588
173 597
174 175
174 176
174 177
174 178
174 180
174 182
174 185
174 187
174 189
174 190
174 191
174 192
174 193
174 194
174 195
174 196
174 197
174 198
174 199
174 200
174 201
174 203
174 204
174 205
174 206
174 207
174 208
174 209
174 210
174 211
174 212
174 214
174 216
174 217
174 218
174 219
174 220
174 221
174 222
174 223
174 224
174 226
174 227
174 228
174 229
174 230
174 231
174 232
174 233
174 234
174 235
174 237
174 238
174 239
174 241
174 242
174 243
174 244
174 245
174 246
174 247
174 248
174 250
174 251
174 252
174 253
174 254
174 255
174 256
174 257
174 258
174 260
174 261
174 262
174 263
174 264
174 265
174 266
174 268
174 271
174 274
174 282
174 284
174 285
174 286
174 287
174 288
174 289
174 290
174 291
174 293
174 294
174 295
174 296
174 298
174 299
174 300
174 301
174 302
174 303
174 304
174 305
174 306
174 308
174 309
174 310
174 311
174 312
174 313
174 315
174 316
174 317
174 318
174 319
174 320
174 322
174 323
174 324
174 325
174 327
174 328
174 329
174 330
174 331
174 333
174 334
174 335
174 336
174 338
174 339
174 340
174 341
174 342
174 343
174 345
174 346
174 347
174 348
174 349
174 351
174 352
174 353
174 354
174 355
174 356
174 357
174 358
174 359
174 360
174 361
174 362
174 363
174 364
174 365
174 366
174 367
174 368
174 369
174 371
174 372
174 373
174 376
174 377
174 378
174 379
174 380
174 381
174 382
174 383
174 384
174 386
174 387
174 388
174 389
174 390
174 391
174 392
174 393
174 394
174 395
174 396
174 397
174 398
174 399
174 401
174 402
174 403
174 404
174 405
174 406
174 407
174 408
174 409
174 410
174 411
174 413
174 416
174 417
174 418
174 419
174 420
174 421
174 422
174 423
174 425
174 426
174 427
174 429
174 430
174 431
174 432
174 433
174 434
174 436
174 437
174 438
174 439
174 440
174 441
174 442
174 443
174 445
174 446
174 449
174 450
174 451
174 453
174 454
174 455
174 456
174 458
174 459
174 460
174 461
174 462
174 463
174 464
174 465
174 466
174 468
174 469
174 472
174 473
174 474
174 476
174 477
174 478
174 479
174 480
174 481
174 482
174 483
174 484
174 486
174 488
174 489
174 490
174 491
174 492
174 493
174 494
174 495
174 496
174 497
174 498
174 500
174 501
174 502
174 503
174 504
174 505
174 506
174 507
174 508
174 509
174 510
174 511
174 512
174 513
174 514
174 515
174 516
174 517
174 518
174 519
174 521
174 522
174 523
174 524
174 525
174 526
174 527
174 528
174 531
174 532
174 533
174 534
174 535
174 536
174 537
174 539
174 540
174 541
174 542
174 543
174 544
174 545
174 546
174 547
174 548
174 549
174 550
174 551
174 552
174 554
174 555
174 556
174 557
174 558
174 559
174 560
174 561
174 562
174 563
174 564
174 565
174 566
174 567
174 568
174 569
174 570
174 571
174 572
174 573
174 579
174 580
174 581
174 583
174 584
174 585
174 586
174 587
174 588
174 589
174 590
174 591
174 592
174 593
174 594
174 595
174 596
174 598
175 176
175 177
175 178
175 180
175 182
175 185
175 187
175 189
175 202
175 213
175 215
175 225
175 236
175 240
175 249
175 259
175 267
175 271
175 274
175 282
175 292
175 294
175 295
175 296
175 297
175 299
175 300
175 301
175 302
175 303
175 304
175 305
175 306
175 307
175 308
175 310
175 311
175 314
175 321
175 326
175 327
175 328
175 332
175 333
175 337
175 344
175 346
175 347
175 350
175 351
175 354
175 356
175 370
175 385
175 388
175 400
175 412
175 424
175 428
175 435
175 438
175 440
175 441
175 444
175 445
175 452
175 453
175 454
175 455
175 456
175 457
175 459
175 460
175 461
175 467
175 470
175 475
175 485
175 488
175 489
175 490
175 491
175 492
175 493
175 494
175 495
175 496
175 497
175 498
175 499
175 501
175 502
175 503
175 504
175 505
175 506
175 507
175 508
175 509
175 510
175 511
175 512
175 513
175 514
175 515
175 516
175 517
175 518
175 519
175 520
175 522
175 523
175 524
175 525
175 526
175 527
175 528
175 538
175 539
175 540
175 541
175 542
175 543
175 544
175 545
175 546
175 547
175 548
175 549
175 550
175 551
175 552
175 553
175 555
175 556
175 557
175 558
175 559
175 560
175 561
175 562
175 563
175 574
175 578
175 579
175 580
175 581
175 582
175 584
175 585
175 586
175 587
175 588
175 597
176 177
176 178
176 179
176 180
176 181
176 182
176 183
176 184
176 186
176 187
176 188
176 189
176 202
176 213
176 215
176 225
176 236
176 240
176 249
176 259
176 267
176 270
176 271
176 272
176 273
176 282
176 292
176 294
176 295
176 296
176 297
176 298
176 300
176 301
176 302
176 303
176 304
176 305
176 306
176 307
176 309
176 310
176 311
176 314
176 321
176 326
176 327
176 328
176 329
176 330
176 331
176 332
176 334
176 335
176 337
176 344
176 346
176 347
176 348
176 349
176 350
176 352
176 353
176 354
176 356
176 370
176 385
176 388
176 400
176 412
176 424
176 428
176 435
176 437
176 438
176 439
176 440
176 441
176 442
176 443
176 444
176 446
176 452
176 453
176 454
176 455
176 456
176 457
176 458
176 460
176 461
176 467
176 470
176 475
176 485
176 488
176 489
176 490
176 491
176 492
176 493
176 494
176 495
176 496
176 497
176 498
176 499
176 500
176 502
176 503
176 504
176 505
176 506
176 507
176 509
176 511
176 513
176 514
176 515
176 520
176 521
176 525
176 526
176 528
176 538
176 539
176 540
176 541
176 542
176 543
176 544
176 545
176 546
176 547
176 548
176 549
176 550
176 551
176 552
176 553
176 554
176 556
176 557
176 558
176 559
176 560
176 561
176 562
176 563
176 574
176 578
176 579
176 580
176 581
176 582
176 583
176 585
176 586
176 587
176 588
176 597
177 178
177 180
177 182
177 185
177 187
177 189
177 202
177 213
177 215
177 225
177 236
177 240
177 249
177 259
177 267
177 271
177 274
177 282
177 292
177 294
177 295
177 296
177 297
177 298
177 299
177 300
177 302
177 303
177 304
177 305
177 306
177 307
177 308
177 309
177 311
177 314
177 321
177 326
177 327
177 328
177 332
177 333
177 337
177 344
177 346
177 347
177 350
177 351
177 354
177 356
177 370
177 385
177 388
177 400
177 412
177 424
177 428
177 435
177 438
177 440
177 441
177 444
177 445
177 452
177 453
177 454
177 455
177 456
177 457
177 458
177 459
177 461
177 467
177 470
177 475
177 485
177 488
177 489
177 490
177 491
177 492
177 493
177 494
177 495
177 496
177 497
177 498
177 499
177 500
177 501
177 502
177 503
177 504
177 506
177 507
177 508
177 509
177 510
177 511
177 512
177 513
177 514
177 515
177 516
177 517
177 518
177 519
177 520
177 521
177 522
177 523
177 524
177 526
177 527
177 528
177 538
177 539
177 540
177 541
177 542
177 543
177 544
177 545
177 546
177 547
177 548
177 549
177 550
177 551
177 552
177 553
177 554
177 555
177 556
177 557
177 558
177 559
177 561
177 562
177 563
177 574
177 578
177 579
177 580
177 581
177 582
177 583
177 584
177 585
177 586
177 588
177 597
178 179
178 180
178 181
178 182
178 183
178 184
178 185
178 186
178 188
178 189
178 202
178 213
178 215
178 225
178 236
178 240
178 249
178 259
178 267
178 271
178 274
178 282
178 292
178 294
178 295
178 296
178 297
178 298
178 299
178 300
178 301
178 303
178 304
178 305
178 306
178 307
178 308
178 309
178 310
178 314
178 321
178 326
178 327
178 328
178 332
178 333
178 337
178 344
178 346
178 347
178 348
178 349
178 350
178 351
178 352
178 353
178 356
178 370
178 385
178 388
178 400
178 412
178 424
178 428
178 435
178 438
178 440
178 441
178 444
178 445
178 452
178 453
178 454
178 455
178 456
178 457
178 458
178 459
178 460
178 467
178 470
178 475
178 485
178 488
178 489
178 490
178 491
178 492
178 493
178 494
178 495
178 496
178 497
178 498
178 499
178 500
178 501
178 502
178 503
178 504
178 505
178 507
178 508
178 509
178 510
178 511
178 512
178 513
178 514
178 515
178 516
178 517
178 518
178 519
178 520
178 521
178 522
178 523
178 524
178 525
178 527
178 528
178 538
178 539
178 540
178 541
178 542
178 543
178 544
178 545
178 546
178 547
178 548
178 549
178 550
178 551
178 552
178 553
178 554
178 555
178 556
178 557
178 558
178 559
178 560
178 561
178 562
178 574
178 578
178 579
178 580
178 581
178 582
178 583
178 584
178 585
178 586
178 587
178 597
179 180
179 181
179 182
179 183
179 184
179 185
179 186
179 187
179 188
179 189
179 271
179 272
179 273
179 274
179 282
179 294
179 296
179 299
179 302
179 303
179 306
179 308
179 311
179 327
179 328
179 331
179 333
179 335
179 346
179 347
179 349
179 351
179 353
179 354
179 356
179 388
179 438
179 439
179 440
179 441
179 442
179 443
179 444
179 445
179 446
179 453
179 456
179 459
179 461
179 489
179 490
179 491
179 492
179 493
179 494
179 495
179 496
179 497
179 498
179 499
179 500
179 501
179 502
179 503
179 504
179 505
179 506
179 507
179 509
179 510
179 511
179 512
179 513
179 514
179 515
179 516
179 517
179 518
179 519
179 520
179 521
179 522
179 523
179 524
179 525
179 526
179 527
179 528
179 539
179 541
179 542
179 543
179 544
179 545
179 546
179 547
179 548
179 549
179 550
179 551
179 552
179 553
179 554
179 555
179 556
179 557
179 558
179 559
179 560
179 561
179 562
179 563
179 579
179 581
179 584
179 588
180 181
180 182
180 183
180 184
180 185
180 186
180 187
180 188
180 190
180 191
180 192
180 193
180 194
180 195
180 196
180 197
180 198
180 199
180 200
180 201
180 202
180 203
180 204
180 205
180 206
180 270
180 271
180 273
180 274
180 283
180 295
180 296
180 297
180 298
180 299
180 300
180 301
180 302
180 304
180 305
180 306
180 307
180 308
180 309
180 310
180 311
180 328
180 329
180 330
180 331
180 332
180 333
180 334
180 335
180 347
180 348
180 349
180 350
180 351
180 352
180 353
180 354
180 355
180 357
180 358
180 359
180 360
180 361
180 362
180 363
180 364
180 365
180 366
180 367
180 368
180 369
180 370
180 371
180 372
180 373
180 386
180 387
180 389
180 390
180 391
180 392
180 393
180 394
180 395
180 396
180 397
180 398
180 399
180 400
180 401
180 402
180 403
180 437
180 439
180 440
180 441
180 442
180 443
180 444
180 445
180 446
180 454
180 455
180 456
180 457
180 458
180 459
180 460
180 461
180 488
180 490
180 491
180 492
180 493
180 494
180 495
180 496
180 497
180 498
180 499
180 500
180 501
180 502
180 503
180 504
180 505
180 506
180 507
180 508
180 510
180 511
180 512
180 513
180 514
180 515
180 516
180 517
180 518
180 519
180 520
180 521
180 522
180 523
180 524
180 525
180 526
180 527
180 529
180 530
180 540
180 542
180 547
180 551
180 555
180 559
180 563
180 580
180 581
180 582
180 583
180 584
180 585
180 586
180 587
180 588
181 182
181 183
181 184
181 185
181 186
181 187
181 188
181 189
181 270
181 271
181 273
181 274
181 282
181 294
181 296
181 299
181 302
181 303
181 306
181 308
181 311
181 327
181 328
181 331
181 333
181 335
181 346
181 347
181 349
181 351
181 353
181 354
181 356
181 388
181 437
181 438
181 440
181 441
181 442
181 443
181 444
181 445
181 446
181 453
181 456
181 459
181 461
181 488
181 489
181 491
181 492
181 493
181 494
181 495
181 496
181 497
181 498
181 499
181 500
181 501
181 502
181 503
181 504
181 505
181 506
181 507
181 508
181 509
181 511
181 512
181 513
181 514
181 515
181 516
181 517
181 518
181 519
181 520
181 521
181 522
181 523
181 524
181 525
181 526
181 527
181 528
181 539
181 540
181 541
181 543
181 544
181 545
181 546
181 547
181 548
181 549
181 550
181 551
181 552
181 553
181 554
181 555
181 556
181 557
181 558
181 559
181 560
181 561
181 562
181 563
181 579
181 581
181 584
181 588
182 183
182 184
182 185
182 186
182 187
182 188
182 189
182 270
182 272
182 273
182 274
182 282
182 294
182 295
182 297
182 298
182 299
182 300
182 301
182 302
182 303
182 304
182 305
182 307
182 308
182 309
182 310
182 311
182 327
182 329
182 330
182 331
182 332
182 333
182 334
182 335
182 346
182 348
182 349
182 350
182 351
182 352
182 353
182 354
182 356
182 388
182 437
182 438
182 439
182 440
182 442
182 443
182 444
182 445
182 446
182 453
182 454
182 455
182 457
182 458
182 459
182 460
182 461
182 488
182 489
182 490
182 497
182 498
182 501
182 504
182 506
182 507
182 508
182 509
182 510
182 511
182 512
182 513
182 514
182 516
182 517
182 518
182 519
182 520
182 521
182 522
182 523
182 524
182 525
182 526
182 527
182 528
182 539
182 540
182 541
182 542
182 543
182 544
182 545
182 546
182 548
182 549
182 550
182 551
182 552
182 553
182 554
182 555
182 556
182 557
182 558
182 559
182 560
182 561
182 562
182 563
182 579
182 580
182 582
182 583
182 584
182 585
182 586
182 587
182 588
183 184
183 185
183 186
183 187
183 188
183 189
183 270
183 271
183 273
183 274
183 282
183 294
183 296
183 299
183 302
183 303
183 306
183 308
183 311
183 327
183 328
183 331
183 333
183 335
183 346
183 347
183 348
183 350
183 351
183 352
183 353
183 354
183 356
183 388
183 437
183 438
183 439
183 440
183 441
183 442
183 444
183 445
183 446
183 453
183 456
183 459
183 461
183 488
183 489
183 490
183 491
183 492
183 493
183 494
183 495
183 496
183 498
183 499
183 500
183 501
183 502
183 503
183 504
183 505
183 506
183 507
183 508
183 509
183 510
183 511
183 512
183 513
183 514
183 515
183 516
183 517
183 519
183 520
183 521
183 522
183 523
183 524
183 525
183 526
183 527
183 528
183 539
183 540
183 541
183 542
183 543
183 544
183 545
183 546
183 547
183 548
183 549
183 550
183 552
183 553
183 554
183 555
183 556
183 557
183 558
183 559
183 560
183 561
183 562
183 563
183 579
183 581
183 584
183 588
184 185
184 186
184 187
184 188
184 189
184 270
184 271
184 272
184 274
184 282
184 294
184 296
184 299
184 302
184 303
184 306
184 308
184 311
184 327
184 328
184 329
184 330
184 332
184 333
184 334
184 335
184 346
184 347
184 349
184 351
184 353
184 354
184 356
184 388
184 437
184 438
184 439
184 441
184 443
184 445
184 446
184 453
184 456
184 459
184 461
184 488
184 489
184 490
184 491
184 492
184 493
184 494
184 495
184 496
184 497
184 499
184 500
184 501
184 502
184 503
184 504
184 505
184 506
184 507
184 508
184 509
184 510
184 511
184 512
184 513
184 514
184 515
184 516
184 517
184 518
184 520
184 521
184 522
184 523
184 524
184 525
184 526
184 527
184 528
184 540
184 542
184 547
184 551
184 555
184 559
184 563
184 579
184 581
184 584
184 588
185 186
185 187
185 188
185 189
185 270
185 271
185 272
185 273
185 282
185 294
185 295
185 296
185 297
185 298
185 300
185 301
185 302
185 303
185 304
185 305
185 306
185 307
185 309
185 310
185 311
185 327
185 328
185 329
185 330
185 331
185 332
185 334
185 335
185 346
185 347
185 348
185 349
185 350
185 352
185 353
185 354
185 356
185 388
185 437
185 438
185 439
185 440
185 441
185 442
185 443
185 444
185 446
185 453
185 454
185 455
185 456
185 457
185 458
185 460
185 461
185 488
185 489
185 490
185 491
185 492
185 493
185 494
185 495
185 496
185 497
185 498
185 499
185 500
185 502
185 503
185 504
185 505
185 506
185 507
185 508
185 509
185 510
185 515
185 518
185 519
185 524
185 526
185 527
185 528
185 539
185 540
185 541
185 542
185 543
185 544
185 545
185 546
185 547
185 548
185 549
185 550
185 551
185 552
185 553
185 554
185 556
185 557
185 558
185 559
185 560
185 561
185 562
185 563
185 579
185 580
185 581
185 582
185 583
185 585
185 586
185 587
185 588
186 187
186 188
186 189
186 270
186 271
186 273
186 274
186 282
186 294
186 296
186 299
186 302
186 303
186 306
186 308
186 311
186 327
186 328
186 331
186 333
186 335
186 346
186 347
186 348
186 349
186 350
186 351
186 352
186 354
186 356
186 388
186 437
186 438
186 439
186 440
186 441
186 442
186 443
186 444
186 445
186 453
186 456
186 459
186 461
186 488
186 489
186 490
186 491
186 492
186 493
186 494
186 495
186 496
186 497
186 498
186 499
186 500
186 501
186 502
186 503
186 505
186 506
186 507
186 508
186 509
186 510
186 511
186 512
186 513
186 514
186 515
186 516
186 517
186 518
186 519
186 520
186 521
186 522
186 523
186 525
186 526
186 527
186 528
186 539
186 540
186 541
186 542
186 543
186 544
186 545
186 546
186 547
186 548
186 549
186 550
186 551
186 552
186 553
186 554
186 555
186 556
186 557
186 558
186 560
186 561
186 562
186 563
186 579
186 581
186 584
186 588
187 188
187 189
187 270
187 271
187 273
187 274
187 282
187 294
187 295
187 296
187 297
187 298
187 299
187 300
187 301
187 303
187 304
187 305
187 306
187 307
187 308
187 309
187 310
187 327
187 328
187 331
187 333
187 335
187 346
187 347
187 348
187 349
187 350
187 351
187 352
187 353
187 356
187 388
187 437
187 438
187 439
187 441
187 443
187 445
187 446
187 453
187 454
187 455
187 456
187 457
187 458
187 459
187 460
187 488
187 489
187 490
187 491
187 492
187 493
187 494
187 495
187 496
187 497
187 498
187 499
187 500
187 501
187 502
187 503
187 504
187 505
187 507
187 508
187 509
187 510
187 511
187 512
187 513
187 514
187 515
187 516
187 517
187 518
187 519
187 520
187 521
187 522
187 523
187 524
187 525
187 527
187 528
187 539
187 540
187 541
187 542
187 543
187 544
187 545
187 546
187 547
187 548
187 549
187 550
187 551
187 552
187 553
187 554
187 555
187 556
187 557
187 558
187 559
187 560
187 561
187 562
187 579
187 580
187 581
187 582
187 583
187 584
187 585
187 586
187 587
188 189
188 270
188 271
188 273
188 274
188 282
188 294
188 296
188 299
188 302
188 303
188 306
188 308
188 311
188 327
188 328
188 329
188 330
188 331
188 332
188 333
188 334
188 346
188 347
188 349
188 351
188 353
188 354
188 356
188 388
188 437
188 438
188 439
188 441
188 443
188 445
188 446
188 453
188 456
188 459
188 461
188 488
188 489
188 490
188 491
188 492
188 493
188 494
188 495
188 496
188 497
188 498
188 499
188 500
188 501
188 502
188 503
188 504
188 505
188 506
188 508
188 509
188 510
188 511
188 512
188 513
188 514
188 515
188 516
188 517
188 518
188 519
188 520
188 521
188 522
188 523
188 524
188 525
188 526
188 528
188 540
188 542
188 547
188 551
188 555
188 559
188 563
188 579
188 581
188 584
188 588
189 190
189 191
189 192
189 193
189 194
189 195
189 196
189 197
189 198
189 199
189 200
189 201
189 202
189 203
189 204
189 205
189 206
189 213
189 215
189 218
189 219
189 220
189 221
189 222
189 223
189 224
189 225
189 226
189 228
189 230
189 234
189 236
189 238
189 240
189 242
189 243
189 244
189 245
189 246
189 247
189 248
189 249
189 250
189 252
189 253
189 254
189 255
189 256
189 257
189 258
189 259
189 260
189 267
189 276
189 280
189 283
189 285
189 286
189 287
189 288
189 289
189 290
189 291
189 292
189 293
189 295
189 296
189 297
189 298
189 299
189 300
189 301
189 302
189 304
189 305
189 306
189 307
189 308
189 309
189 310
189 311
189 312
189 313
189 314
189 321
189 323
189 326
189 328
189 329
189 330
189 331
189 332
189 333
189 334
189 335
189 336
189 337
189 344
189 347
189 348
189 349
189 350
189 351
189 352
189 353
189 354
189 355
189 357
189 358
189 359
189 360
189 361
189 362
189 363
189 364
189 365
189 366
189 367
189 368
189 369
189 370
189 371
189 372
189 373
189 374
189 375
189 378
189 383
189 385
189 386
189 387
189 389
189 390
189 391
189 392
189 393
189 394
189 395
189 396
189 397
189 398
189 399
189 400
189 401
189 402
189 403
189 405
189 406
189 407
189 408
189 409
189 410
189 411
189 412
189 413
189 417
189 418
189 419
189 420
189 421
189 422
189 423
189 424
189 425
189 428
189 435
189 437
189 439
189 440
189 441
189 442
189 443
189 444
189 445
189 446
189 452
189 454
189 455
189 456
189 457
189 458
189 459
189 460
189 461
189 463
189 464
189 466
189 467
189 468
189 470
189 473
189 474
189 475
189 476
189 478
189 479
189 480
189 481
189 482
189 483
189 484
189 485
189 486
189 487
189 488
189 490
189 491
189 492
189 493
189 494
189 495
189 496
189 497
189 498
189 499
189 500
189 501
189 502
189 503
189 504
189 505
189 506
189 507
189 508
189 510
189 511
189 512
189 513
189 514
189 515
189 516
189 517
189 518
189 519
189 520
189 521
189 522
189 523
189 524
189 525
189 526
189 527
189 529
189 530
189 538
189 541
189 544
189 552
189 553
189 558
189 561
189 566
189 569
189 572
189 574
189 577
189 578
189 580
189 581
189 582
189 583
189 584
189 585
189 586
189 587
189 588
189 597
190 191
190 192
190 193
190 194
190 195
190 196
190 197
190 198
190 199
190 200
190 201
190 202
190 203
190 204
190 205
190 206
190 213
190 215
190 217
190 219
190 220
190 221
190 222
190 223
190 224
190 225
190 226
190 228
190 230
190 234
190 236
190 238
190 240
190 242
190 243
190 244
190 245
190 246
190 247
190 248
190 249
190 250
190 251
190 253
190 254
190 255
190 256
190 257
190 258
190 259
190 260
190 267
190 276
190 280
190 282
190 284
190 286
190 287
190 288
190 289
190 290
190 291
190 292
190 293
190 294
190 297
190 303
190 307
190 312
190 313
190 314
190 321
190 323
190 326
190 327
190 332
190 336
190 337
190 344
190 346
190 350
190 355
190 356
190 358
190 359
190 360
190 361
190 362
190 363
190 364
190 365
190 366
190 367
190 368
190 369
190 370
190 371
190 372
190 373
190 374
190 375
190 378
190 383
190 385
190 388
190 390
190 393
190 396
190 397
190 400
190 402
190 403
190 404
190 406
190 407
190 408
190 409
190 410
190 411
190 412
190 413
190 416
190 418
190 419
190 420
190 421
190 422
190 423
190 424
190 425
190 428
190 435
190 438
190 444
190 452
190 453
190 457
190 463
190 464
190 466
190 467
190 468
190 470
190 473
190 474
190 475
190 476
190 477
190 479
190 480
190 481
190 482
190 483
190 484
190 485
190 486
190 487
190 489
190 492
190 499
190 509
190 512
190 520
190 528
190 538
190 541
190 544
190 552
190 553
190 558
190 561
190 566
190 569
190 572
190 574
190 577
190 578
190 579
190 582
190 597
191 192
191 193
191 194
191 195
191 196
191 197
191 198
191 199
191 200
191 201
191 202
191 203
191 204
191 205
191 206
191 213
191 215
191 218
191 219
191 220
191 221
191 222
191 223
191 224
191 225
191 226
191 227
191 229
191 230
191 231
191 232
191 233
191 234
191 235
191 236
191 237
191 239
191 240
191 242
191 243
191 244
191 245
191 246
191 247
191 248
191 249
191 250
191 252
191 253
191 254
191 255
191 256
191 257
191 258
191 259
191 260
191 267
191 275
191 277
191 278
191 279
191 280
191 281
191 282
191 285
191 286
191 287
191 288
191 289
191 290
191 291
191 292
191 293
191 294
191 297
191 303
191 307
191 313
191 314
191 321
191 324
191 325
191 326
191 327
191 332
191 336
191 337
191 344
191 346
191 350
191 355
191 356
191 357
191 359
191 360
191 361
191 362
191 363
191 364
191 365
191 366
191 367
191 368
191 369
191 370
191 371
191 372
191 373
191 374
191 375
191 376
191 377
191 379
191 380
191 381
191 382
191 383
191 384
191 385
191 388
191 390
191 393
191 396
191 397
191 400
191 402
191 403
191 405
191 406
191 407
191 408
191 409
191 410
191 411
191 412
191 413
191 417
191 418
191 419
191 420
191 421
191 422
191 423
191 424
191 425
191 428
191 435
191 438
191 444
191 452
191 453
191 457
191 462
191 464
191 465
191 466
191 467
191 468
191 470
191 472
191 474
191 475
191 476
191 478
191 479
191 480
191 481
191 482
191 483
191 484
191 485
191 486
191 487
191 489
191 492
191 499
191 509
191 512
191 520
191 528
191 538
191 539
191 540
191 542
191 543
191 544
191 545
191 546
191 547
191 548
191 549
191 550
191 551
191 552
191 553
191 554
191 555
191 556
191 557
191 558
191 559
191 560
191 561
191 562
191 563
191 564
191 565
191 567
191 568
191 569
191 570
191 571
191 572
191 573
191 574
191 577
191 578
191 579
191 582
191 597
192 193
192 194
192 195
192 196
192 197
192 198
192 199
192 200
192 201
192 202
192 203
192 204
192 205
192 206
192 213
192 215
192 218
192 219
192 220
192 221
192 222
192 223
192 224
192 225
192 226
192 228
192 230
192 234
192 236
192 238
192 240
192 242
192 243
192 244
192 245
192 246
192 247
192 248
192 249
192 250
192 252
192 253
192 254
192 255
192 256
192 257
192 258
192 259
192 260
192 267
192 276
192 280
192 282
192 285
192 286
192 287
192 288
192 289
192 290
192 291
192 292
192 293
192 294
192 297
192 303
192 307
192 312
192 313
192 314
192 321
192 323
192 326
192 327
192 332
192 336
192 337
192 344
192 346
192 350
192 355
192 356
192 357
192 358
192 360
192 361
192 362
192 363
192 364
192 365
192 366
192 367
192 368
192 369
192 370
192 371
192 372
192 373
192 374
192 375
192 378
192 383
192 385
192 386
192 387
192 388
192 389
192 391
192 392
192 393
192 394
192 395
192 396
192 397
192 398
192 399
192 400
192 401
192 402
192 403
192 405
192 406
192 407
192 408
192 409
192 410
192 411
192 412
192 413
192 417
192 418
192 419
192 420
192 421
192 422
192 423
192 424
192 425
192 428
192 435
192 438
192 444
192 452
192 453
192 457
192 462
192 463
192 465
192 466
192 467
192 468
192 470
192 473
192 474
192 475
192 476
192 478
192 479
192 480
192 481
192 482
192 483
192 484
192 485
192 486
192 487
192 489
192 492
192 499
192 509
192 512
192 520
192 528
192 538
192 541
192 544
192 552
192 553
192 558
192 561
192 566
192 569
192 572
192 574
192 577
192 578
192 579
192 582
192 597
193 194
193 195
193 196
193 197
193 198
193 199
193 200
193 201
193 202
193 203
193 204
193 205
193 206
193 213
193 215
193 217
193 218
193 220
193 221
193 222
193 223
193 224
193 225
193 226
193 228
193 230
193 234
193 236
193 238
193 240
193 241
193 243
193 244
193 245
193 246
193 247
193 248
193 249
193 250
193 251
193 252
193 254
193 255
193 256
193 257
193 258
193 259
193 260
193 267
193 276
193 280
193 282
193 284
193 285
193 287
193 288
193 289
193 290
193 291
193 292
193 293
193 294
193 297
193 303
193 307
193 312
193 313
193 314
193 321
193 323
193 326
193 327
193 332
193 336
193 337
193 344
193 346
193 350
193 355
193 356
193 357
193 358
193 359
193 361
193 362
193 363
193 364
193 365
193 366
193 367
193 368
193 369
193 370
193 371
193 372
193 373
193 374
193 375
193 378
193 383
193 385
193 388
193 390
193 393
193 396
193 397
193 400
193 402
193 403
193 404
193 405
193 407
193 408
193 409
193 410
193 411
193 412
193 413
193 416
193 417
193 419
193 420
193 421
193 422
193 423
193 424
193 425
193 428
193 435
193 438
193 444
193 452
193 453
193 457
193 463
193 464
193 466
193 467
193 468
193 470
193 473
193 474
193 475
193 476
193 478
193 479
193 480
193 481
193 482
193 483
193 484
193 485
193 486
193 487
193 489
193 492
193 499
193 509
193 512
193 520
193 528
193 538
193 541
193 544
193 552
193 553
193 558
193 561
193 566
193 569
193 572
193 574
193 577
193 578
193 579
193 582
193 597
194 195
194 196
194 197
194 198
194 199
194 200
194 201
194 202
194 203
194 204
194 205
194 206
194 213
194 215
194 217
194 218
194 219
194 221
194 222
194 223
194 224
194 225
194 226
194 228
194 230
194 234
194 236
194 238
194 240
194 241
194 242
194 244
194 245
194 246
194 247
194 248
194 249
194 250
194 251
194 252
194 253
194 255
194 256
194 257
194 258
194 259
194 260
194 267
194 276
194 280
194 282
194 284
194 285
194 286
194 288
194 289
194 290
194 291
194 292
194 293
194 294
194 297
194 303
194 307
194 312
194 313
194 314
194 321
194 323
194 326
194 327
194 332
194 336
194 337
194 344
194 346
194 350
194 355
194 356
194 357
194 358
194 359
194 360
194 362
194 363
194 364
194 365
194 366
194 367
194 368
194 369
194 370
194 371
194 372
194 373
194 374
194 375
194 378
194 383
194 385
194 388
194 390
194 393
194 396
194 397
194 400
194 402
194 403
194 405
194 406
194 407
194 408
194 409
194 410
194 411
194 412
194 413
194 416
194 417
194 418
194 420
194 421
194 422
194 423
194 424
194 425
194 428
194 435
194 438
194 444
194 452
194 453
194 457
194 463
194 464
194 466
194 467
194 468
194 470
194 473
194 474
194 475
194 476
194 477
194 478
194 480
194 481
194 482
194 483
194 484
194 485
194 486
194 487
194 489
194 492
194 499
194 509
194 512
194 520
194 528
194 538
194 541
194 544
194 552
194 553
194 558
194 561
194 566
194 569
194 572
194 574
194 577
194 578
194 579
194 582
194 597
195 196
195 197
195 198
195 199
195 200
195 201
195 202
195 203
195 204
195 205
195 206
195 213
195 215
195 218
195 219
195 220
195 221
195 222
195 223
195 224
195 225
195 226
195 227
195 228
195 229
195 231
195 232
195 233
195 234
195 235
195 236
195 238
195 240
195 242
195 243
195 244
195 245
195 246
195 247
195 248
195 249
195 250
195 252
195 253
195 254
195 255
195 256
195 257
195 258
195 259
195 260
195 267
195 276
195 280
195 282
195 285
195 286
195 287
195 288
195 289
195 290
195 291
195 292
195 293
195 294
195 297
195 303
195 307
195 312
195 314
195 321
195 323
195 326
195 327
195 332
195 337
195 344
195 346
195 350
195 355
195 356
195 357
195 358
195 359
195 360
195 361
195 363
195 364
195 365
195 366
195 367
195 368
195 369
195 370
195 371
195 372
195 373
195 374
195 375
195 378
195 383
195 385
195 386
195 387
195 388
195 389
195 390
195 391
195 392
195 394
195 395
195 396
195 397
195 398
195 399
195 400
195 401
195 402
195 403
195 405
195 406
195 407
195 408
195 409
195 410
195 411
195 412
195 413
195 417
195 418
195 419
195 420
195 421
195 422
195 423
195 424
195 425
195 428
195 435
195 438
195 444
195 452
195 453
195 457
195 463
195 464
195 466
195 467
195 469
195 470
195 473
195 474
195 475
195 476
195 478
195 479
195 480
195 481
195 482
195 483
195 484
195 485
195 486
195 488
195 489
195 490
195 491
195 493
195 494
195 495
195 496
195 497
195 498
195 499
195 500
195 501
195 502
195 503
195 504
195 505
195 506
195 507
195 508
195 509
195 510
195 511
195 513
195 514
195 515
195 516
195 517
195 518
195 519
195 520
195 521
195 522
195 523
195 524
195 525
195 526
195 527
195 528
195 538
195 539
195 540
195 541
195 542
195 543
195 545
195 546
195 547
195 548
195 549
195 550
195 551
195 552
195 553
195 554
195 555
195 556
195 557
195 558
195 559
195 560
195 561
195 562
195 563
195 564
195 565
195 566
195 567
195 568
195 570
195 571
195 572
195 573
195 574
195 577
195 578
195 579
195 582
195 597
196 197
196 198
196 199
196 200
196 201
196 202
196 203
196 204
196 205
196 206
196 213
196 215
196 217
196 218
196 219
196 220
196 222
196 223
196 224
196 225
196 226
196 228
196 230
196 234
196 236
196 238
196 240
196 241
196 242
196 243
196 245
196 246
196 247
196 248
196 249
196 250
196 251
196 252
196 253
196 254
196 256
196 257
196 258
196 259
196 260
196 267
196 276
196 280
196 282
196 284
196 285
196 286
196 287
196 289
196 290
196 291
196 292
196 293
196 294
196 297
196 303
196 307
196 312
196 313
196 314
196 321
196 323
196 326
196 327
196 332
196 336
196 337
196 344
196 346
196 350
196 355
196 356
196 357
196 358
196 359
196 360
196 361
196 362
196 364
196 365
196 366
196 367
196 368
196 369
196 370
196 371
196 372
196 373
196 374
196 375
196 378
196 383
196 385
196 388
196 390
196 393
196 396
196 397
196 400
196 402
196 403
196 404
196 405
196 406
196 408
196 409
196 410
196 411
196 412
196 413
196 417
196 418
196 419
196 420
196 421
196 422
196 423
196 424
196 425
196 428
196 435
196 438
196 444
196 452
196 453
196 457
196 463
196 464
196 466
196 467
196 468
196 470
196 473
196 474
196 475
196 476
196 477
196 478
196 479
196 481
196 482
196 483
196 484
196 485
196 486
196 487
196 489
196 492
196 499
196 509
196 512
196 520
196 528
196 538
196 541
196 544
196 552
196 553
196 558
196 561
196 566
196 569
196 572
196 574
196 577
196 578
196 579
196 582
196 597
197 198
197 199
197 200
197 201
197 202
197 203
197 204
197 205
197 206
197 213
197 215
197 218
197 219
197 220
197 221
197 222
197 223
197 224
197 225
197 226
197 228
197 230
197 234
197 236
197 238
197 240
197 241
197 242
197 243
197 244
197 246
197 247
197 248
197 249
197 250
197 251
197 252
197 253
197 254
197 255
197 257
197 258
197 259
197 260
197 267
197 276
197 280
197 282
197 284
197 285
197 286
197 287
197 288
197 290
197 291
197 292
197 293
197 294
197 297
197 303
197 307
197 312
197 313
197 314
197 321
197 323
197 326
197 327
197 332
197 336
197 337
197 344
197 346
197 350
197 355
197 356
197 357
197 358
197 359
197 360
197 361
197 362
197 363
197 365
197 366
197 367
197 368
197 369
197 370
197 371
197 372
197 373
197 374
197 375
197 378
197 383
197 385
197 388
197 390
197 393
197 396
197 397
197 400
197 402
197 403
197 404
197 405
197 406
197 407
197 409
197 410
197 411
197 412
197 413
197 416
197 417
197 418
197 419
197 421
197 422
197 423
197 424
197 425
197 428
197 435
197 438
197 444
197 452
197 453
197 457
197 463
197 464
197 466
197 467
197 468
197 470
197 473
197 474
197 475
197 476
197 477
197 478
197 479
197 480
197 482
197 483
197 484
197 485
197 486
197 487
197 489
197 492
197 499
197 509
197 512
197 520
197 528
197 538
197 541
197 544
197 552
197 553
197 558
197 561
197 566
197 569
197 572
197 574
197 577
197 578
197 579
197 582
197 597
198 199
198 200
198 201
198 202
198 203
198 204
198 205
198 206
198 213
198 215
198 217
198 218
198 219
198 220
198 221
198 223
198 224
198 225
198 226
198 228
198 230
198 234
198 236
198 238
198 240
198 241
198 242
198 243
198 244
198 245
198 247
198 248
198 249
198 250
198 252
198 253
198 254
198 255
198 256
198 257
198 258
198 259
198 260
198 267
198 276
198 280
198 282
198 284
198 285
198 286
198 287
198 288
198 289
198 291
198 292
198 293
198 294
198 297
198 303
198 307
198 312
198 313
198 314
198 321
198 323
198 326
198 327
198 332
198 336
198 337
198 344
198 346
198 350
198 355
198 356
198 357
198 358
198 359
198 360
198 361
198 362
198 363
198 364
198 365
198 366
198 368
198 369
198 370
198 371
198 372
198 373
198 374
198 375
198 378
198 383
198 385
198 388
198 390
198 393
198 396
198 397
198 400
198 402
198 403
198 404
198 405
198 406
198 407
198 408
198 410
198 411
198 412
198 413
198 416
198 417
198 418
198 419
198 420
198 422
198 423
198 424
198 425
198 428
198 435
198 438
198 444
198 452
198 453
198 457
198 463
198 464
198 466
198 467
198 468
198 470
198 473
198 474
198 475
198 476
198 477
198 478
198 479
198 480
198 481
198 483
198 484
198 485
198 486
198 487
198 489
198 492
198 499
198 509
198 512
198 520
198 528
198 538
198 541
198 544
198 552
198 553
198 558
198 561
198 566
198 569
198 572
198 574
198 577
198 578
198 579
198 582
198 597
199 200
199 201
199 202
199 203
199 204
199 205
199 206
199 213
199 215
199 218
199 219
199 220
199 221
199 222
199 223
199 224
199 225
199 226
199 227
199 228
199 229
199 230
199 231
199 232
199 233
199 235
199 236
199 238
199 240
199 242
199 243
199 244
199 245
199 246
199 247
199 248
199 249
199 250
199 252
199 253
199 254
199 255
199 256
199 257
199 258
199 259
199 260
199 267
199 275
199 276
199 277
199 278
199 279
199 281
199 282
199 285
199 286
199 287
199 288
199 289
199 290
199 291
199 292
199 293
199 294
199 297
199 303
199 307
199 312
199 313
199 314
199 321
199 323
199 326
199 327
199 332
199 336
199 337
199 344
199 346
199 350
199 355
199 356
199 357
199 358
199 359
199 360
199 361
199 362
199 363
199 364
199 365
199 366
199 367
199 369
199 370
199 371
199 372
199 373
199 374
199 375
199 376
199 377
199 378
199 379
199 380
199 381
199 382
199 384
199 385
199 386
199 387
199 388
199 389
199 390
199 391
199 392
199 393
199 394
199 395
199 397
199 398
199 399
199 400
199 401
199 402
199 403
199 405
199 406
199 407
199 408
199 409
199 410
199 411
199 412
199 413
199 417
199 418
199 419
199 420
199 421
199 422
199 423
199 424
199 425
199 428
199 435
199 438
199 444
199 452
199 453
199 457
199 463
199 464
199 466
199 467
199 468
199 470
199 473
199 474
199 475
199 476
199 478
199 479
199 480
199 481
199 482
199 483
199 484
199 485
199 486
199 487
199 489
199 492
199 499
199 509
199 512
199 520
199 528
199 538
199 541
199 544
199 552
199 553
199 558
199 561
199 566
199 569
199 572
199 574
199 577
199 578
199 579
199 582
199 597
200 201
200 202
200 203
200 204
200 205
200 206
200 213
200 215
200 217
200 218
200 219
200 220
200 221
200 222
200 224
200 225
200 226
200 228
200 230
200 234
200 236
200 238
200 240
200 241
200 242
200 243
200 244
200 245
200 246
200 248
200 249
200 250
200 251
200 252
200 253
200 254
200 255
200 256
200 258
200 259
200 260
200 267
200 276
200 280
200 282
200 284
200 285
200 286
200 287
200 288
200 289
200 290
200 292
200 293
200 294
200 297
200 303
200 307
200 312
200 313
200 314
200 321
200 323
200 326
200 327
200 332
200 336
200 337
200 344
200 346
200 350
200 356
200 357
200 358
200 359
200 360
200 361
200 362
200 363
200 364
200 367
200 368
200 369
200 370
200 371
200 372
200 373
200 375
200 378
200 383
200 385
200 386
200 387
200 388
200 389
200 390
200 391
200 392
200 393
200 394
200 395
200 396
200 398
200 399
200 400
200 401
200 402
200 403
200 404
200 405
200 406
200 407
200 408
200 409
200 411
200 412
200 413
200 416
200 417
200 418
200 419
200 420
200 421
200 423
200 424
200 425
200 428
200 435
200 438
200 444
200 452
200 453
200 457
200 462
200 463
200 464
200 465
200 467
200 468
200 470
200 472
200 473
200 475
200 476
200 477
200 478
200 479
200 480
200 481
200 482
200 484
200 485
200 486
200 487
200 489
200 492
200 499
200 509
200 512
200 520
200 528
200 538
200 539
200 540
200 541
200 542
200 543
200 544
200 545
200 546
200 547
200 548
200 549
200 550
200 551
200 553
200 554
200 555
200 556
200 557
200 558
200 559
200 560
200 561
200 562
200 563
200 564
200 565
200 566
200 567
200 568
200 569
200 570
200 571
200 573
200 574
200 578
200 579
200 582
200 597
201 202
201 203
201 204
201 205
201 206
201 213
201 215
201 217
201 218
201 219
201 220
201 221
201 222
201 223
201 225
201 226
201 228
201 230
201 234
201 236
201 238
201 240
201 241
201 242
201 243
201 244
201 245
201 246
201 247
201 249
201 250
201 251
201 252
201 253
201 254
201 255
201 256
201 257
201 259
201 260
201 267
201 276
201 280
201 282
201 285
201 286
201 287
201 288
201 289
201 290
201 291
201 292
201 293
201 294
201 297
201 303
201 307
201 312
201 313
201 314
201 321
201 323
201 326
201 327
201 332
201 336
201 337
201 344
201 346
201 350
201 355
201 356
201 357
201 358
201 359
201 360
201 361
201 362
201 363
201 364
201 365
201 366
201 367
201 368
201 370
201 371
201 372
201 373
201 374
201 375
201 378
201 383
201 385
201 388
201 390
201 393
201 396
201 397
201 400
201 402
201 403
201 404
201 405
201 406
201 407
201 408
201 409
201 410
201 412
201 413
201 416
201 417
201 418
201 419
201 420
201 421
201 422
201 424
201 425
201 428
201 435
201 438
201 444
201 452
201 453
201 457
201 463
201 464
201 466
201 467
201 468
201 470
201 473
201 474
201 475
201 476
201 477
201 478
201 479
201 480
201 481
201 482
201 483
201 485
201 486
201 487
201 489
201 492
201 499
201 509
201 512
201 520
201 528
201 538
201 541
201 544
201 552
201 553
201 558
201 561
201 566
201 569
201 572
201 574
201 577
201 578
201 579
201 582
201 597
202 203
202 204
202 205
202 206
202 207
202 208
202 209
202 210
202 211
202 212
202 214
202 216
202 217
202 218
202 219
202 220
202 221
202 222
202 223
202 224
202 226
202 227
202 228
202 229
202 230
202 231
202 232
202 233
202 234
202 235
202 237
202 238
202 239
202 241
202 242
202 243
202 244
202 245
202 246
202 247
202 248
202 250
202 251
202 252
202 253
202 254
202 255
202 256
202 257
202 258
202 260
202 261
202 262
202 263
202 264
202 265
202 266
202 268
202 276
202 280
202 282
202 284
202 285
202 286
202 287
202 288
202 289
202 290
202 291
202 293
202 294
202 295
202 296
202 298
202 299
202 300
202 301
202 302
202 303
202 304
202 305
202 306
202 308
202 309
202 310
202 311
202 312
202 313
202 315
202 316
202 317
202 318
202 319
202 320
202 322
202 323
202 324
202 325
202 327
202 328
202 329
202 330
202 331
202 333
202 334
202 335
202 336
202 338
202 339
202 340
202 341
202 342
202 343
202 345
202 346
202 347
202 348
202 349
202 351
202 352
202 353
202 354
202 355
202 356
202 357
202 358
202 359
202 360
202 361
202 362
202 363
202 364
202 365
202 366
202 367
202 368
202 369
202 371
202 372
202 373
202 374
202 375
202 376
202 377
202 378
202 379
202 380
202 381
202 382
202 383
202 384
202 386
202 387
202 388
202 389
202 390
202 391
202 392
202 393
202 394
202 395
202 396
202 397
202 398
202 399
202 401
202 402
202 403
202 404
202 405
202 406
202 407
202 408
202 409
202 410
202 411
202 413
202 416
202 417
202 418
202 419
202 420
202 421
202 422
202 423
202 425
202 426
202 427
202 429
202 430
202 431
202 432
202 433
202 434
202 436
202 437
202 438
202 439
202 440
202 441
202 442
202 443
202 445
202 446
202 449
202 450
202 451
202 453
202 454
202 455
202 456
202 458
202 459
202 460
202 461
202 462
202 463
202 464
202 465
202 466
202 468
202 469
202 472
202 473
202 474
202 476
202 477
202 478
202 479
202 480
202 481
202 482
202 483
202 484
202 486
202 487
202 488
202 489
202 490
202 491
202 492
202 493
202 494
202 495
202 496
202 497
202 498
202 500
202 501
202 502
202 503
202 504
202 505
202 506
202 507
202 508
202 509
202 510
202 511
202 512
202 513
202 514
202 515
202 516
202 517
202 518
202 519
202 521
202 522
202 523
202 524
202 525
202 526
202 527
202 528
202 531
202 532
202 533
202 534
202 535
202 536
202 537
202 539
202 540
202 541
202 542
202 543
202 544
202 545
202 546
202 547
202 548
202 549
202 550
202 551
202 552
202 554
202 555
202 556
202 557
202 558
202 559
202 560
202 561
202 562
202 563
202 564
202 565
202 566
202 567
202 568
202 569
202 570
202 571
202 572
202 573
202 577
202 579
202 580
202 581
202 583
202 584
202 585
202 586
202 587
202 588
202 589
202 590
202 591
202 592
202 593
202 594
202 595
202 596
202 598
203 204
203 205
203 206
203 213
203 215
203 217
203 218
203 219
203 220
203 221
203 222
203 223
203 224
203 225
203 228
203 230
203 234
203 236
203 238
203 240
203 241
203 242
203 243
203 244
203 245
203 246
203 247
203 248
203 249
203 251
203 252
203 253
203 254
203 255
203 256
203 257
203 258
203 259
203 267
203 276
203 280
203 282
203 284
203 285
203 286
203 287
203 288
203 289
203 290
203 291
203 292
203 294
203 297
203 303
203 307
203 312
203 313
203 314
203 321
203 323
203 326
203 327
203 332
203 336
203 337
203 344
203 346
203 350
203 355
203 356
203 357
203 358
203 359
203 360
203 361
203 362
203 363
203 364
203 365
203 366
203 367
203 368
203 369
203 370
203 372
203 373
203 374
203 375
203 378
203 383
203 385
203 388
203 390
203 393
203 396
203 397
203 400
203 402
203 403
203 404
203 405
203 406
203 407
203 408
203 409
203 410
203 411
203 412
203 416
203 417
203 418
203 419
203 420
203 421
203 422
203 423
203 424
203 428
203 435
203 438
203 444
203 452
203 453
203 457
203 463
203 464
203 466
203 467
203 468
203 470
203 473
203 474
203 475
203 476
203 477
203 478
203 479
203 480
203 481
203 482
203 483
203 484
203 485
203 487
203 489
203 492
203 499
203 509
203 512
203 520
203 528
203 538
203 541
203 544
203 552
203 553
203 558
203 561
203 566
203 569
203 572
203 574
203 577
203 578
203 579
203 582
203 597
204 205
204 206
204 213
204 215
204 218
204 219
204 220
204 221
204 222
204 223
204 224
204 225
204 226
204 228
204 230
204 234
204 236
204 238
204 240
204 242
204 243
204 244
204 245
204 246
204 247
204 248
204 249
204 250
204 252
204 253
204 254
204 255
204 256
204 257
204 258
204 259
204 260
204 267
204 276
204 280
204 282
204 285
204 286
204 287
204 288
204 289
204 290
204 291
204 292
204 293
204 294
204 297
204 303
204 307
204 312
204 313
204 314
204 321
204 323
204 326
204 327
204 332
204 336
204 337
204 344
204 346
204 350
204 356
204 357
204 358
204 359
204 360
204 361
204 362
204 363
204 364
204 367
204 368
204 369
204 370
204 371
204 372
204 373
204 374
204 375
204 378
204 383
204 385
204 388
204 390
204 393
204 396
204 397
204 400
204 402
204 403
204 405
204 406
204 407
204 408
204 409
204 410
204 411
204 412
204 413
204 417
204 418
204 419
204 420
204 421
204 422
204 423
204 424
204 425
204 428
204 435
204 438
204 444
204 452
204 453
204 457
204 463
204 464
204 466
204 467
204 468
204 470
204 473
204 474
204 475
204 476
204 478
204 479
204 480
204 481
204 482
204 483
204 484
204 485
204 486
204 487
204 489
204 492
204 499
204 509
204 512
204 520
204 528
204 538
204 539
204 540
204 541
204 542
204 543
204 544
204 545
204 546
204 547
204 548
204 549
204 550
204 551
204 552
204 553
204 554
204 555
204 556
204 557
204 559
204 560
204 561
204 562
204 563
204 566
204 569
204 572
204 574
204 577
204 578
204 579
204 582
204 597
205 206
205 213
205 215
205 218
205 219
205 220
205 221
205 222
205 223
205 224
205 225
205 226
205 228
205 230
205 234
205 236
205 238
205 240
205 242
205 243
205 244
205 245
205 246
205 247
205 248
205 249
205 250
205 252
205 253
205 254
205 255
205 256
205 257
205 258
205 259
205 260
205 267
205 276
205 280
205 282
205 285
205 286
205 287
205 288
205 289
205 290
205 291
205 292
205 293
205 294
205 297
205 303
205 307
205 312
205 313
205 314
205 321
205 323
205 326
205 327
205 332
205 336
205 337
205 344
205 346
205 350
205 355
205 356
205 357
205 358
205 359
205 360
205 361
205 362
205 363
205 364
205 365
205 366
205 367
205 368
205 369
205 370
205 371
205 373
205 374
205 375
205 378
205 383
205 385
205 386
205 387
205 388
205 389
205 390
205 391
205 392
205 393
205 394
205 395
205 396
205 397
205 398
205 399
205 400
205 401
205 403
205 405
205 406
205 407
205 408
205 409
205 410
205 411
205 412
205 413
205 417
205 418
205 419
205 420
205 421
205 422
205 423
205 424
205 425
205 428
205 435
205 438
205 444
205 452
205 453
205 457
205 463
205 464
205 466
205 467
205 468
205 470
205 473
205 474
205 475
205 476
205 478
205 479
205 480
205 481
205 482
205 483
205 484
205 485
205 486
205 487
205 489
205 492
205 499
205 509
205 512
205 520
205 528
205 538
205 539
205 540
205 541
205 542
205 543
205 544
205 545
205 546
205 547
205 548
205 549
205 550
205 551
205 552
205 553
205 554
205 555
205 556
205 557
205 558
205 559
205 560
205 562
205 563
205 566
205 569
205 572
205 574
205 577
205 578
205 579
205 582
205 597
206 213
206 215
206 218
206 219
206 220
206 221
206 222
206 223
206 224
206 225
206 226
206 228
206 230
206 234
206 236
206 238
206 240
206 242
206 243
206 244
206 245
206 246
206 247
206 248
206 249
206 250
206 252
206 253
206 254
206 255
206 256
206 257
206 258
206 259
206 260
206 267
206 276
206 280
206 282
206 285
206 286
206 287
206 288
206 289
206 290
206 291
206 292
206 293
206 294
206 297
206 303
206 307
206 312
206 313
206 314
206 321
206 323
206 326
206 327
206 332
206 336
206 337
206 344
206 346
206 350
206 355
206 356
206 357
206 358
206 359
206 360
206 361
206 362
206 363
206 364
206 365
206 366
206 367
206 368
206 369
206 370
206 371
206 372
206 374
206 378
206 383
206 385
206 386
206 387
206 388
206 389
206 390
206 391
206 392
206 393
206 394
206 395
206 396
206 397
206 398
206 399
206 400
206 401
206 402
206 405
206 406
206 407
206 408
206 409
206 410
206 411
206 412
206 413
206 417
206 418
206 419
206 420
206 421
206 422
206 423
206 424
206 425
206 428
206 435
206 438
206 444
206 452
206 453
206 457
206 463
206 464
206 466
206 467
206 468
206 470
206 472
206 473
206 474
206 475
206 478
206 479
206 480
206 481
206 482
206 483
206 484
206 485
206 486
206 487
206 489
206 492
206 499
206 509
206 512
206 520
206 528
206 538
206 541
206 544
206 552
206 553
206 558
206 561
206 566
206 569
206 572
206 574
206 577
206 578
206 579
206 582
206 597
207 208
207 209
207 210
207 211
207 212
207 213
207 214
207 215
207 225
207 236
207 240
207 249
207 259
207 261
207 263
207 264
207 265
207 266
207 267
207 268
207 292
207 297
207 307
207 314
207 315
207 317
207 318
207 319
207 320
207 321
207 322
207 326
207 332
207 337
207 338
207 340
207 341
207 342
207 343
207 344
207 345
207 350
207 370
207 385
207 400
207 412
207 424
207 427
207 428
207 429
207 431
207 432
207 433
207 434
207 435
207 436
207 444
207 452
207 457
207 467
207 470
207 475
207 485
207 499
207 520
207 531
207 533
207 534
207 535
207 536
207 537
207 538
207 553
207 574
207 578
207 582
207 590
207 591
207 592
207 595
207 596
207 597
207 598
208 209
208 210
208 211
208 212
208 213
208 214
208 215
208 225
208 236
208 240
208 249
208 259
208 262
208 263
208 264
208 265
208 266
208 267
208 268
208 269
208 292
208 297
208 307
208 314
208 315
208 316
208 318
208 319
208 320
208 321
208 322
208 326
208 332
208 337
208 338
208 339
208 341
208 342
208 343
208 344
208 345
208 350
208 370
208 385
208 400
208 412
208 424
208 426
208 427
208 428
208 429
208 430
208 432
208 433
208 434
208 435
208 436
208 444
208 452
208 457
208 467
208 470
208 475
208 485
208 499
208 520
208 531
208 532
208 534
208 535
208 536
208 537
208 538
208 553
208 574
208 578
208 582
208 589
208 591
208 592
208 593
208 594
208 595
208 596
208 597
208 598
209 210
209 211
209 212
209 213
209 214
209 215
209 225
209 236
209 240
209 249
209 259
209 261
209 262
209 264
209 265
209 266
209 267
209 268
209 269
209 292
209 297
209 307
209 314
209 315
209 316
209 317
209 319
209 320
209 321
209 322
209 326
209 332
209 337
209 339
209 340
209 341
209 342
209 343
209 344
209 345
209 350
209 370
209 385
209 400
209 412
209 424
209 426
209 427
209 428
209 429
209 430
209 431
209 433
209 434
209 435
209 436
209 444
209 452
209 457
209 467
209 470
209 475
209 485
209 499
209 520
209 531
209 532
209 533
209 535
209 536
209 537
209 538
209 553
209 574
209 578
209 582
209 589
209 590
209 592
209 593
209 594
209 595
209 596
209 597
209 598
210 211
210 212
210 213
210 214
210 215
210 225
210 236
210 240
210 249
210 259
210 261
210 262
210 263
210 265
210 266
210 267
210 268
210 269
210 292
210 297
210 307
210 314
210 315
210 316
210 317
210 318
210 320
210 321
210 322
210 326
210 332
210 337
210 338
210 339
210 340
210 342
210 343
210 344
210 345
210 350
210 370
210 385
210 400
210 412
210 424
210 426
210 428
210 429
210 430
210 431
210 432
210 434
210 435
210 436
210 444
210 452
210 457
210 467
210 470
210 475
210 485
210 499
210 520
210 531
210 532
210 533
210 534
210 536
210 537
210 538
210 553
210 574
210 578
210 582
210 589
210 590
210 591
210 593
210 594
210 595
210 596
210 597
210 598
211 212
211 213
211 214
211 215
211 225
211 236
211 240
211 249
211 259
211 261
211 262
211 263
211 264
211 266
211 267
211 268
211 269
211 292
211 297
211 307
211 314
211 316
211 317
211 318
211 319
211 320
211 321
211 322
211 326
211 332
211 337
211 338
211 339
211 340
211 341
211 343
211 344
211 345
211 350
211 370
211 385
211 400
211 412
211 424
211 426
211 427
211 428
211 429
211 430
211 431
211 432
211 433
211 435
211 436
211 444
211 452
211 457
211 467
211 470
211 475
211 485
211 499
211 520
211 531
211 532
211 533
211 534
211 535
211 537
211 538
211 553
211 574
211 578
211 582
211 589
211 590
211 591
211 592
211 593
211 594
211 596
211 597
211 598
212 213
212 214
212 215
212 225
212 236
212 240
212 249
212 259
212 261
212 262
212 263
212 264
212 265
212 267
212 268
212 269
212 292
212 297
212 307
212 314
212 315
212 316
212 317
212 318
212 319
212 321
212 322
212 326
212 332
212 337
212 338
212 339
212 340
212 341
212 342
212 344
212 345
212 350
212 370
212 385
212 400
212 412
212 424
212 426
212 427
212 428
212 430
212 431
212 432
212 433
212 434
212 435
212 436
212 444
212 452
212 457
212 467
212 470
212 475
212 485
212 499
212 520
212 531
212 532
212 533
212 534
212 535
212 536
212 538
212 553
212 574
212 578
212 582
212 589
212 590
212 591
212 592
212 593
212 594
212 595
212 597
212 598
213 214
213 216
213 217
213 218
213 219
213 220
213 221
213 222
213 223
213 224
213 226
213 227
213 228
213 229
213 230
213 231
213 232
213 233
213 234
213 235
213 237
213 238
213 239
213 241
213 242
213 243
213 244
213 245
213 246
213 247
213 248
213 250
213 251
213 252
213 253
213 254
213 255
213 256
213 257
213 258
213 260
213 261
213 262
213 263
213 264
213 265
213 266
213 268
213 269
213 284
213 285
213 286
213 287
213 288
213 289
213 290
213 291
213 293
213 294
213 295
213 296
213 298
213 299
213 300
213 301
213 302
213 303
213 304
213 305
213 306
213 308
213 309
213 310
213 311
213 312
213 313
213 315
213 316
213 317
213 318
213 319
213 320
213 322
213 323
213 324
213 325
213 327
213 328
213 329
213 330
213 331
213 333
213 334
213 335
213 336
213 338
213 339
213 340
213 341
213 342
213 343
213 345
213 346
213 347
213 348
213 349
213 351
213 352
213 353
213 354
213 355
213 356
213 357
213 358
213 359
213 360
213 361
213 362
213 363
213 364
213 365
213 366
213 367
213 368
213 369
213 371
213 372
213 373
213 376
213 377
213 378
213 379
213 380
213 381
213 382
213 383
213 384
213 386
213 387
213 388
213 389
213 390
213 391
213 392
213 393
213 394
213 395
213 396
213 397
213 398
213 399
213 401
213 402
213 403
213 404
213 405
213 406
213 407
213 408
213 409
213 410
213 411
213 413
213 416
213 417
213 418
213 419
213 420
213 421
213 422
213 423
213 425
213 426
213 427
213 429
213 430
213 431
213 432
213 433
213 434
213 436
213 437
213 438
213 439
213 440
213 441
213 442
213 443
213 445
213 446
213 449
213 450
213 451
213 453
213 454
213 455
213 456
213 458
213 459
213 460
213 461
213 462
213 463
213 464
213 465
213 466
213 468
213 469
213 472
213 473
213 474
213 476
213 477
213 478
213 479
213 480
213 481
213 482
213 483
213 484
213 486
213 488
213 489
213 490
213 491
213 492
213 493
213 494
213 495
213 496
213 497
213 498
213 500
213 501
213 502
213 503
213 504
213 505
213 506
213 507
213 508
213 509
213 510
213 511
213 512
213 513
213 514
213 515
213 516
213 517
213 518
213 519
213 521
213 522
213 523
213 524
213 525
213 526
213 527
213 531
213 532
213 533
213 534
213 535
213 536
213 537
213 539
213 540
213 541
213 542
213 543
213 544
213 545
213 546
213 547
213 548
213 549
213 550
213 551
213 552
213 554
213 555
213 556
213 557
213 558
213 559
213 560
213 561
213 562
213 563
213 564
213 565
213 566
213 567
213 568
213 569
213 570
213 571
213 572
213 573
213 579
213 580
213 581
213 583
213 584
213 585
213 586
213 587
213 588
213 589
213 590
213 591
213 592
213 593
213 594
213 595
213 596
213 598
214 215
214 225
214 236
214 240
214 249
214 259
214 261
214 262
214 263
214 264
214 265
214 266
214 267
214 269
214 292
214 297
214 307
214 314
214 315
214 316
214 317
214 318
214 319
214 320
214 321
214 326
214 332
214 337
214 338
214 339
214 340
214 341
214 342
214 343
214 344
214 350
214 370
214 385
214 400
214 412
214 424
214 426
214 427
214 428
214 429
214 430
214 431
214 432
214 433
214 434
214 435
214 444
214 452
214 457
214 467
214 470
214 475
214 485
214 499
214 520
214 532
214 533
214 534
214 535
214 536
214 537
214 538
214 553
214 574
214 578
214 582
214 589
214 590
214 591
214 592
214 593
214 594
214 595
214 596
214 597
215 216
215 217
215 218
215 219
215 220
215 221
215 222
215 223
215 224
215 226
215 227
215 228
215 229
215 230
215 231
215 232
215 233
215 234
215 235
215 237
215 238
215 239
215 241
215 242
215 243
215 244
215 245
215 246
215 247
215 248
215 250
215 251
215 252
215 253
215 254
215 255
215 256
215 257
215 258
215 260
215 261
215 262
215 263
215 264
215 265
215 266
215 268
215 284
215 285
215 286
215 287
215 288
215 289
215 290
215 291
215 293
215 294
215 295
215 296
215 298
215 299
215 300
215 301
215 302
215 303
215 304
215 305
215 306
215 308
215 309
215 310
215 311
215 312
215 313
215 315
215 316
215 317
215 318
215 319
215 320
215 322
215 323
215 324
215 325
215 327
215 328
215 329
215 330
215 331
215 333
215 334
215 335
215 336
215 338
215 339
215 340
215 341
215 342
215 343
215 345
215 346
215 347
215 348
215 349
215 351
215 352
215 353
215 354
215 355
215 356
215 357
215 358
215 359
215 360
215 361
215 362
215 363
215 364
215 365
215 366
215 367
215 368
215 369
215 371
215 372
215 373
215 376
215 377
215 378
215 379
215 380
215 381
215 382
215 383
215 384
215 386
215 387
215 388
215 389
215 390
215 391
215 392
215 393
215 394
215 395
215 396
215 397
215 398
215 399
215 401
215 402
215 403
215 404
215 405
215 406
215 407
215 408
215 409
215 410
215 411
215 413
215 416
215 417
215 418
215 419
215 420
215 421
215 422
215 423
215 425
215 426
215 427
215 429
215 430
215 431
215 432
215 433
215 434
215 436
215 437
215 438
215 439
215 440
215 441
215 442
215 443
215 445
215 446
215 449
215 450
215 451
215 453
215 454
215 455
215 456
215 458
215 459
215 460
215 461
215 462
215 463
215 464
215 465
215 466
215 468
215 469
215 472
215 473
215 474
215 476
215 477
215 478
215 479
215 480
215 481
215 482
215 483
215 484
215 486
215 488
215 489
215 490
215 491
215 492
215 493
215 494
215 495
215 496
215 497
215 498
215 500
215 501
215 502
215 503
215 504
215 505
215 506
215 507
215 508
215 509
215 510
215 511
215 512
215 513
215 514
215 515
215 516
215 517
215 518
215 519
215 521
215 522
215 523
215 524
215 525
215 526
215 527
215 531
215 532
215 533
215 534
215 535
215 536
215 537
215 539
215 540
215 541
215 542
215 543
215 544
215 545
215 546
215 547
215 548
215 549
215 550
215 551
215 552
215 554
215 555
215 556
215 557
215 558
215 559
215 560
215 561
215 562
215 563
215 564
215 565
215 566
215 567
215 568
215 569
215 570
215 571
215 572
215 573
215 579
215 580
215 581
215 583
215 584
215 585
215 586
215 587
215 588
215 589
215 590
215 591
215 592
215 593
215 594
215 595
215 596
215 598
216 225
216 236
216 240
216 249
216 259
216 267
216 292
216 297
216 307
216 314
216 321
216 326
216 332
216 337
216 344
216 350
216 370
216 385
216 400
216 412
216 424
216 428
216 435
216 444
216 452
216 457
216 467
216 470
216 475
216 485
216 499
216 520
216 538
216 553
216 574
216 578
216 582
216 597
217 218
217 219
217 220
217 221
217 222
217 223
217 224
217 225
217 226
217 236
217 240
217 242
217 243
217 244
217 245
217 246
217 247
217 248
217 249
217 250
217 252
217 253
217 254
217 255
217 256
217 257
217 258
217 259
217 260
217 267
217 285
217 286
217 287
217 288
217 289
217 290
217 291
217 292
217 293
217 297
217 307
217 314
217 321
217 326
217 332
217 337
217 344
217 350
217 356
217 357
217 358
217 359
217 360
217 361
217 362
217 363
217 364
217 365
217 366
217 367
217 368
217 369
217 370
217 371
217 372
217 373
217 374
217 385
217 387
217 388
217 389
217 390
217 391
217 392
217 393
217 394
217 395
217 396
217 397
217 398
217 399
217 400
217 401
217 402
217 403
217 405
217 406
217 407
217 408
217 409
217 410
217 411
217 412
217 413
217 417
217 418
217 419
217 420
217 421
217 422
217 423
217 424
217 425
217 428
217 435
217 444
217 452
217 457
217 463
217 464
217 465
217 466
217 467
217 470
217 473
217 474
217 475
217 476
217 478
217 479
217 480
217 481
217 482
217 483
217 484
217 485
217 486
217 499
217 520
217 538
217 540
217 541
217 542
217 543
217 544
217 545
217 546
217 547
217 548
217 549
217 550
217 551
217 552
217 553
217 554
217 555
217 556
217 557
217 558
217 559
217 560
217 561
217 562
217 563
217 565
217 566
217 567
217 568
217 569
217 570
217 571
217 572
217 573
217 574
217 577
217 578
217 582
217 597
218 219
218 220
218 221
218 222
218 223
218 224
218 225
218 226
218 236
218 240
218 241
218 242
218 243
218 244
218 246
218 247
218 248
218 249
218 250
218 251
218 253
218 254
218 255
218 256
218 257
218 258
218 259
218 260
218 267
218 284
218 286
218 287
218 288
218 289
218 290
218 291
218 292
218 293
218 297
218 307
218 314
218 321
218 326
218 332
218 337
218 344
218 350
218 355
218 356
218 358
218 359
218 360
218 361
218 362
218 363
218 364
218 365
218 366
218 367
218 368
218 369
218 370
218 371
218 372
218 373
218 374
218 385
218 386
218 397
218 400
218 404
218 406
218 407
218 408
218 409
218 410
218 411
218 412
218 413
218 416
218 418
218 419
218 420
218 421
218 422
218 423
218 424
218 425
218 428
218 435
218 444
218 452
218 457
218 462
218 466
218 467
218 470
218 472
218 474
218 475
218 477
218 479
218 480
218 481
218 482
218 483
218 484
218 485
218 486
218 499
218 520
218 538
218 539
218 552
218 553
218 564
218 572
218 574
218 577
218 578
218 582
218 597
219 220
219 221
219 222
219 223
219 224
219 225
219 226
219 236
219 240
219 241
219 243
219 244
219 245
219 246
219 247
219 248
219 249
219 250
219 251
219 252
219 254
219 255
219 256
219 257
219 258
219 259
219 260
219 267
219 284
219 285
219 287
219 288
219 289
219 290
219 291
219 292
219 293
219 297
219 307
219 314
219 321
219 326
219 332
219 337
219 344
219 350
219 355
219 356
219 357
219 358
219 359
219 361
219 362
219 363
219 364
219 365
219 366
219 367
219 368
219 369
219 370
219 371
219 372
219 373
219 374
219 385
219 386
219 397
219 400
219 404
219 405
219 407
219 408
219 409
219 410
219 411
219 412
219 413
219 416
219 417
219 419
219 420
219 421
219 422
219 423
219 424
219 425
219 428
219 435
219 444
219 452
219 457
219 462
219 466
219 467
219 470
219 472
219 474
219 475
219 477
219 478
219 479
219 480
219 482
219 483
219 484
219 485
219 486
219 499
219 520
219 538
219 539
219 552
219 553
219 564
219 572
219 574
219 577
219 578
219 582
219 597
220 221
220 222
220 223
220 224
220 225
220 226
220 236
220 240
220 241
220 242
220 244
220 245
220 246
220 247
220 248
220 249
220 250
220 251
220 252
220 253
220 255
220 256
220 257
220 258
220 259
220 260
220 267
220 284
220 285
220 286
220 288
220 289
220 290
220 291
220 292
220 293
220 297
220 307
220 314
220 321
220 326
220 332
220 337
220 344
220 350
220 355
220 356
220 357
220 358
220 359
220 360
220 362
220 363
220 364
220 365
220 366
220 367
220 368
220 369
220 370
220 371
220 372
220 373
220 374
220 385
220 386
220 397
220 400
220 404
220 405
220 406
220 407
220 409
220 410
220 411
220 412
220 413
220 416
220 417
220 418
220 420
220 421
220 422
220 423
220 424
220 425
220 428
220 435
220 444
220 452
220 457
220 462
220 466
220 467
220 470
220 472
220 474
220 475
220 477
220 478
220 480
220 481
220 482
220 483
220 484
220 485
220 486
220 499
220 520
220 538
220 539
220 552
220 553
220 564
220 572
220 574
220 577
220 578
220 582
220 597
221 222
221 223
221 224
221 225
221 226
221 236
221 240
221 241
221 242
221 243
221 245
221 246
221 247
221 248
221 249
221 250
221 251
221 252
221 253
221 254
221 256
221 257
221 258
221 259
221 260
221 267
221 284
221 285
221 286
221 287
221 289
221 290
221 291
221 292
221 293
221 297
221 307
221 314
221 321
221 326
221 332
221 337
221 344
221 350
221 355
221 356
221 357
221 358
221 359
221 360
221 361
221 362
221 364
221 365
221 366
221 367
221 368
221 369
221 370
221 371
221 372
221 373
221 374
221 385
221 386
221 397
221 400
221 404
221 405
221 406
221 408
221 409
221 410
221 411
221 412
221 413
221 416
221 417
221 418
221 419
221 421
221 422
221 423
221 424
221 425
221 428
221 435
221 444
221 452
221 457
221 462
221 466
221 467
221 470
221 472
221 474
221 475
221 477
221 478
221 479
221 481
221 482
221 483
221 484
221 485
221 486
221 499
221 520
221 538
221 539
221 552
221 553
221 564
221 572
221 574
221 577
221 578
221 582
221 597
222 223
222 224
222 225
222 226
222 236
222 240
222 241
222 242
222 243
222 244
222 245
222 247
222 248
222 249
222 250
222 251
222 252
222 253
222 254
222 255
222 257
222 258
222 259
222 260
222 267
222 284
222 285
222 286
222 287
222 288
222 289
222 291
222 292
222 293
222 297
222 307
222 314
222 321
222 326
222 332
222 337
222 344
222 350
222 355
222 356
222 357
222 358
222 359
222 360
222 361
222 362
222 363
222 364
222 365
222 366
222 368
222 369
222 370
222 371
222 372
222 373
222 374
222 385
222 386
222 397
222 400
222 404
222 405
222 406
222 407
222 408
222 410
222 411
222 412
222 413
222 416
222 417
222 418
222 419
222 420
222 422
222 423
222 424
222 425
222 428
222 435
222 444
222 452
222 457
222 462
222 466
222 467
222 470
222 472
222 474
222 475
222 477
222 478
222 479
222 480
222 481
222 483
222 484
222 485
222 486
222 499
222 520
222 538
222 539
222 552
222 553
222 564
222 572
222 574
222 577
222 578
222 582
222 597
223 224
223 225
223 226
223 236
223 240
223 241
223 242
223 243
223 244
223 245
223 246
223 248
223 249
223 250
223 251
223 252
223 253
223 254
223 255
223 256
223 258
223 259
223 260
223 267
223 284
223 285
223 286
223 287
223 288
223 289
223 290
223 292
223 293
223 297
223 307
223 314
223 321
223 326
223 332
223 337
223 344
223 350
223 355
223 357
223 360
223 361
223 363
223 367
223 369
223 370
223 371
223 375
223 385
223 386
223 387
223 388
223 389
223 390
223 391
223 392
223 393
223 394
223 395
223 396
223 398
223 399
223 400
223 401
223 402
223 403
223 404
223 405
223 406
223 407
223 408
223 409
223 411
223 412
223 413
223 416
223 417
223 418
223 419
223 420
223 421
223 423
223 424
223 425
223 428
223 435
223 444
223 452
223 457
223 462
223 463
223 464
223 465
223 467
223 470
223 472
223 473
223 475
223 476
223 477
223 478
223 479
223 480
223 481
223 482
223 484
223 485
223 486
223 499
223 520
223 538
223 539
223 540
223 541
223 542
223 543
223 544
223 545
223 546
223 547
223 548
223 549
223 550
223 551
223 553
223 554
223 555
223 556
223 557
223 558
223 559
223 560
223 561
223 562
223 563
223 564
223 565
223 566
223 567
223 568
223 569
223 570
223 571
223 573
223 574
223 578
223 582
223 597
224 225
224 226
224 236
224 240
224 241
224 242
224 243
224 244
224 245
224 246
224 247
224 249
224 250
224 251
224 252
224 253
224 254
224 255
224 256
224 257
224 259
224 260
224 267
224 284
224 285
224 286
224 287
224 288
224 290
224 291
224 292
224 293
224 297
224 307
224 314
224 321
224 326
224 332
224 337
224 344
224 350
224 355
224 356
224 357
224 358
224 359
224 360
224 361
224 362
224 363
224 364
224 365
224 366
224 367
224 368
224 370
224 371
224 372
224 373
224 374
224 385
224 386
224 397
224 400
224 404
224 405
224 406
224 407
224 408
224 409
224 410
224 412
224 413
224 416
224 417
224 418
224 419
224 420
224 421
224 422
224 424
224 425
224 428
224 435
224 444
224 452
224 457
224 462
224 466
224 467
224 470
224 472
224 474
224 475
224 477
224 478
224 479
224 480
224 481
224 482
224 483
224 485
224 486
224 499
224 520
224 538
224 539
224 552
224 553
224 564
224 572
224 574
224 577
224 578
224 582
224 597
225 226
225 227
225 228
225 229
225 230
225 231
225 232
225 233
225 234
225 235
225 237
225 238
225 239
225 241
225 242
225 243
225 244
225 245
225 246
225 247
225 248
225 250
225 251
225 252
225 253
225 254
225 255
225 256
225 257
225 258
225 260
225 261
225 262
225 263
225 264
225 265
225 266
225 268
225 284
225 285
225 286
225 287
225 288
225 289
225 290
225 291
225 293
225 294
225 295
225 296
225 298
225 299
225 300
225 301
225 302
225 303
225 304
225 305
225 306
225 308
225 309
225 310
225 311
225 312
225 313
225 315
225 316
225 317
225 318
225 319
225 320
225 322
225 323
225 324
225 325
225 327
225 328
225 329
225 330
225 331
225 333
225 334
225 335
225 336
225 338
225 339
225 340
225 341
225 342
225 343
225 345
225 346
225 347
225 348
225 349
225 351
225 352
225 353
225 354
225 355
225 356
225 357
225 358
225 359
225 360
225 361
225 362
225 363
225 364
225 365
225 366
225 367
225 368
225 369
225 371
225 372
225 373
225 374
225 376
225 377
225 378
225 379
225 380
225 381
225 382
225 383
225 384
225 386
225 387
225 388
225 389
225 390
225 391
225 392
225 393
225 394
225 395
225 396
225 397
225 398
225 399
225 401
225 402
225 403
225 404
225 405
225 406
225 407
225 408
225 409
225 410
225 411
225 413
225 416
225 417
225 418
225 419
225 420
225 421
225 422
225 423
225 425
225 426
225 427
225 429
225 430
225 431
225 432
225 433
225 434
225 436
225 437
225 438
225 439
225 440
225 441
225 442
225 443
225 445
225 446
225 449
225 450
225 451
225 453
225 454
225 455
225 456
225 458
225 459
225 460
225 461
225 462
225 463
225 464
225 465
225 466
225 468
225 469
225 472
225 473
225 474
225 476
225 477
225 478
225 479
225 480
225 481
225 482
225 483
225 484
225 486
225 488
225 489
225 490
225 491
225 492
225 493
225 494
225 495
225 496
225 497
225 498
225 500
225 501
225 502
225 503
225 504
225 505
225 506
225 507
225 508
225 509
225 510
225 511
225 512
225 513
225 514
225 515
225 516
225 517
225 518
225 519
225 521
225 522
225 523
225 524
225 525
225 526
225 527
225 531
225 532
225 533
225 534
225 535
225 536
225 537
225 539
225 540
225 541
225 542
225 543
225 544
225 545
225 546
225 547
225 548
225 549
225 550
225 551
225 552
225 554
225 555
225 556
225 557
225 558
225 559
225 560
225 561
225 562
225 563
225 564
225 565
225 566
225 567
225 568
225 569
225 570
225 571
225 572
225 573
225 577
225 579
225 580
225 581
225 583
225 584
225 585
225 586
225 587
225 588
225 589
225 590
225 591
225 592
225 593
225 594
225 595
225 596
225 598
226 236
226 240
226 241
226 242
226 243
226 244
226 245
226 246
226 247
226 248
226 249
226 251
226 252
226 253
226 254
226 255
226 256
226 257
226 258
226 259
226 267
226 284
226 285
226 286
226 287
226 288
226 289
226 290
226 291
226 292
226 297
226 307
226 314
226 321
226 326
226 332
226 337
226 344
226 350
226 355
226 356
226 357
226 358
226 359
226 360
226 361
226 362
226 363
226 364
226 365
226 366
226 367
226 368
226 369
226 370
226 372
226 373
226 374
226 385
226 386
226 397
226 400
226 404
226 405
226 406
226 407
226 408
226 409
226 410
226 411
226 412
226 416
226 417
226 418
226 419
226 420
226 421
226 422
226 423
226 424
226 428
226 435
226 444
226 452
226 457
226 462
226 466
226 467
226 470
226 472
226 474
226 475
226 477
226 478
226 479
226 480
226 481
226 482
226 483
226 484
226 485
226 499
226 520
226 538
226 539
226 552
226 553
226 564
226 572
226 574
226 577
226 578
226 582
226 597
227 228
227 229
227 230
227 231
227 232
227 233
227 234
227 235
227 236
227 238
227 239
227 240
227 249
227 259
227 267
227 276
227 277
227 278
227 279
227 280
227 281
227 292
227 297
227 307
227 312
227 313
227 314
227 321
227 323
227 324
227 326
227 332
227 336
227 337
227 344
227 350
227 358
227 362
227 368
227 370
227 376
227 378
227 379
227 380
227 381
227 382
227 383
227 384
227 385
227 386
227 387
227 388
227 390
227 391
227 392
227 393
227 394
227 395
227 396
227 397
227 398
227 399
227 400
227 401
227 402
227 403
227 412
227 424
227 428
227 435
227 444
227 450
227 452
227 457
227 463
227 467
227 468
227 469
227 470
227 473
227 475
227 485
227 487
227 492
227 499
227 512
227 520
227 538
227 541
227 544
227 553
227 564
227 566
227 567
227 568
227 569
227 570
227 571
227 572
227 573
227 574
227 578
227 582
227 597
228 229
228 230
228 231
228 232
228 233
228 234
228 235
228 236
228 237
228 239
228 240
228 249
228 259
228 267
228 275
228 277
228 278
228 279
228 280
228 281
228 292
228 297
228 307
228 313
228 314
228 321
228 324
228 325
228 326
228 332
228 336
228 337
228 344
228 350
228 355
228 356
228 357
228 359
228 360
228 361
228 362
228 363
228 364
228 365
228 366
228 367
228 368
228 369
228 370
228 371
228 372
228 373
228 376
228 377
228 379
228 380
228 381
228 382
228 383
228 384
228 385
228 389
228 391
228 393
228 394
228 395
228 396
228 398
228 400
228 412
228 424
228 428
228 435
228 444
228 450
228 452
228 457
228 462
228 464
228 465
228 466
228 467
228 468
228 469
228 470
228 472
228 474
228 475
228 476
228 485
228 487
228 492
228 499
228 512
228 520
228 538
228 539
228 540
228 542
228 543
228 544
228 545
228 546
228 547
228 548
228 549
228 550
228 551
228 552
228 553
228 554
228 555
228 556
228 557
228 558
228 559
228 560
228 561
228 562
228 563
228 564
228 565
228 567
228 568
228 569
228 570
228 571
228 572
228 573
228 574
228 578
228 582
228 597
229 230
229 231
229 232
229 233
229 234
229 235
229 236
229 238
229 239
229 240
229 249
229 259
229 267
229 275
229 276
229 278
229 279
229 280
229 281
229 292
229 297
229 307
229 312
229 313
229 314
229 321
229 323
229 324
229 326
229 332
229 336
229 337
229 344
229 350
229 358
229 362
229 368
229 370
229 376
229 377
229 378
229 380
229 381
229 382
229 383
229 384
229 385
229 386
229 387
229 388
229 389
229 390
229 392
229 393
229 394
229 395
229 396
229 397
229 398
229 399
229 400
229 401
229 402
229 403
229 412
229 424
229 428
229 435
229 444
229 450
229 452
229 457
229 463
229 467
229 468
229 469
229 470
229 473
229 475
229 485
229 487
229 492
229 499
229 512
229 520
229 538
229 541
229 544
229 553
229 564
229 565
229 566
229 568
229 569
229 570
229 571
229 572
229 573
229 574
229 578
229 582
229 597
230 231
230 232
230 233
230 234
230 235
230 236
230 238
230 239
230 240
230 249
230 259
230 267
230 275
230 276
230 277
230 279
230 280
230 281
230 292
230 297
230 307
230 312
230 314
230 321
230 323
230 324
230 326
230 332
230 337
230 344
230 350
230 355
230 356
230 357
230 358
230 359
230 360
230 361
230 363
230 364
230 365
230 366
230 367
230 368
230 369
230 370
230 371
230 372
230 373
230 377
230 378
230 379
230 381
230 382
230 383
230 385
230 386
230 387
230 388
230 389
230 390
230 391
230 392
230 394
230 395
230 396
230 397
230 398
230 399
230 400
230 401
230 402
230 403
230 412
230 424
230 428
230 435
230 444
230 450
230 452
230 457
230 463
230 467
230 469
230 470
230 473
230 475
230 485
230 488
230 489
230 490
230 491
230 493
230 494
230 495
230 496
230 497
230 498
230 499
230 500
230 501
230 502
230 503
230 504
230 505
230 506
230 507
230 508
230 509
230 510
230 511
230 513
230 514
230 515
230 516
230 517
230 518
230 519
230 520
230 521
230 522
230 523
230 524
230 525
230 526
230 527
230 538
230 539
230 540
230 541
230 542
230 543
230 545
230 546
230 547
230 548
230 549
230 550
230 551
230 552
230 553
230 554
230 555
230 556
230 557
230 558
230 559
230 560
230 561
230 562
230 563
230 564
230 565
230 566
230 567
230 568
230 570
230 571
230 572
230 573
230 574
230 578
230 582
230 597
231 232
231 233
231 234
231 235
231 236
231 238
231 239
231 240
231 249
231 259
231 267
231 275
231 276
231 277
231 279
231 280
231 281
231 292
231 297
231 307
231 312
231 313
231 314
231 321
231 323
231 324
231 326
231 332
231 336
231 337
231 344
231 350
231 358
231 362
231 368
231 370
231 377
231 378
231 379
231 381
231 382
231 383
231 385
231 389
231 391
231 393
231 394
231 395
231 396
231 398
231 400
231 412
231 424
231 428
231 435
231 444
231 450
231 452
231 457
231 463
231 467
231 468
231 470
231 473
231 475
231 485
231 487
231 492
231 499
231 512
231 520
231 538
231 541
231 544
231 553
231 565
231 566
231 567
231 569
231 570
231 571
231 573
231 574
231 578
231 582
231 597
232 233
232 234
232 235
232 236
232 238
232 239
232 240
232 249
232 259
232 267
232 275
232 276
232 277
232 278
232 280
232 281
232 292
232 297
232 307
232 312
232 313
232 314
232 321
232 323
232 324
232 326
232 332
232 336
232 337
232 344
232 350
232 358
232 362
232 368
232 370
232 376
232 377
232 378
232 379
232 380
232 382
232 383
232 384
232 385
232 386
232 387
232 388
232 389
232 390
232 391
232 392
232 393
232 395
232 396
232 397
232 398
232 399
232 400
232 401
232 402
232 403
232 412
232 424
232 428
232 435
232 444
232 449
232 451
232 452
232 457
232 463
232 467
232 468
232 469
232 470
232 473
232 475
232 485
232 487
232 492
232 499
232 512
232 520
232 538
232 541
232 544
232 553
232 564
232 565
232 566
232 567
232 568
232 569
232 571
232 572
232 573
232 574
232 578
232 582
232 597
233 234
233 235
233 236
233 238
233 239
233 240
233 249
233 259
233 267
233 275
233 276
233 277
233 279
233 280
233 281
233 292
233 297
233 307
233 312
233 313
233 314
233 321
233 323
233 324
233 326
233 332
233 336
233 337
233 344
233 350
233 358
233 362
233 368
233 370
233 376
233 377
233 378
233 379
233 380
233 381
233 383
233 384
233 385
233 386
233 387
233 388
233 389
233 390
233 391
233 392
233 393
233 394
233 396
233 397
233 398
233 399
233 400
233 401
233 402
233 403
233 412
233 424
233 428
233 435
233 444
233 450
233 452
233 457
233 463
233 467
233 468
233 469
233 470
233 473
233 475
233 485
233 487
233 492
233 499
233 512
233 520
233 538
233 541
233 544
233 553
233 564
233 565
233 566
233 567
233 568
233 569
233 570
233 572
233 573
233 574
233 578
233 582
233 597
234 235
234 236
234 238
234 239
234 240
234 249
234 259
234 267
234 275
234 276
234 277
234 278
234 279
234 281
234 292
234 297
234 307
234 312
234 313
234 314
234 321
234 323
234 324
234 326
234 332
234 336
234 337
234 344
234 350
234 355
234 356
234 357
234 358
234 359
234 360
234 361
234 362
234 363
234 364
234 365
234 366
234 367
234 369
234 370
234 371
234 372
234 373
234 376
234 377
234 378
234 379
234 380
234 381
234 382
234 384
234 385
234 386
234 387
234 388
234 389
234 390
234 391
234 392
234 393
234 394
234 395
234 397
234 398
234 399
234 400
234 401
234 402
234 403
234 412
234 424
234 428
234 435
234 444
234 450
234 452
234 457
234 463
234 467
234 468
234 469
234 470
234 473
234 475
234 485
234 487
234 492
234 499
234 512
234 520
234 538
234 541
234 544
234 553
234 565
234 566
234 567
234 569
234 570
234 571
234 573
234 574
234 578
234 582
234 597
235 236
235 237
235 238
235 240
235 249
235 259
235 267
235 275
235 276
235 277
235 278
235 279
235 280
235 292
235 297
235 307
235 312
235 313
235 314
235 321
235 323
235 325
235 326
235 332
235 336
235 337
235 344
235 350
235 358
235 362
235 368
235 370
235 377
235 378
235 379
235 381
235 382
235 383
235 385
235 386
235 387
235 388
235 389
235 390
235 391
235 392
235 393
235 394
235 395
235 396
235 397
235 399
235 400
235 401
235 402
235 403
235 412
235 424
235 428
235 435
235 444
235 450
235 452
235 457
235 463
235 467
235 468
235 469
235 470
235 473
235 475
235 485
235 487
235 492
235 499
235 512
235 520
235 538
235 541
235 544
235 553
235 564
235 565
235 566
235 567
235 568
235 569
235 570
235 571
235 572
235 574
235 578
235 582
235 597
236 237
236 238
236 239
236 241
236 242
236 243
236 244
236 245
236 246
236 247
236 248
236 250
236 251
236 252
236 253
236 254
236 255
236 256
236 257
236 258
236 260
236 261
236 262
236 263
236 264
236 265
236 266
236 268
236 275
236 276
236 277
236 279
236 280
236 281
236 284
236 285
236 286
236 287
236 288
236 289
236 290
236 291
236 293
236 294
236 295
236 296
236 298
236 299
236 300
236 301
236 302
236 303
236 304
236 305
236 306
236 308
236 309
236 310
236 311
236 312
236 313
236 315
236 316
236 317
236 318
236 319
236 320
236 322
236 323
236 324
236 325
236 327
236 328
236 329
236 330
236 331
236 333
236 334
236 335
236 336
236 338
236 339
236 340
236 341
236 342
236 343
236 345
236 346
236 347
236 348
236 349
236 351
236 352
236 353
236 354
236 355
236 356
236 357
236 358
236 359
236 360
236 361
236 362
236 363
236 364
236 365
236 366
236 367
236 368
236 369
236 371
236 372
236 373
236 376
236 377
236 378
236 379
236 380
236 381
236 382
236 383
236 384
236 386
236 387
236 388
236 389
236 390
236 391
236 392
236 393
236 394
236 395
236 396
236 397
236 398
236 399
236 401
236 402
236 403
236 404
236 405
236 406
236 407
236 408
236 409
236 410
236 411
236 413
236 416
236 417
236 418
236 419
236 420
236 421
236 422
236 423
236 425
236 426
236 427
236 429
236 430
236 431
236 432
236 433
236 434
236 436
236 437
236 438
236 439
236 440
236 441
236 442
236 443
236 445
236 446
236 449
236 450
236 451
236 453
236 454
236 455
236 456
236 458
236 459
236 460
236 461
236 462
236 463
236 464
236 465
236 466
236 468
236 469
236 472
236 473
236 474
236 476
236 477
236 478
236 479
236 480
236 481
236 482
236 483
236 484
236 486
236 487
236 488
236 489
236 490
236 491
236 492
236 493
236 494
236 495
236 496
236 497
236 498
236 500
236 501
236 502
236 503
236 504
236 505
236 506
236 507
236 508
236 509
236 510
236 511
236 512
236 513
236 514
236 515
236 516
236 517
236 518
236 519
236 521
236 522
236 523
236 524
236 525
236 526
236 527
236 531
236 532
236 533
236 534
236 535
236 536
236 537
236 539
236 540
236 541
236 542
236 543
236 544
236 545
236 546
236 547
236 548
236 549
236 550
236 551
236 552
236 554
236 555
236 556
236 557
236 558
236 559
236 560
236 561
236 562
236 563
236 564
236 565
236 566
236 567
236 568
236 569
236 570
236 571
236 572
236 573
236 579
236 580
236 581
236 583
236 584
236 585
236 586
236 587
236 588
236 589
236 590
236 591
236 592
236 593
236 594
236 595
236 596
236 598
237 238
237 239
237 240
237 249
237 259
237 267
237 276
237 281
237 292
237 297
237 307
237 312
237 314
237 321
237 323
237 324
237 326
237 332
237 337
237 344
237 350
237 358
237 370
237 377
237 378
237 379
237 380
237 381
237 382
237 383
237 384
237 385
237 386
237 388
237 389
237 390
237 391
237 392
237 393
237 394
237 395
237 396
237 397
237 398
237 399
237 400
237 401
237 402
237 403
237 412
237 424
237 428
237 435
237 444
237 452
237 457
237 463
237 467
237 470
237 473
237 475
237 485
237 499
237 520
237 538
237 541
237 553
237 566
237 573
237 574
237 578
237 582
237 597
238 239
238 240
238 249
238 259
238 267
238 275
238 277
238 278
238 279
238 280
238 281
238 292
238 297
238 307
238 313
238 314
238 321
238 324
238 325
238 326
238 332
238 337
238 344
238 350
238 355
238 356
238 357
238 359
238 360
238 361
238 362
238 363
238 364
238 365
238 366
238 367
238 368
238 369
238 370
238 371
238 372
238 373
238 376
238 377
238 379
238 380
238 381
238 382
238 383
238 384
238 385
238 387
238 398
238 400
238 412
238 424
238 428
238 435
238 444
238 452
238 457
238 462
238 464
238 465
238 466
238 467
238 470
238 472
238 474
238 475
238 476
238 485
238 499
238 520
238 538
238 539
238 540
238 542
238 543
238 544
238 545
238 546
238 547
238 548
238 549
238 550
238 551
238 552
238 553
238 554
238 555
238 556
238 557
238 558
238 559
238 560
238 561
238 562
238 563
238 564
238 565
238 567
238 568
238 569
238 570
238 571
238 572
238 573
238 574
238 578
238 582
238 597
239 240
239 249
239 259
239 267
239 275
239 276
239 277
239 278
239 279
239 280
239 292
239 297
239 307
239 312
239 314
239 321
239 323
239 325
239 326
239 332
239 337
239 344
239 350
239 358
239 370
239 376
239 378
239 385
239 386
239 387
239 388
239 389
239 390
239 391
239 392
239 393
239 394
239 395
239 396
239 397
239 399
239 400
239 401
239 402
239 403
239 412
239 424
239 428
239 435
239 444
239 452
239 457
239 463
239 467
239 470
239 473
239 475
239 485
239 499
239 520
239 538
239 541
239 553
239 564
239 565
239 566
239 567
239 568
239 569
239 570
239 571
239 572
239 574
239 578
239 582
239 597
240 241
240 242
240 243
240 244
240 245
240 246
240 247
240 248
240 250
240 251
240 252
240 253
240 254
240 255
240 256
240 257
240 258
240 260
240 261
240 262
240 263
240 264
240 265
240 266
240 268
240 276
240 281
240 284
240 285
240 286
240 287
240 288
240 289
240 290
240 291
240 293
240 294
240 295
240 296
240 298
240 299
240 300
240 301
240 302
240 303
240 304
240 305
240 306
240 308
240 309
240 310
240 311
240 312
240 313
240 315
240 316
240 317
240 318
240 319
240 320
240 322
240 323
240 324
240 325
240 327
240 328
240 329
240 330
240 331
240 333
240 334
240 335
240 336
240 338
240 339
240 340
240 341
240 342
240 343
240 345
240 346
240 347
240 348
240 349
240 351
240 352
240 353
240 354
240 355
240 356
240 357
240 358
240 359
240 360
240 361
240 362
240 363
240 364
240 365
240 366
240 367
240 368
240 369
240 371
240 372
240 373
240 376
240 377
240 378
240 379
240 380
240 381
240 382
240 383
240 384
240 386
240 387
240 388
240 389
240 390
240 391
240 392
240 393
240 394
240 395
240 396
240 397
240 398
240 399
240 401
240 402
240 403
240 404
240 405
240 406
240 407
240 408
240 409
240 410
240 411
240 413
240 416
240 417
240 418
240 419
240 420
240 421
240 422
240 423
240 425
240 426
240 427
240 429
240 430
240 431
240 432
240 433
240 434
240 436
240 437
240 438
240 439
240 440
240 441
240 442
240 443
240 445
240 446
240 449
240 450
240 451
240 453
240 454
240 455
240 456
240 458
240 459
240 460
240 461
240 462
240 463
240 464
240 465
240 466
240 468
240 469
240 472
240 473
240 474
240 476
240 477
240 478
240 479
240 480
240 481
240 482
240 483
240 484
240 486
240 488
240 489
240 490
240 491
240 492
240 493
240 494
240 495
240 496
240 497
240 498
240 500
240 501
240 502
240 503
240 504
240 505
240 506
240 507
240 508
240 509
240 510
240 511
240 512
240 513
240 514
240 515
240 516
240 517
240 518
240 519
240 521
240 522
240 523
240 524
240 525
240 526
240 527
240 531
240 532
240 533
240 534
240 535
240 536
240 537
240 539
240 540
240 541
240 542
240 543
240 544
240 545
240 546
240 547
240 548
240 549
240 550
240 551
240 552
240 554
240 555
240 556
240 557
240 558
240 559
240 560
240 561
240 562
240 563
240 564
240 565
240 566
240 567
240 568
240 569
240 570
240 571
240 572
240 573
240 579
240 580
240 581
240 583
240 584
240 585
240 586
240 587
240 588
240 589
240 590
240 591
240 592
240 593
240 594
240 595
240 596
240 598
241 242
241 243
241 244
241 245
241 246
241 247
241 248
241 249
241 250
241 252
241 253
241 254
241 255
241 256
241 257
241 258
241 259
241 260
241 267
241 285
241 286
241 287
241 288
241 289
241 290
241 291
241 292
241 293
241 297
241 307
241 314
241 321
241 326
241 332
241 337
241 344
241 350
241 356
241 357
241 358
241 359
241 360
241 361
241 362
241 363
241 364
241 365
241 366
241 367
241 368
241 369
241 370
241 371
241 372
241 373
241 374
241 385
241 387
241 388
241 389
241 390
241 391
241 392
241 393
241 394
241 395
241 396
241 397
241 398
241 399
241 400
241 401
241 402
241 403
241 405
241 406
241 407
241 408
241 409
241 410
241 411
241 412
241 413
241 417
241 418
241 419
241 420
241 421
241 422
241 423
241 424
241 425
241 428
241 435
241 444
241 452
241 457
241 463
241 464
241 465
241 466
241 467
241 470
241 473
241 474
241 475
241 476
241 478
241 479
241 480
241 481
241 482
241 483
241 484
241 485
241 486
241 499
241 520
241 538
241 540
241 541
241 542
241 543
241 544
241 545
241 546
241 547
241 548
241 549
241 550
241 551
241 552
241 553
241 554
241 555
241 556
241 557
241 558
241 559
241 560
241 561
241 562
241 563
241 565
241 566
241 567
241 568
241 569
241 570
241 571
241 572
241 573
241 574
241 577
241 578
241 582
241 597
242 243
242 244
242 245
242 246
242 247
242 248
242 249
242 250
242 251
242 252
242 254
242 255
242 256
242 257
242 258
242 259
242 260
242 267
242 284
242 285
242 287
242 288
242 289
242 290
242 291
242 292
242 293
242 297
242 307
242 314
242 321
242 326
242 332
242 337
242 344
242 350
242 355
242 356
242 357
242 358
242 359
242 361
242 362
242 363
242 364
242 365
242 366
242 367
242 368
242 369
242 370
242 371
242 372
242 373
242 374
242 385
242 386
242 397
242 400
242 404
242 405
242 407
242 408
242 409
242 410
242 411
242 412
242 413
242 416
242 417
242 419
242 420
242 421
242 422
242 423
242 424
242 425
242 428
242 435
242 444
242 452
242 457
242 462
242 466
242 467
242 470
242 472
242 474
242 475
242 477
242 479
242 480
242 481
242 482
242 483
242 484
242 485
242 486
242 499
242 520
242 538
242 539
242 552
242 553
242 564
242 572
242 574
242 577
242 578
242 582
242 597
243 244
243 245
243 246
243 247
243 248
243 249
243 250
243 251
243 252
243 253
243 255
243 256
243 257
243 258
243 259
243 260
243 267
243 284
243 285
243 286
243 288
243 289
243 290
243 291
243 292
243 293
243 297
243 307
243 314
243 321
243 326
243 332
243 337
243 344
243 350
243 355
243 356
243 357
243 358
243 359
243 360
243 362
243 363
243 364
243 365
243 366
243 367
243 368
243 369
243 370
243 371
243 372
243 373
243 374
243 385
243 386
243 397
243 400
243 404
243 406
243 407
243 408
243 409
243 410
243 411
243 412
243 413
243 416
243 417
243 418
243 420
243 421
243 422
243 423
243 424
243 425
243 428
243 435
243 444
243 452
243 457
243 462
243 466
243 467
243 470
243 472
243 474
243 475
243 477
243 478
243 480
243 481
243 482
243 483
243 484
243 485
243 486
243 499
243 520
243 538
243 539
243 552
243 553
243 564
243 572
243 574
243 577
243 578
243 582
243 597
244 245
244 246
244 247
244 248
244 249
244 250
244 251
244 252
244 253
244 254
244 256
244 257
244 258
244 259
244 260
244 267
244 284
244 285
244 286
244 287
244 289
244 290
244 291
244 292
244 293
244 297
244 307
244 314
244 321
244 326
244 332
244 337
244 344
244 350
244 355
244 356
244 357
244 358
244 359
244 360
244 361
244 362
244 364
244 365
244 366
244 367
244 368
244 369
244 370
244 371
244 372
244 373
244 374
244 385
244 386
244 397
244 400
244 404
244 405
244 406
244 408
244 409
244 410
244 411
244 412
244 413
244 416
244 418
244 419
244 420
244 421
244 422
244 423
244 424
244 425
244 428
244 435
244 444
244 452
244 457
244 462
244 466
244 467
244 470
244 472
244 474
244 475
244 477
244 478
244 479
244 481
244 482
244 483
244 484
244 485
244 486
244 499
244 520
244 538
244 539
244 552
244 553
244 564
244 572
244 574
244 577
244 578
244 582
244 597
245 246
245 247
245 248
245 249
245 250
245 251
245 252
245 253
245 254
245 255
245 257
245 258
245 259
245 260
245 267
245 284
245 285
245 286
245 287
245 288
245 290
245 291
245 292
245 293
245 297
245 307
245 314
245 321
245 326
245 332
245 337
245 344
245 350
245 355
245 356
245 357
245 358
245 359
245 360
245 361
245 362
245 363
245 365
245 366
245 367
245 368
245 369
245 370
245 371
245 372
245 373
245 374
245 385
245 386
245 397
245 400
245 404
245 405
245 406
245 407
245 409
245 410
245 411
245 412
245 413
245 416
245 417
245 418
245 419
245 421
245 422
245 423
245 424
245 425
245 428
245 435
245 444
245 452
245 457
245 462
245 466
245 467
245 470
245 472
245 474
245 475
245 477
245 478
245 479
245 480
245 482
245 483
245 484
245 485
245 486
245 499
245 520
245 538
245 539
245 552
245 553
245 564
245 572
245 574
245 577
245 578
245 582
245 597
246 247
246 248
246 249
246 250
246 251
246 253
246 254
246 255
246 256
246 257
246 258
246 259
246 260
246 267
246 284
246 285
246 286
246 287
246 288
246 289
246 291
246 292
246 293
246 297
246 307
246 314
246 321
246 326
246 332
246 337
246 344
246 350
246 355
246 356
246 357
246 358
246 359
246 360
246 361
246 362
246 363
246 364
246 365
246 366
246 368
246 369
246 370
246 371
246 372
246 373
246 374
246 385
246 386
246 397
246 400
246 404
246 405
246 406
246 407
246 408
246 410
246 411
246 412
246 413
246 416
246 417
246 418
246 419
246 420
246 422
246 423
246 424
246 425
246 428
246 435
246 444
246 452
246 457
246 462
246 466
246 467
246 470
246 472
246 474
246 475
246 477
246 478
246 479
246 480
246 481
246 483
246 484
246 485
246 486
246 499
246 520
246 538
246 539
246 552
246 553
246 564
246 572
246 574
246 577
246 578
246 582
246 597
247 248
247 249
247 250
247 251
247 252
247 253
247 254
247 255
247 256
247 258
247 259
247 260
247 267
247 284
247 285
247 286
247 287
247 288
247 289
247 290
247 292
247 293
247 297
247 307
247 314
247 321
247 326
247 332
247 337
247 344
247 350
247 355
247 360
247 361
247 363
247 364
247 367
247 369
247 370
247 371
247 375
247 385
247 386
247 387
247 388
247 389
247 390
247 391
247 392
247 393
247 394
247 395
247 396
247 398
247 399
247 400
247 401
247 402
247 403
247 404
247 405
247 406
247 407
247 408
247 409
247 411
247 412
247 413
247 416
247 417
247 418
247 419
247 420
247 421
247 423
247 424
247 425
247 428
247 435
247 444
247 452
247 457
247 462
247 463
247 464
247 465
247 467
247 470
247 472
247 473
247 475
247 476
247 477
247 478
247 479
247 480
247 481
247 482
247 484
247 485
247 486
247 499
247 520
247 538
247 539
247 540
247 541
247 542
247 543
247 544
247 545
247 546
247 547
247 548
247 549
247 550
247 551
247 553
247 554
247 555
247 556
247 557
247 558
247 559
247 560
247 561
247 562
247 563
247 564
247 565
247 566
247 567
247 568
247 569
247 570
247 571
247 573
247 574
247 578
247 582
247 597
248 249
248 250
248 251
248 252
248 253
248 254
248 255
248 256
248 257
248 259
248 260
248 267
248 284
248 286
248 287
248 288
248 289
248 290
248 291
248 292
248 293
248 297
248 307
248 314
248 321
248 326
248 332
248 337
248 344
248 350
248 355
248 356
248 357
248 358
248 359
248 360
248 361
248 362
248 363
248 364
248 365
248 366
248 367
248 368
248 370
248 371
248 372
248 373
248 374
248 385
248 386
248 397
248 400
248 404
248 405
248 406
248 407
248 408
248 409
248 410
248 412
248 413
248 416
248 417
248 418
248 419
248 420
248 421
248 422
248 424
248 425
248 428
248 435
248 444
248 452
248 457
248 462
248 466
248 467
248 470
248 472
248 474
248 475
248 477
248 478
248 479
248 480
248 481
248 482
248 483
248 485
248 486
248 499
248 520
248 538
248 539
248 552
248 553
248 564
248 572
248 574
248 577
248 578
248 582
248 597
249 250
249 251
249 252
249 253
249 254
249 255
249 256
249 257
249 258
249 260
249 261
249 262
249 263
249 264
249 265
249 266
249 268
249 284
249 285
249 286
249 287
249 288
249 289
249 290
249 291
249 293
249 294
249 295
249 296
249 298
249 299
249 300
249 301
249 302
249 303
249 304
249 305
249 306
249 308
249 309
249 310
249 311
249 312
249 313
249 315
249 316
249 317
249 318
249 319
249 320
249 322
249 323
249 324
249 325
249 327
249 328
249 329
249 330
249 331
249 333
249 334
249 335
249 336
249 338
249 339
249 340
249 341
249 342
249 343
249 345
249 346
249 347
249 348
249 349
249 351
249 352
249 353
249 354
249 355
249 356
249 357
249 358
249 359
249 360
249 361
249 362
249 363
249 364
249 365
249 366
249 367
249 368
249 369
249 371
249 372
249 373
249 374
249 376
249 377
249 378
249 379
249 380
249 381
249 382
249 383
249 384
249 386
249 387
249 388
249 389
249 390
249 391
249 392
249 393
249 394
249 395
249 396
249 397
249 398
249 399
249 401
249 402
249 403
249 404
249 405
249 406
249 407
249 408
249 409
249 410
249 411
249 413
249 416
249 417
249 418
249 419
249 420
249 421
249 422
249 423
249 425
249 426
249 427
249 429
249 430
249 431
249 432
249 433
249 434
249 436
249 437
249 438
249 439
249 440
249 441
249 442
249 443
249 445
249 446
249 449
249 450
249 451
249 453
249 454
249 455
249 456
249 458
249 459
249 460
249 461
249 462
249 463
249 464
249 465
249 466
249 468
249 469
249 472
249 473
249 474
249 476
249 477
249 478
249 479
249 480
249 481
249 482
249 483
249 484
249 486
249 488
249 489
249 490
249 491
249 492
249 493
249 494
249 495
249 496
249 497
249 498
249 500
249 501
249 502
249 503
249 504
249 505
249 506
249 507
249 508
249 509
249 510
249 511
249 512
249 513
249 514
249 515
249 516
249 517
249 518
249 519
249 521
249 522
249 523
249 524
249 525
249 526
249 527
249 531
249 532
249 533
249 534
249 535
249 536
249 537
249 539
249 540
249 541
249 542
249 543
249 544
249 545
249 546
249 547
249 548
249 549
249 550
249 551
249 552
249 554
249 555
249 556
249 557
249 558
249 559
249 560
249 561
249 562
249 563
249 564
249 565
249 566
249 567
249 568
249 569
249 570
249 571
249 572
249 573
249 577
249 579
249 580
249 581
249 583
249 584
249 585
249 586
249 587
249 588
249 589
249 590
249 591
249 592
249 593
249 594
249 595
249 596
249 598
250 251
250 252
250 253
250 254
250 255
250 256
250 257
250 258
250 259
250 267
250 284
250 285
250 286
250 287
250 288
250 289
250 290
250 291
250 292
250 297
250 307
250 314
250 321
250 326
250 332
250 337
250 344
250 350
250 355
250 356
250 357
250 358
250 359
250 360
250 361
250 362
250 363
250 364
250 365
250 366
250 367
250 368
250 369
250 370
250 372
250 373
250 374
250 385
250 386
250 397
250 400
250 404
250 405
250 406
250 407
250 408
250 409
250 410
250 411
250 412
250 416
250 417
250 418
250 419
250 420
250 421
250 422
250 423
250 424
250 428
250 435
250 444
250 452
250 457
250 462
250 466
250 467
250 470
250 472
250 474
250 475
250 477
250 478
250 479
250 480
250 481
250 482
250 483
250 484
250 485
250 499
250 520
250 538
250 539
250 552
250 553
250 564
250 572
250 574
250 577
250 578
250 582
250 597
251 252
251 253
251 254
251 255
251 256
251 257
251 258
251 259
251 260
251 267
251 285
251 286
251 287
251 288
251 289
251 290
251 291
251 292
251 293
251 297
251 307
251 314
251 321
251 326
251 332
251 337
251 344
251 350
251 356
251 357
251 358
251 359
251 360
251 361
251 362
251 363
251 364
251 365
251 366
251 367
251 368
251 369
251 370
251 371
251 372
251 373
251 374
251 385
251 387
251 388
251 389
251 390
251 391
251 392
251 393
251 394
251 395
251 396
251 397
251 398
251 399
251 400
251 401
251 402
251 403
251 405
251 406
251 407
251 408
251 409
251 410
251 411
251 412
251 413
251 417
251 418
251 419
251 420
251 421
251 422
251 423
251 424
251 425
251 428
251 435
251 444
251 452
251 457
251 463
251 464
251 465
251 466
251 467
251 470
251 473
251 474
251 475
251 476
251 478
251 479
251 480
251 481
251 482
251 483
251 484
251 485
251 486
251 499
251 520
251 538
251 540
251 541
251 542
251 543
251 544
251 545
251 546
251 547
251 548
251 549
251 550
251 551
251 552
251 553
251 554
251 555
251 556
251 557
251 558
251 559
251 560
251 561
251 562
251 563
251 565
251 566
251 567
251 568
251 569
251 570
251 571
251 572
251 573
251 574
251 577
251 578
251 582
251 597
252 253
252 254
252 255
252 256
252 257
252 258
252 259
252 260
252 267
252 284
252 286
252 287
252 288
252 289
252 290
252 291
252 292
252 293
252 297
252 307
252 314
252 321
252 326
252 332
252 337
252 344
252 350
252 355
252 356
252 358
252 359
252 360
252 361
252 362
252 363
252 364
252 365
252 366
252 367
252 368
252 369
252 370
252 371
252 372
252 373
252 374
252 385
252 386
252 397
252 400
252 404
252 406
252 407
252 408
252 409
252 410
252 411
252 412
252 413
252 416
252 418
252 419
252 420
252 421
252 422
252 423
252 424
252 425
252 428
252 435
252 444
252 452
252 457
252 462
252 466
252 467
252 470
252 472
252 474
252 475
252 477
252 479
252 480
252 481
252 482
252 483
252 484
252 485
252 486
252 499
252 520
252 538
252 539
252 552
252 553
252 564
252 572
252 574
252 577
252 578
252 582
252 597
253 254
253 255
253 256
253 257
253 258
253 259
253 260
253 267
253 284
253 285
253 287
253 288
253 289
253 290
253 291
253 292
253 293
253 297
253 307
253 314
253 321
253 326
253 332
253 337
253 344
253 350
253 355
253 356
253 357
253 358
253 359
253 361
253 362
253 363
253 364
253 365
253 366
253 367
253 368
253 369
253 370
253 371
253 372
253 373
253 374
253 385
253 386
253 397
253 400
253 404
253 405
253 407
253 408
253 409
253 410
253 411
253 412
253 413
253 416
253 417
253 419
253 420
253 421
253 422
253 423
253 424
253 425
253 428
253 435
253 444
253 452
253 457
253 462
253 466
253 467
253 470
253 472
253 474
253 475
253 477
253 478
253 479
253 480
253 481
253 483
253 484
253 485
253 486
253 499
253 520
253 538
253 539
253 552
253 553
253 564
253 572
253 574
253 577
253 578
253 582
253 597
254 255
254 256
254 257
254 258
254 259
254 260
254 267
254 284
254 285
254 286
254 288
254 289
254 290
254 291
254 292
254 293
254 297
254 307
254 314
254 321
254 326
254 332
254 337
254 344
254 350
254 355
254 356
254 357
254 358
254 359
254 360
254 362
254 363
254 364
254 365
254 366
254 367
254 368
254 369
254 370
254 371
254 372
254 373
254 374
254 385
254 386
254 397
254 400
254 404
254 405
254 406
254 407
254 408
254 410
254 411
254 412
254 413
254 416
254 417
254 418
254 420
254 421
254 422
254 423
254 424
254 425
254 428
254 435
254 444
254 452
254 457
254 462
254 466
254 467
254 470
254 472
254 474
254 475
254 477
254 478
254 480
254 481
254 482
254 483
254 484
254 485
254 486
254 499
254 520
254 538
254 539
254 552
254 553
254 564
254 572
254 574
254 577
254 578
254 582
254 597
255 256
255 257
255 258
255 259
255 260
255 267
255 284
255 285
255 286
255 287
255 289
255 290
255 291
255 292
255 293
255 297
255 307
255 314
255 321
255 326
255 332
255 337
255 344
255 350
255 355
255 356
255 357
255 358
255 359
255 360
255 361
255 362
255 364
255 365
255 366
255 367
255 368
255 369
255 370
255 371
255 372
255 373
255 374
255 385
255 386
255 397
255 400
255 404
255 405
255 406
255 408
255 409
255 410
255 411
255 412
255 413
255 416
255 417
255 418
255 419
255 420
255 422
255 423
255 424
255 425
255 428
255 435
255 444
255 452
255 457
255 462
255 466
255 467
255 470
255 472
255 474
255 475
255 477
255 478
255 479
255 481
255 482
255 483
255 484
255 485
255 486
255 499
255 520
255 538
255 539
255 552
255 553
255 564
255 572
255 574
255 577
255 578
255 582
255 597
256 257
256 258
256 259
256 260
256 267
256 284
256 285
256 286
256 287
256 288
256 290
256 291
256 292
256 293
256 297
256 307
256 314
256 321
256 326
256 332
256 337
256 344
256 350
256 355
256 356
256 357
256 358
256 359
256 360
256 361
256 362
256 363
256 365
256 366
256 367
256 368
256 369
256 370
256 371
256 372
256 373
256 374
256 385
256 386
256 397
256 400
256 404
256 405
256 406
256 407
256 409
256 410
256 411
256 412
256 413
256 416
256 417
256 418
256 419
256 421
256 422
256 423
256 424
256 425
256 428
256 435
256 444
256 452
256 457
256 462
256 466
256 467
256 470
256 472
256 474
256 475
256 477
256 478
256 479
256 480
256 482
256 483
256 484
256 485
256 486
256 499
256 520
256 538
256 539
256 552
256 553
256 564
256 572
256 574
256 577
256 578
256 582
256 597
257 258
257 259
257 260
257 267
257 284
257 285
257 286
257 287
257 288
257 289
257 290
257 292
257 293
257 297
257 307
257 314
257 321
257 326
257 332
257 337
257 344
257 350
257 355
257 357
257 360
257 361
257 363
257 364
257 369
257 370
257 371
257 375
257 385
257 386
257 387
257 388
257 389
257 390
257 391
257 392
257 393
257 394
257 395
257 396
257 398
257 399
257 400
257 401
257 402
257 403
257 404
257 405
257 406
257 407
257 408
257 409
257 411
257 412
257 413
257 416
257 417
257 418
257 419
257 420
257 421
257 423
257 424
257 425
257 428
257 435
257 444
257 452
257 457
257 462
257 463
257 464
257 465
257 467
257 470
257 472
257 473
257 475
257 476
257 477
257 478
257 479
257 480
257 481
257 482
257 484
257 485
257 486
257 499
257 520
257 538
257 539
257 540
257 541
257 542
257 543
257 544
257 545
257 546
257 547
257 548
257 549
257 550
257 551
257 553
257 554
257 555
257 556
257 557
257 558
257 559
257 560
257 561
257 562
257 563
257 564
257 565
257 566
257 567
257 568
257 569
257 570
257 571
257 573
257 574
257 578
257 582
257 597
258 259
258 260
258 267
258 284
258 285
258 286
258 287
258 288
258 289
258 291
258 292
258 293
258 297
258 307
258 314
258 321
258 326
258 332
258 337
258 344
258 350
258 355
258 356
258 357
258 358
258 359
258 360
258 361
258 362
258 363
258 364
258 365
258 366
258 367
258 368
258 370
258 371
258 372
258 373
258 374
258 385
258 386
258 397
258 400
258 404
258 405
258 406
258 407
258 408
258 409
258 410
258 412
258 413
258 416
258 417
258 418
258 419
258 420
258 421
258 422
258 424
258 425
258 428
258 435
258 444
258 452
258 457
258 462
258 466
258 467
258 470
258 472
258 474
258 475
258 477
258 478
258 479
258 480
258 481
258 482
258 483
258 485
258 486
258 499
258 520
258 538
258 539
258 552
258 553
258 564
258 572
258 574
258 577
258 578
258 582
258 597
259 260
259 261
259 262
259 263
259 264
259 265
259 266
259 268
259 284
259 285
259 286
259 287
259 288
259 289
259 290
259 291
259 293
259 294
259 295
259 296
259 298
259 299
259 300
259 301
259 302
259 303
259 304
259 305
259 306
259 308
259 309
259 310
259 311
259 312
259 313
259 315
259 316
259 317
259 318
259 319
259 320
259 322
259 323
259 324
259 325
259 327
259 328
259 329
259 330
259 331
259 333
259 334
259 335
259 336
259 338
259 339
259 340
259 341
259 342
259 343
259 345
259 346
259 347
259 348
259 349
259 351
259 352
259 353
259 354
259 355
259 356
259 357
259 358
259 359
259 360
259 361
259 362
259 363
259 364
259 365
259 366
259 367
259 368
259 369
259 371
259 372
259 373
259 374
259 376
259 377
259 378
259 379
259 380
259 381
259 382
259 383
259 384
259 386
259 387
259 388
259 389
259 390
259 391
259 392
259 393
259 394
259 395
259 396
259 397
259 398
259 399
259 401
259 402
259 403
259 404
259 405
259 406
259 407
259 408
259 409
259 410
259 411
259 413
259 416
259 417
259 418
259 419
259 420
259 421
259 422
259 423
259 425
259 426
259 427
259 429
259 430
259 431
259 432
259 433
259 434
259 436
259 437
259 438
259 439
259 440
259 441
259 442
259 443
259 445
259 446
259 449
259 450
259 451
259 453
259 454
259 455
259 456
259 458
259 459
259 460
259 461
259 462
259 463
259 464
259 465
259 466
259 468
259 469
259 472
259 473
259 474
259 476
259 477
259 478
259 479
259 480
259 481
259 482
259 483
259 484
259 486
259 488
259 489
259 490
259 491
259 492
259 493
259 494
259 495
259 496
259 497
259 498
259 500
259 501
259 502
259 503
259 504
259 505
259 506
259 507
259 508
259 509
259 510
259 511
259 512
259 513
259 514
259 515
259 516
259 517
259 518
259 519
259 521
259 522
259 523
259 524
259 525
259 526
259 527
259 531
259 532
259 533
259 534
259 535
259 536
259 537
259 539
259 540
259 541
259 542
259 543
259 544
259 545
259 546
259 547
259 548
259 549
259 550
259 551
259 552
259 554
259 555
259 556
259 557
259 558
259 559
259 560
259 561
259 562
259 563
259 564
259 565
259 566
259 567
259 568
259 569
259 570
259 571
259 572
259 573
259 577
259 579
259 580
259 581
259 583
259 584
259 585
259 586
259 587
259 588
259 589
259 590
259 591
259 592
259 593
259 594
259 595
259 596
259 598
260 267
260 284
260 285
260 286
260 287
260 288
260 289
260 290
260 291
260 292
260 297
260 307
260 314
260 321
260 326
260 332
260 337
260 344
260 350
260 355
260 356
260 357
260 358
260 359
260 360
260 361
260 362
260 363
260 364
260 365
260 366
260 367
260 368
260 369
260 370
260 372
260 373
260 374
260 385
260 386
260 397
260 400
260 404
260 405
260 406
260 407
260 408
260 409
260 410
260 411
260 412
260 416
260 417
260 418
260 419
260 420
260 421
260 422
260 423
260 424
260 428
260 435
260 444
260 452
260 457
260 462
260 466
260 467
260 470
260 472
260 474
260 475
260 477
260 478
260 479
260 480
260 481
260 482
260 483
260 484
260 485
260 499
260 520
260 538
260 539
260 552
260 553
260 564
260 572
260 574
260 577
260 578
260 582
260 597
261 262
261 263
261 264
261 265
261 266
261 267
261 268
261 269
261 292
261 297
261 307
261 314
261 316
261 317
261 318
261 319
261 320
261 321
261 322
261 326
261 332
261 337
261 339
261 340
261 341
261 342
261 343
261 344
261 345
261 350
261 370
261 385
261 400
261 412
261 424
261 426
261 427
261 428
261 430
261 431
261 432
261 433
261 434
261 435
261 436
261 444
261 452
261 457
261 467
261 470
261 475
261 485
261 499
261 520
261 532
261 533
261 534
261 535
261 536
261 537
261 538
261 553
261 574
261 578
261 582
261 590
261 591
261 592
261 593
261 594
261 595
261 596
261 597
261 598
262 263
262 264
262 265
262 266
262 267
262 268
262 292
262 297
262 307
262 314
262 315
262 317
262 318
262 319
262 320
262 321
262 322
262 326
262 332
262 337
262 338
262 340
262 341
262 342
262 343
262 344
262 345
262 350
262 370
262 385
262 400
262 412
262 424
262 427
262 428
262 429
262 431
262 432
262 433
262 434
262 435
262 436
262 444
262 452
262 457
262 467
262 470
262 475
262 485
262 499
262 520
262 531
262 533
262 534
262 535
262 536
262 537
262 538
262 553
262 574
262 578
262 582
262 589
262 591
262 592
262 595
262 596
262 597
262 598
263 264
263 265
263 266
263 267
263 268
263 269
263 292
263 297
263 307
263 314
263 315
263 316
263 317
263 319
263 320
263 321
263 322
263 326
263 332
263 337
263 338
263 339
263 341
263 342
263 343
263 344
263 345
263 350
263 370
263 385
263 400
263 412
263 424
263 426
263 427
263 428
263 429
263 430
263 431
263 433
263 434
263 435
263 436
263 444
263 452
263 457
263 467
263 470
263 475
263 485
263 499
263 520
263 531
263 532
263 533
263 535
263 536
263 537
263 538
263 553
263 574
263 578
263 582
263 589
263 590
263 592
263 593
263 594
263 595
263 596
263 597
263 598
264 265
264 266
264 267
264 268
264 269
264 292
264 297
264 307
264 314
264 315
264 316
264 317
264 318
264 320
264 321
264 322
264 326
264 332
264 337
264 338
264 339
264 340
264 342
264 343
264 344
264 345
264 350
264 370
264 385
264 400
264 412
264 424
264 426
264 428
264 429
264 430
264 431
264 432
264 434
264 435
264 436
264 444
264 452
264 457
264 467
264 470
264 475
264 485
264 499
264 520
264 531
264 532
264 533
264 534
264 536
264 537
264 538
264 553
264 574
264 578
264 582
264 589
264 590
264 591
264 593
264 594
264 595
264 596
264 597
264 598
265 266
265 267
265 268
265 269
265 292
265 297
265 307
265 314
265 315
265 316
265 318
265 319
265 320
265 321
265 322
265 326
265 332
265 337
265 338
265 339
265 340
265 341
265 343
265 344
265 345
265 350
265 370
265 385
265 400
265 412
265 424
265 426
265 427
265 428
265 429
265 430
265 431
265 432
265 433
265 435
265 436
265 444
265 452
265 457
265 467
265 470
265 475
265 485
265 499
265 520
265 531
265 532
265 533
265 534
265 535
265 537
265 538
265 553
265 574
265 578
265 582
265 589
265 590
265 591
265 592
265 593
265 594
265 596
265 597
265 598
266 267
266 268
266 269
266 292
266 297
266 307
266 314
266 315
266 316
266 317
266 318
266 319
266 321
266 322
266 326
266 332
266 337
266 338
266 339
266 340
266 341
266 342
266 344
266 345
266 350
266 370
266 385
266 400
266 412
266 424
266 426
266 427
266 428
266 429
266 430
266 432
266 433
266 434
266 435
266 436
266 444
266 452
266 457
266 467
266 470
266 475
266 485
266 499
266 520
266 531
266 532
266 533
266 534
266 535
266 536
266 538
266 553
266 574
266 578
266 582
266 589
266 590
266 591
266 592
266 593
266 594
266 595
266 597
266 598
267 268
267 269
267 284
267 285
267 286
267 287
267 288
267 289
267 290
267 291
267 293
267 294
267 295
267 296
267 298
267 299
267 300
267 301
267 302
267 303
267 304
267 305
267 306
267 308
267 309
267 310
267 311
267 312
267 313
267 315
267 316
267 317
267 318
267 319
267 320
267 322
267 323
267 324
267 325
267 327
267 328
267 329
267 330
267 331
267 333
267 334
267 335
267 336
267 338
267 339
267 340
267 341
267 342
267 343
267 345
267 346
267 347
267 348
267 349
267 351
267 352
267 353
267 354
267 355
267 356
267 357
267 358
267 359
267 360
267 361
267 362
267 363
267 364
267 365
267 366
267 367
267 368
267 369
267 371
267 372
267 373
267 376
267 377
267 378
267 379
267 380
267 381
267 382
267 383
267 384
267 386
267 387
267 388
267 389
267 390
267 391
267 392
267 393
267 394
267 395
267 396
267 397
267 398
267 399
267 401
267 402
267 403
267 404
267 405
267 406
267 407
267 408
267 409
267 410
267 411
267 413
267 416
267 417
267 418
267 419
267 420
267 421
267 422
267 423
267 425
267 426
267 427
267 429
267 430
267 431
267 432
267 433
267 434
267 436
267 437
267 438
267 439
267 440
267 441
267 442
267 443
267 445
267 446
267 449
267 450
267 451
267 453
267 454
267 455
267 456
267 458
267 459
267 460
267 461
267 462
267 463
267 464
267 465
267 466
267 468
267 469
267 472
267 473
267 474
267 476
267 477
267 478
267 479
267 480
267 481
267 482
267 483
267 484
267 486
267 488
267 489
267 490
267 491
267 492
267 493
267 494
267 495
267 496
267 497
267 498
267 500
267 501
267 502
267 503
267 504
267 505
267 506
267 507
267 508
267 509
267 510
267 511
267 512
267 513
267 514
267 515
267 516
267 517
267 518
267 519
267 521
267 522
267 523
267 524
267 525
267 526
267 527
267 531
267 532
267 533
267 534
267 535
267 536
267 537
267 539
267 540
267 541
267 542
267 543
267 544
267 545
267 546
267 547
267 548
267 549
267 550
267 551
267 552
267 554
267 555
267 556
267 557
267 558
267 559
267 560
267 561
267 562
267 563
267 564
267 565
267 566
267 567
267 568
267 569
267 570
267 571
267 572
267 573
267 579
267 580
267 581
267 583
267 584
267 585
267 586
267 587
267 588
267 589
267 590
267 591
267 592
267 593
267 594
267 595
267 596
267 598
268 269
268 292
268 297
268 307
268 314
268 315
268 316
268 317
268 318
268 319
268 320
268 321
268 326
268 332
268 337
268 338
268 339
268 340
268 341
268 342
268 343
268 344
268 350
268 370
268 385
268 400
268 412
268 424
268 426
268 427
268 428
268 429
268 430
268 431
268 432
268 433
268 434
268 435
268 444
268 452
268 457
268 467
268 470
268 475
268 485
268 499
268 520
268 531
268 532
268 534
268 535
268 536
268 537
268 538
268 553
268 574
268 578
268 582
268 589
268 590
268 591
268 592
268 593
268 594
268 595
268 596
268 597
269 315
269 317
269 318
269 319
269 320
269 321
269 322
269 338
269 340
269 341
269 342
269 343
269 344
269 345
269 427
269 428
269 429
269 431
269 432
269 433
269 434
269 435
269 436
269 531
269 533
269 534
269 535
269 536
269 537
269 538
270 271
270 272
270 273
270 274
270 296
270 299
270 306
270 308
270 328
270 329
270 331
270 333
270 347
270 348
270 351
270 438
270 439
270 440
270 441
270 442
270 443
270 444
270 445
270 446
270 456
270 459
270 489
270 490
270 491
270 492
270 493
270 494
270 495
270 496
270 497
270 498
270 499
270 500
270 501
270 502
270 503
270 504
270 505
270 506
270 507
270 509
270 510
270 511
270 512
270 513
270 514
270 515
270 516
270 517
270 518
270 519
270 520
270 521
270 522
270 523
270 524
270 525
270 526
270 527
270 539
270 541
270 542
270 543
270 544
270 545
270 546
270 547
270 548
270 549
270 550
270 551
270 552
270 553
270 554
270 555
270 556
270 557
270 558
270 559
270 560
270 561
270 562
270 563
270 581
270 584
271 272
271 273
271 274
271 294
271 295
271 297
271 298
271 299
271 300
271 301
271 302
271 303
271 304
271 305
271 307
271 308
271 309
271 310
271 311
271 327
271 329
271 330
271 331
271 332
271 333
271 334
271 335
271 346
271 348
271 349
271 350
271 351
271 352
271 353
271 354
271 437
271 438
271 439
271 440
271 442
271 443
271 444
271 445
271 446
271 453
271 454
271 455
271 457
271 458
271 459
271 460
271 461
271 488
271 495
271 498
271 501
271 508
271 509
271 510
271 511
271 512
271 513
271 514
271 516
271 517
271 518
271 519
271 520
271 521
271 522
271 523
271 524
271 525
271 526
271 527
271 539
271 540
271 541
271 542
271 543
271 544
271 545
271 546
271 548
271 549
271 550
271 551
271 552
271 553
271 554
271 555
271 556
271 557
271 558
271 559
271 560
271 561
271 562
271 563
271 579
271 580
271 582
271 583
271 584
271 585
271 586
271 587
271 588
272 273
272 274
272 296
272 299
272 306
272 308
272 327
272 328
272 330
272 331
272 332
272 333
272 334
272 335
272 346
272 347
272 349
272 350
272 351
272 352
272 353
272 354
272 437
272 441
272 445
272 456
272 459
272 488
272 489
272 490
272 491
272 492
272 493
272 494
272 496
272 497
272 498
272 499
272 500
272 501
272 502
272 503
272 504
272 505
272 506
272 507
272 508
272 509
272 510
272 511
272 512
272 513
272 514
272 515
272 517
272 518
272 519
272 520
272 521
272 522
272 523
272 524
272 525
272 526
272 527
272 539
272 540
272 541
272 542
272 543
272 544
272 545
272 546
272 547
272 549
272 550
272 551
272 552
272 553
272 554
272 555
272 556
272 557
272 558
272 559
272 560
272 561
272 562
272 563
272 581
272 584
273 274
273 296
273 299
273 306
273 308
273 327
273 328
273 329
273 330
273 332
273 333
273 334
273 335
273 347
273 348
273 351
273 437
273 441
273 445
273 456
273 459
273 488
273 489
273 490
273 491
273 492
273 493
273 494
273 495
273 496
273 497
273 499
273 500
273 501
273 502
273 503
273 504
273 505
273 506
273 507
273 508
273 509
273 510
273 511
273 512
273 513
273 514
273 515
273 516
273 517
273 518
273 520
273 521
273 522
273 523
273 524
273 525
273 526
273 527
273 540
273 547
273 548
273 555
273 581
273 584
274 294
274 295
274 296
274 297
274 298
274 300
274 301
274 302
274 303
274 304
274 305
274 306
274 307
274 309
274 310
274 311
274 327
274 328
274 329
274 330
274 331
274 332
274 334
274 335
274 346
274 347
274 348
274 349
274 350
274 352
274 353
274 354
274 437
274 438
274 439
274 440
274 441
274 442
274 443
274 444
274 446
274 453
274 454
274 455
274 456
274 457
274 458
274 460
274 461
274 488
274 489
274 490
274 491
274 492
274 493
274 494
274 495
274 496
274 497
274 498
274 499
274 500
274 502
274 503
274 504
274 505
274 506
274 507
274 508
274 515
274 516
274 519
274 539
274 540
274 541
274 542
274 543
274 544
274 545
274 546
274 547
274 548
274 549
274 550
274 551
274 552
274 553
274 554
274 556
274 557
274 558
274 559
274 560
274 561
274 562
274 563
274 579
274 580
274 581
274 582
274 583
274 585
274 586
274 587
274 588
275 276
275 277
275 278
275 279
275 280
275 281
275 312
275 323
275 324
275 358
275 368
275 376
275 378
275 379
275 380
275 381
275 382
275 383
275 384
275 385
275 386
275 387
275 388
275 390
275 391
275 392
275 393
275 394
275 395
275 396
275 397
275 398
275 399
275 400
275 401
275 402
275 403
275 449
275 450
275 463
275 473
275 541
275 564
275 566
275 567
275 568
275 569
275 570
275 571
275 572
275 573
275 574
276 277
276 278
276 279
276 280
276 281
276 313
276 314
276 324
276 325
276 326
276 355
276 356
276 357
276 359
276 360
276 361
276 362
276 363
276 364
276 365
276 366
276 367
276 368
276 369
276 370
276 371
276 372
276 373
276 376
276 377
276 379
276 380
276 381
276 382
276 383
276 384
276 385
276 389
276 391
276 392
276 394
276 396
276 398
276 449
276 450
276 462
276 464
276 465
276 466
276 467
276 472
276 474
276 475
276 476
276 539
276 540
276 542
276 543
276 544
276 545
276 546
276 547
276 548
276 549
276 550
276 551
276 552
276 553
276 554
276 555
276 556
276 557
276 558
276 559
276 560
276 561
276 562
276 563
276 564
276 565
276 567
276 568
276 569
276 570
276 571
276 572
276 573
276 574
277 278
277 279
277 280
277 281
277 312
277 323
277 324
277 358
277 368
277 376
277 377
277 378
277 380
277 381
277 382
277 383
277 384
277 385
277 386
277 387
277 388
277 389
277 390
277 392
277 393
277 394
277 395
277 396
277 397
277 398
277 399
277 400
277 401
277 402
277 403
277 449
277 450
277 463
277 473
277 541
277 564
277 565
277 566
277 568
277 569
277 570
277 571
277 572
277 573
277 574
278 279
278 280
278 281
278 312
278 323
278 324
278 358
278 368
278 376
278 377
278 378
278 379
278 381
278 382
278 383
278 384
278 385
278 386
278 387
278 388
278 389
278 390
278 391
278 393
278 394
278 395
278 396
278 397
278 398
278 399
278 400
278 401
278 402
278 403
278 450
278 451
278 452
278 463
278 473
278 541
278 564
278 565
278 566
278 567
278 569
278 570
278 571
278 572
278 573
278 574
279 280
279 281
279 312
279 323
279 324
279 358
279 368
279 376
279 377
279 378
279 379
279 380
279 382
279 383
279 384
279 385
279 386
279 387
279 388
279 389
279 390
279 391
279 392
279 393
279 395
279 396
279 397
279 398
279 399
279 400
279 401
279 402
279 403
279 449
279 451
279 452
279 463
279 473
279 541
279 564
279 565
279 566
279 567
279 568
279 569
279 571
279 572
279 573
279 574
280 281
280 312
280 323
280 324
280 355
280 356
280 357
280 358
280 359
280 360
280 361
280 362
280 363
280 364
280 365
280 366
280 367
280 369
280 370
280 371
280 372
280 373
280 376
280 377
280 378
280 379
280 380
280 381
280 382
280 384
280 385
280 386
280 387
280 388
280 389
280 390
280 391
280 392
280 393
280 394
280 395
280 397
280 398
280 399
280 400
280 401
280 402
280 403
280 449
280 450
280 463
280 473
280 541
280 565
280 566
280 567
280 568
280 570
280 573
281 312
281 323
281 325
281 326
281 358
281 368
281 377
281 378
281 379
281 380
281 381
281 383
281 386
281 387
281 388
281 389
281 390
281 391
281 392
281 393
281 394
281 395
281 396
281 397
281 399
281 400
281 401
281 402
281 403
281 449
281 450
281 463
281 473
281 541
281 564
281 565
281 566
281 567
281 568
281 569
281 570
281 571
281 572
281 574
282 283
282 295
282 296
282 297
282 298
282 299
282 300
282 301
282 302
282 304
282 305
282 306
282 307
282 308
282 309
282 310
282 311
282 328
282 329
282 330
282 331
282 332
282 333
282 334
282 335
282 347
282 348
282 349
282 350
282 351
282 352
282 353
282 354
282 355
282 357
282 358
282 359
282 360
282 361
282 362
282 363
282 364
282 365
282 366
282 367
282 368
282 369
282 370
282 371
282 372
282 373
282 386
282 387
282 389
282 390
282 391
282 392
282 393
282 394
282 395
282 396
282 397
282 398
282 399
282 400
282 401
282 402
282 403
282 437
282 439
282 440
282 441
282 442
282 443
282 444
282 445
282 446
282 454
282 455
282 456
282 457
282 458
282 459
282 460
282 461
282 488
282 490
282 491
282 492
282 493
282 494
282 495
282 496
282 497
282 498
282 499
282 500
282 501
282 502
282 503
282 504
282 505
282 506
282 507
282 508
282 510
282 511
282 512
282 513
282 514
282 515
282 516
282 517
282 518
282 519
282 520
282 521
282 522
282 523
282 524
282 525
282 526
282 527
282 529
282 530
282 562
282 580
282 581
282 582
282 583
282 584
282 585
282 586
282 587
282 588
283 294
283 303
283 327
283 346
283 356
283 388
283 438
283 453
283 489
283 509
283 528
283 539
283 540
283 541
283 542
283 543
283 544
283 545
283 546
283 547
283 548
283 549
283 550
283 551
283 552
283 553
283 554
283 555
283 556
283 557
283 558
283 559
283 560
283 561
283 563
283 579
284 285
284 286
284 287
284 288
284 289
284 290
284 291
284 292
284 293
284 297
284 307
284 314
284 321
284 326
284 332
284 337
284 344
284 350
284 356
284 357
284 358
284 359
284 360
284 361
284 362
284 363
284 364
284 365
284 366
284 367
284 368
284 369
284 370
284 371
284 372
284 373
284 374
284 385
284 387
284 388
284 389
284 390
284 391
284 392
284 393
284 394
284 395
284 396
284 397
284 398
284 399
284 400
284 401
284 402
284 403
284 405
284 406
284 407
284 408
284 409
284 410
284 411
284 412
284 413
284 417
284 418
284 419
284 420
284 421
284 422
284 423
284 424
284 425
284 428
284 435
284 444
284 452
284 457
284 463
284 464
284 465
284 466
284 467
284 470
284 473
284 474
284 475
284 476
284 478
284 479
284 480
284 481
284 482
284 483
284 484
284 485
284 486
284 499
284 520
284 538
284 540
284 541
284 542
284 543
284 544
284 545
284 546
284 547
284 548
284 549
284 550
284 551
284 552
284 553
284 554
284 555
284 556
284 557
284 558
284 559
284 560
284 561
284 562
284 563
284 565
284 566
284 567
284 568
284 569
284 570
284 571
284 572
284 573
284 574
284 577
284 578
284 582
284 597
285 286
285 287
285 288
285 289
285 290
285 291
285 292
285 293
285 297
285 307
285 314
285 321
285 326
285 332
285 337
285 344
285 350
285 355
285 356
285 358
285 359
285 360
285 361
285 362
285 363
285 364
285 365
285 366
285 367
285 368
285 369
285 370
285 371
285 372
285 373
285 374
285 385
285 386
285 397
285 400
285 404
285 406
285 407
285 408
285 409
285 410
285 411
285 412
285 413
285 416
285 418
285 419
285 420
285 421
285 422
285 423
285 424
285 425
285 428
285 435
285 444
285 452
285 457
285 462
285 466
285 467
285 470
285 472
285 474
285 475
285 477
285 479
285 480
285 481
285 482
285 483
285 484
285 485
285 486
285 499
285 520
285 538
285 539
285 552
285 553
285 564
285 572
285 574
285 577
285 578
285 582
285 597
286 287
286 288
286 289
286 290
286 291
286 292
286 293
286 297
286 307
286 314
286 321
286 326
286 332
286 337
286 344
286 350
286 355
286 356
286 357
286 358
286 359
286 361
286 362
286 363
286 364
286 365
286 366
286 367
286 368
286 369
286 370
286 371
286 372
286 373
286 374
286 385
286 386
286 397
286 400
286 404
286 405
286 407
286 408
286 409
286 410
286 411
286 412
286 413
286 416
286 417
286 419
286 420
286 421
286 422
286 423
286 424
286 425
286 428
286 435
286 444
286 452
286 457
286 462
286 466
286 467
286 470
286 472
286 474
286 475
286 477
286 478
286 479
286 480
286 481
286 482
286 483
286 485
286 486
286 499
286 520
286 538
286 539
286 552
286 553
286 564
286 572
286 574
286 577
286 578
286 582
286 597
287 288
287 289
287 290
287 291
287 292
287 293
287 297
287 307
287 314
287 321
287 326
287 332
287 337
287 344
287 350
287 355
287 356
287 357
287 358
287 359
287 360
287 362
287 363
287 364
287 365
287 366
287 367
287 368
287 369
287 370
287 371
287 372
287 373
287 374
287 385
287 386
287 397
287 400
287 404
287 405
287 406
287 407
287 408
287 409
287 410
287 412
287 413
287 416
287 417
287 418
287 420
287 421
287 422
287 423
287 424
287 425
287 428
287 435
287 444
287 452
287 457
287 462
287 466
287 467
287 470
287 472
287 474
287 475
287 477
287 478
287 480
287 481
287 482
287 483
287 484
287 485
287 486
287 499
287 520
287 538
287 539
287 552
287 553
287 564
287 572
287 574
287 577
287 578
287 582
287 597
288 289
288 290
288 291
288 292
288 293
288 297
288 307
288 314
288 321
288 326
288 332
288 337
288 344
288 350
288 355
288 356
288 357
288 358
288 359
288 360
288 361
288 362
288 364
288 365
288 366
288 367
288 368
288 369
288 370
288 371
288 372
288 373
288 374
288 385
288 386
288 397
288 400
288 404
288 405
288 406
288 408
288 409
288 410
288 411
288 412
288 413
288 416
288 417
288 418
288 419
288 420
288 421
288 422
288 424
288 425
288 428
288 435
288 444
288 452
288 457
288 462
288 466
288 467
288 470
288 472
288 474
288 475
288 477
288 478
288 479
288 481
288 482
288 483
288 484
288 485
288 486
288 499
288 520
288 538
288 539
288 552
288 553
288 564
288 572
288 574
288 577
288 578
288 582
288 597
289 290
289 291
289 292
289 293
289 297
289 307
289 314
289 321
289 326
289 332
289 337
289 344
289 350
289 355
289 356
289 357
289 358
289 359
289 360
289 361
289 362
289 363
289 365
289 366
289 367
289 368
289 369
289 370
289 371
289 372
289 373
289 374
289 385
289 386
289 397
289 400
289 404
289 405
289 406
289 407
289 409
289 410
289 411
289 412
289 413
289 416
289 417
289 418
289 419
289 421
289 422
289 423
289 424
289 425
289 428
289 435
289 444
289 452
289 457
289 462
289 466
289 467
289 470
289 472
289 474
289 475
289 477
289 478
289 479
289 480
289 482
289 483
289 484
289 485
289 486
289 499
289 520
289 538
289 539
289 552
289 553
289 564
289 572
289 574
289 577
289 578
289 582
289 597
290 291
290 292
290 293
290 297
290 307
290 314
290 321
290 326
290 332
290 337
290 344
290 350
290 355
290 356
290 357
290 358
290 359
290 360
290 361
290 362
290 363
290 364
290 365
290 366
290 368
290 369
290 370
290 371
290 372
290 373
290 374
290 385
290 386
290 397
290 400
290 404
290 405
290 406
290 407
290 408
290 410
290 411
290 412
290 413
290 416
290 417
290 418
290 419
290 420
290 422
290 423
290 424
290 425
290 428
290 435
290 444
290 452
290 457
290 462
290 466
290 467
290 470
290 472
290 474
290 475
290 477
290 478
290 479
290 480
290 481
290 483
290 484
290 485
290 486
290 499
290 520
290 538
290 539
290 552
290 553
290 564
290 572
290 574
290 577
290 578
290 582
290 597
291 292
291 293
291 297
291 307
291 314
291 321
291 326
291 332
291 337
291 344
291 350
291 355
291 357
291 360
291 361
291 363
291 364
291 367
291 370
291 371
291 375
291 385
291 386
291 387
291 388
291 389
291 390
291 391
291 392
291 393
291 394
291 395
291 396
291 398
291 399
291 400
291 401
291 402
291 403
291 404
291 405
291 406
291 407
291 408
291 409
291 411
291 412
291 413
291 416
291 417
291 418
291 419
291 420
291 421
291 423
291 424
291 425
291 428
291 435
291 444
291 452
291 457
291 462
291 463
291 464
291 465
291 467
291 470
291 472
291 473
291 475
291 476
291 477
291 478
291 479
291 480
291 481
291 482
291 484
291 485
291 486
291 499
291 520
291 538
291 539
291 540
291 541
291 542
291 543
291 544
291 545
291 546
291 547
291 548
291 549
291 550
291 551
291 553
291 554
291 555
291 556
291 557
291 558
291 559
291 560
291 561
291 562
291 563
291 564
291 565
291 566
291 567
291 568
291 569
291 570
291 571
291 573
291 574
291 578
291 582
291 597
292 293
292 294
292 295
292 296
292 298
292 299
292 300
292 301
292 302
292 303
292 304
292 305
292 306
292 308
292 309
292 310
292 311
292 312
292 313
292 315
292 316
292 317
292 318
292 319
292 320
292 322
292 323
292 324
292 325
292 327
292 328
292 329
292 330
292 331
292 333
292 334
292 335
292 336
292 338
292 339
292 340
292 341
292 342
292 343
292 345
292 346
292 347
292 348
292 349
292 351
292 352
292 353
292 354
292 355
292 356
292 357
292 358
292 359
292 360
292 361
292 362
292 363
292 364
292 365
292 366
292 367
292 368
292 369
292 371
292 372
292 373
292 374
292 376
292 377
292 378
292 379
292 380
292 381
292 382
292 383
292 384
292 386
292 387
292 388
292 389
292 390
292 391
292 392
292 393
292 394
292 395
292 396
292 397
292 398
292 399
292 401
292 402
292 403
292 404
292 405
292 406
292 407
292 408
292 409
292 410
292 411
292 413
292 416
292 417
292 418
292 419
292 420
292 421
292 422
292 423
292 425
292 426
292 427
292 429
292 430
292 431
292 432
292 433
292 434
292 436
292 437
292 438
292 439
292 440
292 441
292 442
292 443
292 445
292 446
292 449
292 450
292 451
292 453
292 454
292 455
292 456
292 458
292 459
292 460
292 461
292 462
292 463
292 464
292 465
292 466
292 468
292 469
292 472
292 473
292 474
292 476
292 477
292 478
292 479
292 480
292 481
292 482
292 483
292 484
292 486
292 488
292 489
292 490
292 491
292 492
292 493
292 494
292 495
292 496
292 497
292 498
292 500
292 501
292 502
292 503
292 504
292 505
292 506
292 507
292 508
292 509
292 510
292 511
292 512
292 513
292 514
292 515
292 516
292 517
292 518
292 519
292 521
292 522
292 523
292 524
292 525
292 526
292 527
292 531
292 532
292 533
292 534
292 535
292 536
292 537
292 539
292 540
292 541
292 542
292 543
292 544
292 545
292 546
292 547
292 548
292 549
292 550
292 551
292 552
292 554
292 555
292 556
292 557
292 558
292 559
292 560
292 561
292 562
292 563
292 564
292 565
292 566
292 567
292 568
292 569
292 570
292 571
292 572
292 573
292 577
292 579
292 580
292 581
292 583
292 584
292 585
292 586
292 587
292 588
292 589
292 590
292 591
292 592
292 593
292 594
292 595
292 596
292 598
293 297
293 307
293 314
293 321
293 326
293 332
293 337
293 344
293 350
293 355
293 356
293 357
293 358
293 359
293 360
293 361
293 362
293 363
293 364
293 365
293 366
293 367
293 368
293 369
293 370
293 372
293 373
293 374
293 385
293 386
293 397
293 400
293 404
293 405
293 406
293 407
293 408
293 409
293 410
293 411
293 412
293 416
293 417
293 418
293 419
293 420
293 421
293 422
293 423
293 424
293 428
293 435
293 444
293 452
293 457
293 462
293 466
293 467
293 470
293 472
293 474
293 475
293 477
293 478
293 479
293 480
293 481
293 482
293 483
293 484
293 485
293 499
293 520
293 538
293 539
293 552
293 553
293 564
293 572
293 574
293 577
293 578
293 582
293 597
294 295
294 296
294 297
294 298
294 299
294 300
294 301
294 302
294 304
294 305
294 306
294 307
294 308
294 309
294 310
294 311
294 314
294 321
294 326
294 328
294 329
294 330
294 331
294 332
294 333
294 334
294 335
294 337
294 344
294 347
294 348
294 349
294 350
294 351
294 352
294 353
294 354
294 355
294 357
294 358
294 359
294 360
294 361
294 362
294 363
294 364
294 365
294 366
294 367
294 368
294 369
294 370
294 371
294 372
294 373
294 385
294 386
294 387
294 389
294 390
294 391
294 392
294 393
294 394
294 395
294 396
294 397
294 398
294 399
294 400
294 401
294 402
294 403
294 412
294 424
294 428
294 435
294 437
294 439
294 440
294 441
294 442
294 443
294 444
294 445
294 446
294 452
294 454
294 455
294 456
294 457
294 458
294 459
294 460
294 461
294 467
294 470
294 475
294 485
294 488
294 490
294 491
294 492
294 493
294 494
294 495
294 496
294 497
294 498
294 499
294 500
294 501
294 502
294 503
294 504
294 505
294 506
294 507
294 508
294 510
294 511
294 512
294 513
294 514
294 515
294 516
294 517
294 518
294 519
294 520
294 521
294 522
294 523
294 524
294 525
294 526
294 527
294 529
294 530
294 538
294 545
294 547
294 553
294 554
294 555
294 556
294 560
294 563
294 574
294 578
294 580
294 581
294 582
294 583
294 584
294 585
294 586
294 587
294 588
294 597
295 296
295 297
295 298
295 299
295 300
295 301
295 302
295 303
295 304
295 306
295 307
295 308
295 309
295 310
295 311
295 314
295 321
295 326
295 327
295 328
295 332
295 333
295 337
295 344
295 346
295 347
295 350
295 351
295 354
295 356
295 370
295 385
295 388
295 400
295 412
295 424
295 428
295 435
295 437
295 438
295 439
295 441
295 442
295 443
295 444
295 445
295 446
295 452
295 453
295 454
295 456
295 457
295 458
295 459
295 460
295 461
295 467
295 470
295 475
295 485
295 488
295 489
295 490
295 491
295 492
295 494
295 495
295 496
295 497
295 498
295 499
295 500
295 501
295 502
295 503
295 504
295 505
295 506
295 507
295 508
295 509
295 510
295 511
295 512
295 514
295 515
295 516
295 517
295 518
295 519
295 520
295 521
295 522
295 523
295 524
295 525
295 526
295 527
295 528
295 538
295 539
295 540
295 541
295 542
295 543
295 544
295 546
295 547
295 548
295 549
295 550
295 551
295 552
295 553
295 554
295 555
295 556
295 557
295 558
295 559
295 560
295 561
295 562
295 563
295 574
295 578
295 579
295 581
295 582
295 583
295 584
295 585
295 587
295 588
295 597
296 297
296 298
296 299
296 300
296 301
296 302
296 303
296 304
296 305
296 307
296 308
296 309
296 310
296 311
296 314
296 321
296 326
296 327
296 329
296 330
296 331
296 332
296 333
296 334
296 335
296 337
296 344
296 346
296 348
296 349
296 350
296 351
296 352
296 353
296 354
296 356
296 370
296 385
296 388
296 400
296 412
296 424
296 428
296 435
296 437
296 438
296 439
296 440
296 442
296 443
296 444
296 445
296 446
296 452
296 453
296 454
296 455
296 457
296 458
296 459
296 460
296 461
296 467
296 470
296 475
296 485
296 489
296 493
296 499
296 500
296 501
296 502
296 505
296 506
296 508
296 509
296 510
296 511
296 512
296 513
296 514
296 516
296 517
296 518
296 519
296 520
296 521
296 522
296 523
296 524
296 525
296 526
296 527
296 528
296 538
296 539
296 540
296 541
296 542
296 543
296 544
296 545
296 546
296 548
296 549
296 550
296 551
296 552
296 553
296 554
296 555
296 556
296 557
296 558
296 559
296 560
296 561
296 562
296 563
296 574
296 578
296 579
296 580
296 582
296 583
296 584
296 585
296 586
296 587
296 588
296 597
297 298
297 299
297 300
297 301
297 302
297 303
297 304
297 305
297 306
297 308
297 309
297 310
297 311
297 312
297 313
297 315
297 316
297 317
297 318
297 319
297 320
297 322
297 323
297 324
297 325
297 327
297 328
297 329
297 330
297 331
297 333
297 334
297 335
297 336
297 338
297 339
297 340
297 341
297 342
297 343
297 345
297 346
297 347
297 348
297 349
297 351
297 352
297 353
297 354
297 355
297 356
297 357
297 358
297 359
297 360
297 361
297 362
297 363
297 364
297 365
297 366
297 367
297 368
297 369
297 371
297 372
297 373
297 376
297 377
297 378
297 379
297 380
297 381
297 382
297 383
297 384
297 386
297 387
297 388
297 389
297 390
297 391
297 392
297 393
297 394
297 395
297 396
297 397
297 398
297 399
297 401
297 402
297 403
297 404
297 405
297 406
297 407
297 408
297 409
297 410
297 411
297 413
297 416
297 417
297 418
297 419
297 420
297 421
297 422
297 423
297 425
297 426
297 427
297 429
297 430
297 431
297 432
297 433
297 434
297 436
297 437
297 438
297 439
297 440
297 441
297 442
297 443
297 445
297 446
297 449
297 450
297 451
297 453
297 454
297 455
297 456
297 458
297 459
297 460
297 461
297 462
297 463
297 464
297 465
297 466
297 468
297 469
297 472
297 473
297 474
297 476
297 477
297 478
297 479
297 480
297 481
297 482
297 483
297 484
297 486
297 488
297 489
297 490
297 491
297 492
297 493
297 494
297 495
297 496
297 497
297 498
297 500
297 501
297 502
297 503
297 504
297 505
297 506
297 507
297 508
297 509
297 510
297 511
297 512
297 513
297 514
297 515
297 516
297 517
297 518
297 519
297 521
297 522
297 523
297 524
297 525
297 526
297 527
297 528
297 531
297 532
297 533
297 534
297 535
297 536
297 537
297 539
297 540
297 541
297 542
297 543
297 544
297 545
297 546
297 547
297 548
297 549
297 550
297 551
297 552
297 554
297 555
297 556
297 557
297 558
297 559
297 560
297 561
297 562
297 563
297 564
297 565
297 566
297 567
297 568
297 569
297 570
297 571
297 572
297 573
297 579
297 580
297 581
297 583
297 584
297 585
297 586
297 587
297 588
297 589
297 590
297 591
297 592
297 593
297 594
297 595
297 596
297 598
298 299
298 300
298 301
298 302
298 303
298 305
298 306
298 307
298 308
298 309
298 310
298 311
298 314
298 321
298 326
298 327
298 328
298 332
298 333
298 337
298 344
298 346
298 347
298 350
298 351
298 354
298 356
298 370
298 385
298 388
298 400
298 412
298 424
298 428
298 435
298 438
298 440
298 441
298 444
298 445
298 452
298 453
298 454
298 455
298 456
298 457
298 459
298 460
298 461
298 467
298 470
298 475
298 485
298 488
298 489
298 490
298 491
298 492
298 493
298 494
298 495
298 496
298 497
298 498
298 499
298 501
298 502
298 503
298 504
298 505
298 506
298 507
298 508
298 509
298 510
298 511
298 512
298 513
298 514
298 515
298 516
298 517
298 518
298 519
298 520
298 522
298 523
298 524
298 525
298 526
298 527
298 528
298 538
298 539
298 540
298 541
298 542
298 543
298 544
298 545
298 546
298 547
298 548
298 549
298 550
298 551
298 552
298 553
298 555
298 556
298 557
298 558
298 559
298 560
298 561
298 562
298 563
298 574
298 578
298 579
298 580
298 581
298 582
298 584
298 585
298 586
298 587
298 588
298 597
299 300
299 301
299 302
299 303
299 304
299 305
299 306
299 307
299 309
299 310
299 311
299 314
299 321
299 326
299 327
299 328
299 329
299 330
299 331
299 332
299 334
299 335
299 337
299 344
299 346
299 347
299 348
299 349
299 350
299 352
299 353
299 354
299 356
299 370
299 385
299 388
299 400
299 412
299 424
299 428
299 435
299 437
299 438
299 439
299 440
299 441
299 442
299 443
299 444
299 446
299 452
299 453
299 454
299 455
299 456
299 457
299 458
299 460
299 461
299 467
299 470
299 475
299 485
299 488
299 489
299 490
299 491
299 492
299 493
299 494
299 495
299 496
299 497
299 498
299 499
299 500
299 502
299 503
299 504
299 505
299 506
299 507
299 509
299 513
299 515
299 520
299 521
299 522
299 525
299 526
299 528
299 538
299 539
299 540
299 541
299 542
299 543
299 544
299 545
299 546
299 547
299 548
299 549
299 550
299 551
299 552
299 553
299 554
299 556
299 557
299 558
299 559
299 560
299 561
299 562
299 563
299 574
299 578
299 579
299 580
299 581
299 582
299 583
299 585
299 586
299 587
299 588
299 597
300 301
300 302
300 303
300 304
300 305
300 306
300 307
300 308
300 310
300 311
300 314
300 321
300 326
300 327
300 328
300 332
300 333
300 337
300 344
300 346
300 347
300 350
300 351
300 354
300 356
300 370
300 385
300 388
300 400
300 412
300 424
300 428
300 435
300 438
300 440
300 441
300 444
300 445
300 452
300 453
300 454
300 455
300 456
300 457
300 458
300 459
300 461
300 467
300 470
300 475
300 485
300 488
300 489
300 490
300 491
300 492
300 493
300 494
300 495
300 496
300 497
300 498
300 499
300 500
300 501
300 503
300 504
300 505
300 506
300 507
300 508
300 509
300 510
300 511
300 512
300 513
300 514
300 515
300 516
300 517
300 518
300 519
300 520
300 521
300 523
300 524
300 525
300 526
300 527
300 528
300 538
300 539
300 540
300 541
300 542
300 543
300 544
300 545
300 546
300 547
300 548
300 549
300 550
300 551
300 552
300 553
300 554
300 555
300 557
300 558
300 559
300 560
300 561
300 562
300 563
300 574
300 578
300 579
300 580
300 581
300 582
300 583
300 584
300 586
300 587
300 588
300 597
301 302
301 303
301 304
301 305
301 306
301 307
301 308
301 309
301 311
301 314
301 321
301 326
301 327
301 328
301 332
301 333
301 337
301 344
301 346
301 347
301 350
301 351
301 354
301 356
301 370
301 385
301 388
301 400
301 412
301 424
301 428
301 435
301 438
301 440
301 441
301 444
301 445
301 452
301 453
301 455
301 456
301 457
301 458
301 459
301 460
301 461
301 467
301 470
301 475
301 485
301 488
301 489
301 490
301 491
301 492
301 493
301 494
301 495
301 496
301 497
301 498
301 499
301 500
301 501
301 502
301 503
301 504
301 506
301 507
301 508
301 509
301 510
301 511
301 512
301 513
301 514
301 515
301 516
301 517
301 518
301 519
301 520
301 521
301 522
301 523
301 524
301 526
301 527
301 528
301 538
301 539
301 540
301 541
301 542
301 543
301 544
301 545
301 546
301 547
301 548
301 549
301 550
301 551
301 552
301 553
301 554
301 555
301 556
301 557
301 558
301 559
301 561
301 562
301 563
301 574
301 578
301 579
301 580
301 581
301 582
301 583
301 584
301 585
301 586
301 588
301 597
302 303
302 304
302 305
302 306
302 307
302 308
302 309
302 310
302 314
302 321
302 326
302 327
302 328
302 332
302 333
302 337
302 344
302 346
302 347
302 348
302 349
302 350
302 351
302 352
302 353
302 356
302 370
302 385
302 388
302 400
302 412
302 424
302 428
302 435
302 438
302 440
302 441
302 444
302 445
302 452
302 453
302 454
302 455
302 456
302 457
302 458
302 459
302 460
302 467
302 470
302 475
302 485
302 488
302 489
302 490
302 491
302 492
302 493
302 494
302 495
302 496
302 497
302 498
302 499
302 500
302 501
302 502
302 503
302 504
302 505
302 507
302 508
302 509
302 510
302 511
302 512
302 513
302 514
302 515
302 516
302 517
302 518
302 519
302 520
302 521
302 522
302 523
302 524
302 525
302 527
302 528
302 538
302 539
302 540
302 541
302 542
302 543
302 544
302 545
302 546
302 547
302 548
302 549
302 550
302 551
302 552
302 553
302 554
302 555
302 556
302 557
302 558
302 559
302 560
302 561
302 562
302 574
302 578
302 579
302 580
302 581
302 582
302 583
302 584
302 585
302 586
302 587
302 597
303 304
303 305
303 306
303 307
303 308
303 309
303 310
303 311
303 314
303 321
303 326
303 328
303 329
303 330
303 331
303 332
303 333
303 334
303 335
303 337
303 344
303 347
303 348
303 349
303 350
303 351
303 352
303 353
303 354
303 355
303 357
303 358
303 359
303 360
303 361
303 362
303 363
303 364
303 365
303 366
303 367
303 368
303 369
303 370
303 371
303 372
303 373
303 385
303 386
303 387
303 389
303 390
303 391
303 392
303 393
303 394
303 395
303 396
303 397
303 398
303 399
303 400
303 401
303 402
303 403
303 412
303 424
303 428
303 435
303 437
303 439
303 440
303 441
303 442
303 443
303 444
303 445
303 446
303 452
303 454
303 455
303 456
303 457
303 458
303 459
303 460
303 461
303 467
303 470
303 475
303 485
303 488
303 490
303 491
303 492
303 493
303 494
303 495
303 496
303 497
303 498
303 499
303 500
303 501
303 502
303 503
303 504
303 505
303 506
303 507
303 508
303 510
303 511
303 512
303 513
303 514
303 515
303 516
303 517
303 518
303 519
303 520
303 521
303 522
303 523
303 524
303 525
303 526
303 527
303 529
303 530
303 538
303 543
303 545
303 547
303 553
303 555
303 556
303 560
303 563
303 574
303 578
303 580
303 581
303 582
303 583
303 584
303 585
303 586
303 587
303 588
303 597
304 305
304 306
304 307
304 308
304 309
304 310
304 311
304 314
304 321
304 326
304 327
304 328
304 332
304 333
304 337
304 344
304 346
304 347
304 350
304 351
304 354
304 356
304 370
304 385
304 388
304 400
304 412
304 424
304 428
304 435
304 438
304 440
304 441
304 444
304 445
304 452
304 453
304 455
304 456
304 457
304 458
304 459
304 460
304 461
304 467
304 470
304 475
304 485
304 488
304 489
304 490
304 492
304 493
304 494
304 495
304 496
304 497
304 498
304 499
304 500
304 501
304 502
304 503
304 504
304 505
304 506
304 507
304 508
304 509
304 510
304 512
304 513
304 514
304 515
304 516
304 517
304 518
304 519
304 520
304 521
304 522
304 523
304 524
304 525
304 526
304 527
304 528
304 538
304 539
304 540
304 541
304 542
304 544
304 545
304 546
304 547
304 548
304 549
304 550
304 551
304 552
304 553
304 554
304 555
304 556
304 557
304 558
304 559
304 560
304 561
304 562
304 563
304 574
304 578
304 579
304 581
304 582
304 583
304 584
304 585
304 586
304 587
304 588
304 597
305 306
305 307
305 308
305 309
305 310
305 311
305 314
305 321
305 326
305 327
305 328
305 332
305 333
305 337
305 344
305 346
305 347
305 350
305 351
305 354
305 356
305 370
305 385
305 388
305 400
305 412
305 424
305 428
305 435
305 437
305 438
305 439
305 441
305 442
305 443
305 444
305 445
305 446
305 452
305 453
305 454
305 456
305 457
305 458
305 459
305 460
305 461
305 467
305 470
305 475
305 485
305 488
305 489
305 490
305 491
305 492
305 494
305 495
305 496
305 497
305 498
305 499
305 500
305 501
305 502
305 503
305 504
305 505
305 506
305 507
305 508
305 509
305 510
305 511
305 512
305 514
305 515
305 516
305 517
305 518
305 519
305 520
305 521
305 522
305 523
305 524
305 525
305 526
305 527
305 528
305 538
305 539
305 540
305 541
305 542
305 543
305 544
305 546
305 547
305 548
305 549
305 550
305 551
305 552
305 553
305 554
305 555
305 556
305 557
305 558
305 559
305 560
305 561
305 562
305 563
305 574
305 578
305 579
305 580
305 581
305 582
305 584
305 585
305 587
305 588
305 597
306 307
306 308
306 309
306 310
306 311
306 314
306 321
306 326
306 327
306 329
306 330
306 331
306 332
306 333
306 334
306 335
306 337
306 344
306 346
306 348
306 349
306 350
306 351
306 352
306 353
306 354
306 356
306 370
306 385
306 388
306 400
306 412
306 424
306 428
306 435
306 437
306 438
306 439
306 440
306 442
306 443
306 444
306 445
306 446
306 452
306 453
306 454
306 455
306 457
306 458
306 459
306 460
306 461
306 467
306 470
306 475
306 485
306 489
306 491
306 493
306 499
306 501
306 502
306 505
306 506
306 508
306 509
306 510
306 511
306 512
306 513
306 514
306 516
306 517
306 518
306 519
306 520
306 521
306 522
306 523
306 524
306 525
306 526
306 527
306 528
306 538
306 539
306 540
306 541
306 542
306 543
306 544
306 545
306 546
306 548
306 549
306 550
306 551
306 552
306 553
306 554
306 555
306 556
306 557
306 558
306 559
306 560
306 561
306 562
306 563
306 574
306 578
306 579
306 580
306 582
306 583
306 584
306 585
306 586
306 587
306 588
306 597
307 308
307 309
307 310
307 311
307 312
307 313
307 315
307 316
307 317
307 318
307 319
307 320
307 322
307 323
307 324
307 325
307 327
307 328
307 329
307 330
307 331
307 333
307 334
307 335
307 336
307 338
307 339
307 340
307 341
307 342
307 343
307 345
307 346
307 347
307 348
307 349
307 351
307 352
307 353
307 354
307 355
307 356
307 357
307 358
307 359
307 360
307 361
307 362
307 363
307 364
307 365
307 366
307 367
307 368
307 369
307 371
307 372
307 373
307 376
307 377
307 378
307 379
307 380
307 381
307 382
307 383
307 384
307 386
307 387
307 388
307 389
307 390
307 391
307 392
307 393
307 394
307 395
307 396
307 397
307 398
307 399
307 401
307 402
307 403
307 404
307 405
307 406
307 407
307 408
307 409
307 410
307 411
307 413
307 416
307 417
307 418
307 419
307 420
307 421
307 422
307 423
307 425
307 426
307 427
307 429
307 430
307 431
307 432
307 433
307 434
307 436
307 437
307 438
307 439
307 440
307 441
307 442
307 443
307 445
307 446
307 449
307 450
307 451
307 453
307 454
307 455
307 456
307 458
307 459
307 460
307 461
307 462
307 463
307 464
307 465
307 466
307 468
307 469
307 472
307 473
307 474
307 476
307 477
307 478
307 479
307 480
307 481
307 482
307 483
307 484
307 486
307 488
307 489
307 490
307 491
307 492
307 493
307 494
307 495
307 496
307 497
307 498
307 500
307 501
307 502
307 503
307 504
307 505
307 506
307 507
307 508
307 509
307 510
307 511
307 512
307 513
307 514
307 515
307 516
307 517
307 518
307 519
307 521
307 522
307 523
307 524
307 525
307 526
307 527
307 528
307 531
307 532
307 533
307 534
307 535
307 536
307 537
307 539
307 540
307 541
307 542
307 543
307 544
307 545
307 546
307 547
307 548
307 549
307 550
307 551
307 552
307 554
307 555
307 556
307 557
307 558
307 559
307 560
307 561
307 562
307 563
307 564
307 565
307 566
307 567
307 568
307 569
307 570
307 571
307 572
307 573
307 579
307 580
307 581
307 583
307 584
307 585
307 586
307 587
307 588
307 589
307 590
307 591
307 592
307 593
307 594
307 595
307 596
307 598
308 309
308 310
308 311
308 314
308 321
308 326
308 327
308 328
308 329
308 330
308 331
308 332
308 334
308 335
308 337
308 344
308 346
308 347
308 348
308 349
308 350
308 352
308 353
308 354
308 356
308 370
308 385
308 388
308 400
308 412
308 424
308 428
308 435
308 437
308 438
308 439
308 440
308 441
308 442
308 443
308 444
308 446
308 452
308 453
308 454
308 455
308 456
308 457
308 458
308 460
308 461
308 467
308 470
308 475
308 485
308 488
308 489
308 490
308 491
308 492
308 493
308 494
308 495
308 496
308 497
308 498
308 499
308 500
308 502
308 503
308 504
308 505
308 506
308 507
308 509
308 511
308 513
308 515
308 520
308 522
308 525
308 526
308 528
308 538
308 539
308 540
308 541
308 542
308 543
308 544
308 545
308 546
308 547
308 548
308 549
308 550
308 551
308 552
308 553
308 554
308 556
308 557
308 558
308 559
308 560
308 561
308 562
308 563
308 574
308 578
308 579
308 580
308 581
308 582
308 583
308 585
308 586
308 587
308 588
308 597
309 310
309 311
309 314
309 321
309 326
309 327
309 328
309 332
309 333
309 337
309 344
309 346
309 347
309 350
309 351
309 354
309 356
309 370
309 385
309 388
309 400
309 412
309 424
309 428
309 435
309 438
309 440
309 441
309 444
309 445
309 452
309 453
309 454
309 455
309 456
309 457
309 458
309 459
309 461
309 467
309 470
309 475
309 485
309 488
309 489
309 490
309 491
309 492
309 493
309 494
309 495
309 496
309 497
309 498
309 499
309 500
309 501
309 503
309 504
309 505
309 506
309 507
309 508
309 509
309 510
309 511
309 512
309 513
309 514
309 515
309 516
309 517
309 518
309 519
309 520
309 521
309 523
309 524
309 525
309 526
309 527
309 528
309 538
309 539
309 540
309 541
309 542
309 543
309 544
309 545
309 546
309 547
309 548
309 549
309 550
309 551
309 552
309 553
309 554
309 555
309 557
309 558
309 559
309 560
309 561
309 562
309 563
309 574
309 578
309 579
309 580
309 581
309 582
309 583
309 584
309 586
309 587
309 588
309 597
310 311
310 314
310 321
310 326
310 327
310 328
310 332
310 333
310 337
310 344
310 346
310 347
310 350
310 351
310 354
310 356
310 370
310 385
310 388
310 400
310 412
310 424
310 428
310 435
310 438
310 440
310 441
310 444
310 445
310 452
310 453
310 454
310 455
310 456
310 457
310 459
310 460
310 461
310 467
310 470
310 475
310 485
310 488
310 489
310 490
310 491
310 492
310 493
310 494
310 495
310 496
310 497
310 498
310 499
310 500
310 501
310 502
310 503
310 504
310 506
310 507
310 508
310 509
310 510
310 511
310 512
310 513
310 514
310 515
310 516
310 517
310 518
310 519
310 520
310 521
310 522
310 523
310 524
310 526
310 527
310 528
310 538
310 539
310 540
310 541
310 542
310 543
310 544
310 545
310 546
310 547
310 548
310 549
310 550
310 551
310 552
310 553
310 554
310 555
310 556
310 557
310 558
310 559
310 561
310 562
310 563
310 574
310 578
310 579
310 580
310 581
310 582
310 583
310 584
310 585
310 586
310 588
310 597
311 314
311 321
311 326
311 327
311 328
311 332
311 333
311 337
311 344
311 346
311 347
311 348
311 349
311 350
311 351
311 352
311 353
311 356
311 370
311 385
311 388
311 400
311 412
311 424
311 428
311 435
311 438
311 440
311 441
311 444
311 445
311 452
311 453
311 454
311 455
311 456
311 457
311 458
311 459
311 460
311 467
311 470
311 475
311 485
311 488
311 489
311 490
311 491
311 492
311 493
311 494
311 495
311 496
311 497
311 498
311 499
311 500
311 501
311 502
311 503
311 504
311 505
311 507
311 508
311 509
311 510
311 511
311 512
311 513
311 514
311 515
311 516
311 517
311 518
311 519
311 520
311 521
311 522
311 523
311 524
311 525
311 527
311 528
311 538
311 539
311 540
311 541
311 542
311 543
311 544
311 545
311 546
311 547
311 548
311 549
311 550
311 551
311 552
311 553
311 554
311 555
311 556
311 557
311 558
311 559
311 560
311 561
311 562
311 574
311 578
311 579
311 580
311 581
311 582
311 583
311 584
311 585
311 586
311 587
311 597
312 313
312 314
312 321
312 324
312 325
312 326
312 332
312 336
312 337
312 344
312 350
312 355
312 356
312 357
312 359
312 360
312 361
312 362
312 363
312 364
312 365
312 366
312 367
312 368
312 369
312 370
312 371
312 372
312 373
312 376
312 377
312 379
312 380
312 381
312 382
312 383
312 384
312 385
312 393
312 400
312 412
312 424
312 428
312 435
312 444
312 452
312 457
312 462
312 464
312 465
312 466
312 467
312 468
312 470
312 472
312 474
312 475
312 476
312 485
312 487
312 492
312 499
312 512
312 520
312 538
312 539
312 540
312 542
312 543
312 544
312 545
312 546
312 547
312 548
312 549
312 550
312 551
312 552
312 553
312 554
312 555
312 556
312 557
312 558
312 559
312 560
312 561
312 562
312 563
312 564
312 565
312 567
312 568
312 569
312 570
312 571
312 572
312 573
312 574
312 578
312 582
312 597
313 314
313 321
313 323
313 326
313 332
313 337
313 344
313 350
313 355
313 356
313 357
313 358
313 359
313 360
313 361
313 363
313 364
313 365
313 366
313 367
313 368
313 369
313 370
313 371
313 372
313 373
313 378
313 385
313 386
313 387
313 388
313 389
313 390
313 391
313 392
313 394
313 395
313 396
313 397
313 398
313 399
313 400
313 401
313 402
313 403
313 412
313 424
313 428
313 435
313 444
313 452
313 457
313 463
313 467
313 469
313 470
313 473
313 475
313 485
313 488
313 489
313 490
313 491
313 493
313 494
313 495
313 496
313 497
313 498
313 499
313 500
313 501
313 502
313 503
313 504
313 505
313 506
313 507
313 508
313 509
313 510
313 511
313 513
313 514
313 515
313 516
313 517
313 518
313 519
313 520
313 521
313 522
313 523
313 524
313 525
313 526
313 527
313 538
313 539
313 540
313 541
313 542
313 543
313 545
313 546
313 547
313 548
313 549
313 550
313 551
313 552
313 553
313 554
313 555
313 556
313 557
313 558
313 559
313 560
313 561
313 562
313 563
313 564
313 565
313 566
313 567
313 568
313 570
313 571
313 572
313 573
313 574
313 578
313 582
313 597
314 315
314 316
314 317
314 318
314 319
314 320
314 322
314 323
314 324
314 325
314 327
314 328
314 329
314 330
314 331
314 333
314 334
314 335
314 336
314 338
314 339
314 340
314 341
314 342
314 343
314 345
314 346
314 347
314 348
314 349
314 351
314 352
314 353
314 354
314 355
314 356
314 357
314 358
314 359
314 360
314 361
314 362
314 363
314 364
314 365
314 366
314 367
314 368
314 369
314 371
314 372
314 373
314 376
314 377
314 378
314 379
314 380
314 381
314 382
314 383
314 384
314 386
314 387
314 388
314 389
314 390
314 391
314 392
314 393
314 394
314 395
314 396
314 397
314 398
314 399
314 401
314 402
314 403
314 404
314 405
314 406
314 407
314 408
314 409
314 410
314 411
314 413
314 416
314 417
314 418
314 419
314 420
314 421
314 422
314 423
314 425
314 426
314 427
314 429
314 430
314 431
314 432
314 433
314 434
314 436
314 437
314 438
314 439
314 440
314 441
314 442
314 443
314 445
314 446
314 449
314 450
314 451
314 453
314 454
314 455
314 456
314 458
314 459
314 460
314 461
314 462
314 463
314 464
314 465
314 466
314 468
314 469
314 472
314 473
314 474
314 476
314 477
314 478
314 479
314 480
314 481
314 482
314 483
314 484
314 486
314 487
314 488
314 489
314 490
314 491
314 492
314 493
314 494
314 495
314 496
314 497
314 498
314 500
314 501
314 502
314 503
314 504
314 505
314 506
314 507
314 508
314 509
314 510
314 511
314 512
314 513
314 514
314 515
314 516
314 517
314 518
314 519
314 521
314 522
314 523
314 524
314 525
314 526
314 527
314 531
314 532
314 533
314 534
314 535
314 536
314 537
314 539
314 540
314 541
314 542
314 543
314 544
314 545
314 546
314 547
314 548
314 549
314 550
314 551
314 552
314 554
314 555
314 556
314 557
314 558
314 559
314 560
314 561
314 562
314 563
314 564
314 565
314 566
314 567
314 568
314 569
314 570
314 571
314 572
314 573
314 579
314 580
314 581
314 583
314 584
314 585
314 586
314 587
314 588
314 589
314 590
314 591
314 592
314 593
314 594
314 595
314 596
314 598
315 316
315 317
315 318
315 319
315 320
315 321
315 322
315 326
315 332
315 337
315 339
315 340
315 341
315 342
315 343
315 344
315 345
315 350
315 370
315 385
315 400
315 412
315 424
315 426
315 427
315 428
315 430
315 431
315 432
315 433
315 434
315 435
315 436
315 444
315 452
315 457
315 467
315 470
315 475
315 485
315 499
315 520
315 532
315 533
315 534
315 535
315 536
315 537
315 538
315 553
315 574
315 578
315 582
315 590
315 591
315 592
315 593
315 594
315 595
315 596
315 597
315 598
316 317
316 318
316 319
316 320
316 321
316 322
316 326
316 332
316 337
316 338
316 340
316 341
316 342
316 343
316 344
316 345
316 350
316 370
316 385
316 400
316 412
316 424
316 427
316 428
316 429
316 431
316 432
316 433
316 434
316 435
316 436
316 444
316 452
316 457
316 467
316 470
316 475
316 485
316 499
316 520
316 531
316 533
316 534
316 535
316 536
316 537
316 538
316 553
316 574
316 578
316 582
316 589
316 590
316 591
316 592
316 596
316 597
316 598
317 318
317 319
317 320
317 321
317 322
317 326
317 332
317 337
317 338
317 339
317 341
317 342
317 343
317 344
317 345
317 350
317 370
317 385
317 400
317 412
317 424
317 426
317 427
317 428
317 429
317 430
317 432
317 433
317 434
317 435
317 436
317 444
317 452
317 457
317 467
317 470
317 475
317 485
317 499
317 520
317 531
317 532
317 534
317 535
317 536
317 537
317 538
317 553
317 574
317 578
317 582
317 589
317 591
317 592
317 593
317 594
317 595
317 596
317 597
317 598
318 319
318 320
318 321
318 322
318 326
318 332
318 337
318 338
318 339
318 340
318 341
318 343
318 344
318 345
318 350
318 370
318 385
318 400
318 412
318 424
318 426
318 427
318 428
318 429
318 430
318 431
318 433
318 434
318 435
318 436
318 444
318 452
318 457
318 467
318 470
318 475
318 485
318 499
318 520
318 531
318 532
318 533
318 535
318 536
318 537
318 538
318 553
318 574
318 578
318 582
318 589
318 590
318 592
318 593
318 594
318 595
318 596
318 597
318 598
319 320
319 321
319 322
319 326
319 332
319 337
319 338
319 339
319 340
319 342
319 343
319 344
319 345
319 350
319 370
319 385
319 400
319 412
319 424
319 426
319 428
319 429
319 430
319 431
319 432
319 434
319 435
319 436
319 444
319 452
319 457
319 467
319 470
319 475
319 485
319 499
319 520
319 531
319 532
319 533
319 534
319 536
319 537
319 538
319 553
319 574
319 578
319 582
319 589
319 590
319 591
319 593
319 594
319 595
319 596
319 597
319 598
320 321
320 322
320 326
320 332
320 337
320 338
320 339
320 340
320 341
320 342
320 344
320 345
320 350
320 370
320 385
320 400
320 412
320 424
320 426
320 427
320 428
320 429
320 430
320 431
320 432
320 433
320 435
320 436
320 444
320 452
320 457
320 467
320 470
320 475
320 485
320 499
320 520
320 531
320 532
320 533
320 534
320 535
320 536
320 538
320 553
320 574
320 578
320 582
320 589
320 590
320 591
320 592
320 593
320 594
320 595
320 597
320 598
321 322
321 323
321 324
321 325
321 327
321 328
321 329
321 330
321 331
321 333
321 334
321 335
321 336
321 338
321 339
321 340
321 341
321 342
321 343
321 345
321 346
321 347
321 348
321 349
321 351
321 352
321 353
321 354
321 355
321 356
321 357
321 358
321 359
321 360
321 361
321 362
321 363
321 364
321 365
321 366
321 367
321 368
321 369
321 371
321 372
321 373
321 376
321 377
321 378
321 379
321 380
321 381
321 382
321 383
321 384
321 386
321 387
321 388
321 389
321 390
321 391
321 392
321 393
321 394
321 395
321 396
321 397
321 398
321 399
321 401
321 402
321 403
321 404
321 405
321 406
321 407
321 408
321 409
321 410
321 411
321 413
321 416
321 417
321 418
321 419
321 420
321 421
321 422
321 423
321 425
321 426
321 427
321 429
321 430
321 431
321 432
321 433
321 434
321 436
321 437
321 438
321 439
321 440
321 441
321 442
321 443
321 445
321 446
321 449
321 450
321 451
321 453
321 454
321 455
321 456
321 458
321 459
321 460
321 461
321 462
321 463
321 464
321 465
321 466
321 468
321 469
321 472
321 473
321 474
321 476
321 477
321 478
321 479
321 480
321 481
321 482
321 483
321 484
321 486
321 488
321 489
321 490
321 491
321 492
321 493
321 494
321 495
321 496
321 497
321 498
321 500
321 501
321 502
321 503
321 504
321 505
321 506
321 507
321 508
321 509
321 510
321 511
321 512
321 513
321 514
321 515
321 516
321 517
321 518
321 519
321 521
321 522
321 523
321 524
321 525
321 526
321 527
321 531
321 532
321 533
321 534
321 535
321 536
321 537
321 539
321 540
321 541
321 542
321 543
321 544
321 545
321 546
321 547
321 548
321 549
321 550
321 551
321 552
321 554
321 555
321 556
321 557
321 558
321 559
321 560
321 561
321 562
321 563
321 564
321 565
321 566
321 567
321 568
321 569
321 570
321 571
321 572
321 573
321 579
321 580
321 581
321 583
321 584
321 585
321 586
321 587
321 588
321 589
321 590
321 591
321 592
321 593
321 594
321 595
321 596
321 598
322 326
322 332
322 337
322 338
322 339
322 340
322 341
322 342
322 343
322 344
322 350
322 370
322 385
322 400
322 412
322 424
322 426
322 427
322 428
322 429
322 430
322 431
322 432
322 433
322 434
322 435
322 444
322 452
322 457
322 467
322 470
322 475
322 485
322 499
322 520
322 531
322 532
322 533
322 534
322 535
322 537
322 538
322 553
322 574
322 578
322 582
322 589
322 590
322 591
322 592
322 593
322 594
322 595
322 596
322 597
323 324
323 325
323 326
323 332
323 337
323 344
323 350
323 355
323 356
323 357
323 359
323 360
323 361
323 362
323 363
323 364
323 365
323 366
323 367
323 368
323 369
323 370
323 371
323 372
323 373
323 376
323 377
323 379
323 380
323 381
323 382
323 383
323 384
323 385
323 398
323 399
323 400
323 412
323 424
323 428
323 435
323 444
323 452
323 457
323 462
323 464
323 465
323 466
323 467
323 470
323 472
323 474
323 475
323 476
323 485
323 499
323 520
323 538
323 539
323 540
323 542
323 543
323 544
323 545
323 546
323 547
323 548
323 549
323 550
323 551
323 552
323 553
323 554
323 555
323 556
323 557
323 558
323 559
323 560
323 561
323 562
323 563
323 564
323 565
323 567
323 568
323 569
323 570
323 571
323 572
323 573
323 574
323 578
323 582
323 597
324 325
324 326
324 332
324 337
324 344
324 350
324 358
324 370
324 378
324 384
324 385
324 386
324 387
324 388
324 389
324 390
324 391
324 392
324 393
324 394
324 395
324 396
324 397
324 399
324 400
324 401
324 402
324 403
324 412
324 424
324 428
324 435
324 444
324 452
324 457
324 463
324 467
324 470
324 473
324 475
324 485
324 499
324 520
324 538
324 541
324 553
324 564
324 565
324 566
324 567
324 568
324 569
324 570
324 571
324 572
324 574
324 578
324 582
324 597
325 326
325 332
325 337
325 344
325 350
325 358
325 370
325 376
325 377
325 378
325 379
325 380
325 381
325 382
325 383
325 385
325 386
325 387
325 388
325 389
325 390
325 391
325 392
325 393
325 394
325 395
325 396
325 397
325 398
325 400
325 401
325 402
325 403
325 412
325 424
325 428
325 435
325 444
325 452
325 457
325 463
325 467
325 470
325 473
325 475
325 485
325 499
325 520
325 538
325 541
325 553
325 566
325 573
325 574
325 578
325 582
325 597
326 327
326 328
326 329
326 330
326 331
326 333
326 334
326 335
326 336
326 338
326 339
326 340
326 341
326 342
326 343
326 345
326 346
326 347
326 348
326 349
326 351
326 352
326 353
326 354
326 355
326 356
326 357
326 358
326 359
326 360
326 361
326 362
326 363
326 364
326 365
326 366
326 367
326 368
326 369
326 371
326 372
326 373
326 376
326 377
326 378
326 379
326 380
326 381
326 382
326 383
326 384
326 386
326 387
326 388
326 389
326 390
326 391
326 392
326 393
326 394
326 395
326 396
326 397
326 398
326 399
326 401
326 402
326 403
326 404
326 405
326 406
326 407
326 408
326 409
326 410
326 411
326 413
326 416
326 417
326 418
326 419
326 420
326 421
326 422
326 423
326 425
326 426
326 427
326 429
326 430
326 431
326 432
326 433
326 434
326 436
326 437
326 438
326 439
326 440
326 441
326 442
326 443
326 445
326 446
326 449
326 450
326 451
326 453
326 454
326 455
326 456
326 458
326 459
326 460
326 461
326 462
326 463
326 464
326 465
326 466
326 468
326 469
326 472
326 473
326 474
326 476
326 477
326 478
326 479
326 480
326 481
326 482
326 483
326 484
326 486
326 488
326 489
326 490
326 491
326 492
326 493
326 494
326 495
326 496
326 497
326 498
326 500
326 501
326 502
326 503
326 504
326 505
326 506
326 507
326 508
326 509
326 510
326 511
326 512
326 513
326 514
326 515
326 516
326 517
326 518
326 519
326 521
326 522
326 523
326 524
326 525
326 526
326 527
326 531
326 532
326 533
326 534
326 535
326 536
326 537
326 539
326 540
326 541
326 542
326 543
326 544
326 545
326 546
326 547
326 548
326 549
326 550
326 551
326 552
326 554
326 555
326 556
326 557
326 558
326 559
326 560
326 561
326 562
326 563
326 564
326 565
326 566
326 567
326 568
326 569
326 570
326 571
326 572
326 573
326 579
326 580
326 581
326 583
326 584
326 585
326 586
326 587
326 588
326 589
326 590
326 591
326 592
326 593
326 594
326 595
326 596
326 598
327 328
327 329
327 330
327 331
327 332
327 333
327 334
327 335
327 337
327 344
327 347
327 348
327 349
327 350
327 351
327 352
327 353
327 354
327 355
327 357
327 358
327 359
327 360
327 361
327 362
327 363
327 364
327 365
327 366
327 367
327 368
327 369
327 370
327 371
327 372
327 373
327 385
327 386
327 387
327 389
327 390
327 391
327 392
327 393
327 394
327 395
327 396
327 397
327 398
327 399
327 400
327 401
327 402
327 403
327 412
327 424
327 428
327 435
327 437
327 439
327 440
327 441
327 442
327 443
327 444
327 445
327 446
327 452
327 454
327 455
327 456
327 457
327 458
327 459
327 460
327 461
327 467
327 470
327 475
327 485
327 488
327 490
327 491
327 492
327 493
327 494
327 495
327 496
327 497
327 498
327 499
327 500
327 501
327 502
327 503
327 504
327 505
327 506
327 507
327 508
327 510
327 511
327 512
327 513
327 514
327 515
327 516
327 517
327 518
327 519
327 520
327 521
327 522
327 523
327 524
327 525
327 526
327 527
327 529
327 530
327 538
327 547
327 548
327 550
327 553
327 555
327 557
327 574
327 578
327 580
327 581
327 582
327 583
327 584
327 585
327 586
327 587
327 588
327 597
328 329
328 330
328 331
328 332
328 333
328 334
328 335
328 337
328 344
328 346
328 348
328 349
328 350
328 351
328 352
328 353
328 354
328 356
328 370
328 385
328 388
328 400
328 412
328 424
328 428
328 435
328 437
328 438
328 439
328 440
328 442
328 443
328 444
328 445
328 446
328 452
328 453
328 454
328 455
328 457
328 458
328 459
328 460
328 461
328 467
328 470
328 475
328 485
328 489
328 495
328 496
328 498
328 499
328 501
328 503
328 507
328 508
328 509
328 510
328 511
328 512
328 513
328 514
328 516
328 517
328 518
328 519
328 520
328 521
328 522
328 523
328 524
328 525
328 526
328 527
328 528
328 538
328 539
328 540
328 541
328 542
328 543
328 544
328 545
328 546
328 548
328 549
328 550
328 551
328 552
328 553
328 554
328 555
328 556
328 557
328 558
328 559
328 560
328 561
328 562
328 563
328 574
328 578
328 579
328 580
328 582
328 583
328 584
328 585
328 586
328 587
328 588
328 597
329 330
329 331
329 332
329 333
329 334
329 335
329 337
329 344
329 346
329 347
329 349
329 350
329 351
329 352
329 353
329 354
329 356
329 370
329 385
329 388
329 400
329 412
329 424
329 428
329 435
329 438
329 441
329 442
329 444
329 445
329 452
329 453
329 456
329 457
329 459
329 467
329 470
329 475
329 485
329 488
329 489
329 490
329 491
329 492
329 493
329 494
329 496
329 497
329 498
329 499
329 500
329 501
329 502
329 503
329 504
329 505
329 506
329 507
329 508
329 509
329 510
329 511
329 512
329 513
329 514
329 515
329 517
329 518
329 519
329 520
329 521
329 522
329 523
329 524
329 525
329 526
329 527
329 528
329 538
329 539
329 540
329 541
329 542
329 543
329 544
329 545
329 546
329 547
329 549
329 550
329 551
329 552
329 553
329 554
329 555
329 556
329 557
329 558
329 559
329 560
329 561
329 562
329 563
329 574
329 578
329 579
329 581
329 582
329 584
329 586
329 597
330 331
330 332
330 333
330 334
330 335
330 337
330 344
330 346
330 347
330 348
330 350
330 351
330 352
330 356
330 370
330 385
330 388
330 400
330 412
330 424
330 428
330 435
330 437
330 438
330 439
330 440
330 441
330 443
330 444
330 445
330 446
330 452
330 453
330 456
330 457
330 459
330 467
330 470
330 475
330 485
330 488
330 489
330 490
330 491
330 492
330 493
330 494
330 495
330 497
330 498
330 499
330 500
330 501
330 502
330 503
330 504
330 505
330 506
330 507
330 508
330 509
330 510
330 511
330 512
330 513
330 514
330 515
330 516
330 518
330 519
330 520
330 521
330 522
330 523
330 524
330 525
330 526
330 527
330 528
330 538
330 539
330 540
330 541
330 542
330 543
330 544
330 545
330 546
330 547
330 548
330 549
330 551
330 552
330 553
330 554
330 555
330 556
330 557
330 558
330 559
330 560
330 561
330 562
330 563
330 574
330 578
330 579
330 581
330 582
330 584
330 586
330 597
331 332
331 333
331 334
331 335
331 337
331 344
331 346
331 347
331 348
331 350
331 351
331 352
331 356
331 370
331 385
331 388
331 400
331 412
331 424
331 428
331 435
331 438
331 441
331 442
331 444
331 445
331 452
331 453
331 456
331 457
331 459
331 467
331 470
331 475
331 485
331 488
331 489
331 490
331 491
331 492
331 493
331 494
331 495
331 496
331 497
331 499
331 500
331 501
331 502
331 503
331 504
331 505
331 506
331 507
331 508
331 509
331 510
331 511
331 512
331 513
331 514
331 515
331 516
331 517
331 518
331 520
331 521
331 522
331 523
331 524
331 525
331 526
331 527
331 528
331 538
331 547
331 548
331 550
331 553
331 555
331 557
331 574
331 578
331 579
331 581
331 582
331 584
331 586
331 597
332 333
332 334
332 335
332 336
332 338
332 339
332 340
332 341
332 342
332 343
332 345
332 346
332 347
332 348
332 349
332 351
332 352
332 353
332 354
332 355
332 356
332 357
332 358
332 359
332 360
332 361
332 362
332 363
332 364
332 365
332 366
332 367
332 368
332 369
332 371
332 372
332 373
332 376
332 377
332 378
332 379
332 380
332 381
332 382
332 383
332 384
332 386
332 387
332 388
332 389
332 390
332 391
332 392
332 393
332 394
332 395
332 396
332 397
332 398
332 399
332 401
332 402
332 403
332 404
332 405
332 406
332 407
332 408
332 409
332 410
332 411
332 413
332 416
332 417
332 418
332 419
332 420
332 421
332 422
332 423
332 425
332 426
332 427
332 429
332 430
332 431
332 432
332 433
332 434
332 436
332 437
332 438
332 439
332 440
332 441
332 442
332 443
332 445
332 446
332 449
332 450
332 451
332 453
332 454
332 455
332 456
332 458
332 459
332 460
332 461
332 462
332 463
332 464
332 465
332 466
332 468
332 469
332 472
332 473
332 474
332 476
332 477
332 478
332 479
332 480
332 481
332 482
332 483
332 484
332 486
332 488
332 489
332 490
332 491
332 492
332 493
332 494
332 495
332 496
332 497
332 498
332 500
332 501
332 502
332 503
332 504
332 505
332 506
332 507
332 508
332 509
332 510
332 511
332 512
332 513
332 514
332 515
332 516
332 517
332 518
332 519
332 521
332 522
332 523
332 524
332 525
332 526
332 527
332 528
332 531
332 532
332 533
332 534
332 535
332 536
332 537
332 539
332 540
332 541
332 542
332 543
332 544
332 545
332 546
332 547
332 548
332 549
332 550
332 551
332 552
332 554
332 555
332 556
332 557
332 558
332 559
332 560
332 561
332 562
332 563
332 564
332 565
332 566
332 567
332 568
332 569
332 570
332 571
332 572
332 573
332 579
332 580
332 581
332 583
332 584
332 585
332 586
332 587
332 588
332 589
332 590
332 591
332 592
332 593
332 594
332 595
332 596
332 598
333 334
333 335
333 337
333 344
333 346
333 347
333 348
333 349
333 350
333 352
333 353
333 354
333 356
333 370
333 385
333 388
333 400
333 412
333 424
333 428
333 435
333 437
333 438
333 439
333 440
333 441
333 442
333 443
333 444
333 446
333 452
333 453
333 454
333 455
333 456
333 457
333 458
333 460
333 461
333 467
333 470
333 475
333 485
333 488
333 489
333 490
333 491
333 492
333 493
333 494
333 495
333 496
333 497
333 498
333 499
333 500
333 502
333 503
333 504
333 505
333 506
333 507
333 509
333 515
333 516
333 517
333 519
333 520
333 523
333 527
333 528
333 538
333 539
333 540
333 541
333 542
333 543
333 544
333 545
333 546
333 547
333 548
333 549
333 550
333 551
333 552
333 553
333 554
333 556
333 557
333 558
333 559
333 560
333 561
333 562
333 563
333 574
333 578
333 579
333 580
333 581
333 582
333 583
333 585
333 586
333 587
333 588
333 597
334 335
334 337
334 344
334 346
334 347
334 348
334 349
334 350
334 351
334 353
334 354
334 356
334 370
334 385
334 388
334 400
334 412
334 424
334 428
334 435
334 438
334 441
334 442
334 444
334 445
334 452
334 453
334 456
334 457
334 459
334 467
334 470
334 475
334 485
334 488
334 489
334 490
334 491
334 492
334 493
334 494
334 495
334 496
334 497
334 498
334 499
334 500
334 501
334 502
334 504
334 505
334 506
334 507
334 508
334 509
334 510
334 511
334 512
334 513
334 514
334 515
334 516
334 517
334 518
334 519
334 520
334 521
334 522
334 524
334 525
334 526
334 527
334 528
334 538
334 539
334 540
334 541
334 542
334 543
334 544
334 545
334 546
334 547
334 548
334 549
334 550
334 551
334 552
334 553
334 554
334 555
334 556
334 558
334 559
334 560
334 561
334 562
334 563
334 574
334 578
334 579
334 580
334 581
334 582
334 583
334 584
334 585
334 587
334 588
334 597
335 337
335 344
335 346
335 347
335 348
335 350
335 351
335 352
335 356
335 370
335 385
335 388
335 400
335 412
335 424
335 428
335 435
335 438
335 441
335 442
335 444
335 445
335 452
335 453
335 456
335 457
335 459
335 467
335 470
335 475
335 485
335 488
335 489
335 490
335 491
335 492
335 493
335 494
335 495
335 496
335 497
335 498
335 499
335 500
335 501
335 502
335 503
335 504
335 505
335 506
335 508
335 509
335 510
335 511
335 512
335 513
335 514
335 515
335 516
335 517
335 518
335 519
335 520
335 521
335 522
335 523
335 524
335 525
335 526
335 528
335 538
335 547
335 548
335 550
335 553
335 555
335 557
335 574
335 578
335 579
335 581
335 582
335 584
335 586
335 597
336 337
336 344
336 350
336 355
336 356
336 357
336 358
336 359
336 360
336 361
336 363
336 364
336 365
336 366
336 367
336 368
336 369
336 370
336 371
336 372
336 373
336 385
336 386
336 387
336 388
336 389
336 390
336 391
336 392
336 394
336 395
336 396
336 397
336 398
336 399
336 400
336 401
336 402
336 403
336 412
336 424
336 428
336 435
336 444
336 452
336 457
336 467
336 469
336 470
336 475
336 485
336 488
336 489
336 490
336 491
336 493
336 494
336 495
336 496
336 497
336 498
336 499
336 500
336 501
336 502
336 503
336 504
336 505
336 506
336 507
336 508
336 509
336 510
336 511
336 513
336 514
336 515
336 516
336 517
336 518
336 519
336 520
336 521
336 522
336 523
336 524
336 525
336 526
336 527
336 538
336 539
336 540
336 541
336 542
336 543
336 545
336 546
336 547
336 548
336 549
336 550
336 551
336 552
336 553
336 554
336 555
336 556
336 557
336 558
336 559
336 560
336 561
336 562
336 563
336 564
336 565
336 566
336 567
336 568
336 570
336 571
336 572
336 573
336 574
336 578
336 582
336 597
337 338
337 339
337 340
337 341
337 342
337 343
337 345
337 346
337 347
337 348
337 349
337 351
337 352
337 353
337 354
337 355
337 356
337 357
337 358
337 359
337 360
337 361
337 362
337 363
337 364
337 365
337 366
337 367
337 368
337 369
337 371
337 372
337 373
337 376
337 377
337 378
337 379
337 380
337 381
337 382
337 383
337 384
337 386
337 387
337 388
337 389
337 390
337 391
337 392
337 393
337 394
337 395
337 396
337 397
337 398
337 399
337 401
337 402
337 403
337 404
337 405
337 406
337 407
337 408
337 409
337 410
337 411
337 413
337 416
337 417
337 418
337 419
337 420
337 421
337 422
337 423
337 425
337 426
337 427
337 429
337 430
337 431
337 432
337 433
337 434
337 436
337 437
337 438
337 439
337 440
337 441
337 442
337 443
337 445
337 446
337 449
337 450
337 451
337 453
337 454
337 455
337 456
337 458
337 459
337 460
337 461
337 462
337 463
337 464
337 465
337 466
337 468
337 469
337 472
337 473
337 474
337 476
337 477
337 478
337 479
337 480
337 481
337 482
337 483
337 484
337 486
337 487
337 488
337 489
337 490
337 491
337 492
337 493
337 494
337 495
337 496
337 497
337 498
337 500
337 501
337 502
337 503
337 504
337 505
337 506
337 507
337 508
337 509
337 510
337 511
337 512
337 513
337 514
337 515
337 516
337 517
337 518
337 519
337 521
337 522
337 523
337 524
337 525
337 526
337 527
337 531
337 532
337 533
337 534
337 535
337 536
337 537
337 539
337 540
337 541
337 542
337 543
337 544
337 545
337 546
337 547
337 548
337 549
337 550
337 551
337 552
337 554
337 555
337 556
337 557
337 558
337 559
337 560
337 561
337 562
337 563
337 564
337 565
337 566
337 567
337 568
337 569
337 570
337 571
337 572
337 573
337 579
337 580
337 581
337 583
337 584
337 585
337 586
337 587
337 588
337 589
337 590
337 591
337 592
337 593
337 594
337 595
337 596
337 598
338 339
338 340
338 341
338 342
338 343
338 344
338 345
338 350
338 370
338 385
338 400
338 412
338 424
338 426
338 427
338 428
338 430
338 431
338 432
338 433
338 434
338 435
338 436
338 444
338 452
338 457
338 467
338 470
338 475
338 485
338 499
338 520
338 532
338 533
338 534
338 535
338 536
338 537
338 538
338 553
338 574
338 578
338 582
338 590
338 591
338 592
338 593
338 594
338 595
338 596
338 597
338 598
339 340
339 341
339 342
339 343
339 344
339 345
339 350
339 370
339 385
339 400
339 412
339 424
339 427
339 428
339 429
339 431
339 432
339 433
339 434
339 435
339 436
339 444
339 452
339 457
339 467
339 470
339 475
339 485
339 499
339 520
339 531
339 533
339 534
339 535
339 536
339 537
339 538
339 553
339 574
339 578
339 582
339 589
339 590
339 592
339 595
339 596
339 597
339 598
340 341
340 342
340 343
340 344
340 345
340 350
340 370
340 385
340 400
340 412
340 424
340 426
340 427
340 428
340 429
340 430
340 432
340 433
340 434
340 435
340 436
340 444
340 452
340 457
340 467
340 470
340 475
340 485
340 499
340 520
340 531
340 532
340 534
340 535
340 536
340 537
340 538
340 553
340 574
340 578
340 582
340 589
340 591
340 592
340 593
340 594
340 595
340 596
340 597
340 598
341 342
341 343
341 344
341 345
341 350
341 370
341 385
341 400
341 412
341 424
341 426
341 428
341 429
341 430
341 431
341 432
341 434
341 435
341 436
341 444
341 452
341 457
341 467
341 470
341 475
341 485
341 499
341 520
341 531
341 532
341 533
341 534
341 536
341 537
341 538
341 553
341 574
341 578
341 582
341 589
341 590
341 591
341 593
341 594
341 595
341 596
341 597
341 598
342 343
342 344
342 345
342 350
342 370
342 385
342 400
342 412
342 424
342 426
342 427
342 428
342 429
342 430
342 431
342 432
342 433
342 435
342 436
342 444
342 452
342 457
342 467
342 470
342 475
342 485
342 499
342 520
342 531
342 532
342 533
342 534
342 535
342 537
342 538
342 553
342 574
342 578
342 582
342 589
342 590
342 591
342 592
342 593
342 594
342 596
342 597
342 598
343 344
343 345
343 350
343 370
343 385
343 400
343 412
343 424
343 426
343 427
343 428
343 429
343 430
343 431
343 433
343 434
343 435
343 436
343 444
343 452
343 457
343 467
343 470
343 475
343 485
343 499
343 520
343 531
343 532
343 533
343 534
343 535
343 536
343 538
343 553
343 574
343 578
343 582
343 589
343 590
343 591
343 592
343 593
343 594
343 595
343 597
343 598
344 345
344 346
344 347
344 348
344 349
344 351
344 352
344 353
344 354
344 355
344 356
344 357
344 358
344 359
344 360
344 361
344 362
344 363
344 364
344 365
344 366
344 367
344 368
344 369
344 371
344 372
344 373
344 376
344 377
344 378
344 379
344 380
344 381
344 382
344 383
344 384
344 386
344 387
344 388
344 389
344 390
344 391
344 392
344 393
344 394
344 395
344 396
344 397
344 398
344 399
344 401
344 402
344 403
344 404
344 405
344 406
344 407
344 408
344 409
344 410
344 411
344 413
344 416
344 417
344 418
344 419
344 420
344 421
344 422
344 423
344 425
344 426
344 427
344 429
344 430
344 431
344 432
344 433
344 434
344 436
344 437
344 438
344 439
344 440
344 441
344 442
344 443
344 445
344 446
344 449
344 450
344 451
344 453
344 454
344 455
344 456
344 458
344 459
344 460
344 461
344 462
344 463
344 464
344 465
344 466
344 468
344 469
344 472
344 473
344 474
344 476
344 477
344 478
344 479
344 480
344 481
344 482
344 483
344 484
344 486
344 488
344 489
344 490
344 491
344 492
344 493
344 494
344 495
344 496
344 497
344 498
344 500
344 501
344 502
344 503
344 504
344 505
344 506
344 507
344 508
344 509
344 510
344 511
344 512
344 513
344 514
344 515
344 516
344 517
344 518
344 519
344 521
344 522
344 523
344 524
344 525
344 526
344 527
344 531
344 532
344 533
344 534
344 535
344 536
344 537
344 539
344 540
344 541
344 542
344 543
344 544
344 545
344 546
344 547
344 548
344 549
344 550
344 551
344 552
344 554
344 555
344 556
344 557
344 558
344 559
344 560
344 561
344 562
344 563
344 564
344 565
344 566
344 567
344 568
344 569
344 570
344 571
344 572
344 573
344 579
344 580
344 581
344 583
344 584
344 585
344 586
344 587
344 588
344 589
344 590
344 591
344 592
344 593
344 594
344 595
344 596
344 598
345 350
345 370
345 385
345 400
345 412
345 424
345 426
345 427
345 428
345 429
345 430
345 431
345 432
345 433
345 434
345 435
345 444
345 452
345 457
345 467
345 470
345 475
345 485
345 499
345 520
345 531
345 532
345 533
345 535
345 536
345 537
345 538
345 553
345 574
345 578
345 582
345 589
345 590
345 591
345 592
345 593
345 594
345 595
345 596
345 597
346 347
346 348
346 349
346 350
346 351
346 352
346 353
346 354
346 355
346 357
346 358
346 359
346 360
346 361
346 362
346 363
346 364
346 365
346 366
346 367
346 368
346 369
346 370
346 371
346 372
346 373
346 385
346 386
346 387
346 389
346 390
346 391
346 392
346 393
346 394
346 395
346 396
346 397
346 398
346 399
346 400
346 401
346 402
346 403
346 412
346 424
346 428
346 435
346 437
346 439
346 440
346 441
346 442
346 443
346 444
346 445
346 446
346 452
346 454
346 455
346 456
346 457
346 458
346 459
346 460
346 461
346 467
346 470
346 475
346 485
346 488
346 490
346 491
346 492
346 493
346 494
346 495
346 496
346 497
346 498
346 499
346 500
346 501
346 502
346 503
346 504
346 505
346 506
346 507
346 508
346 510
346 511
346 512
346 513
346 514
346 515
346 516
346 517
346 518
346 519
346 520
346 521
346 522
346 523
346 524
346 525
346 526
346 527
346 529
346 530
346 538
346 547
346 548
346 551
346 553
346 555
346 557
346 559
346 563
346 574
346 578
346 580
346 581
346 582
346 583
346 584
346 585
346 586
346 587
346 588
346 597
347 348
347 349
347 350
347 351
347 352
347 353
347 354
347 356
347 370
347 385
347 388
347 400
347 412
347 424
347 428
347 435
347 437
347 438
347 439
347 440
347 442
347 443
347 444
347 445
347 446
347 452
347 453
347 454
347 455
347 457
347 458
347 459
347 460
347 461
347 467
347 470
347 475
347 485
347 489
347 495
347 497
347 499
347 501
347 503
347 504
347 506
347 508
347 509
347 510
347 511
347 512
347 513
347 514
347 516
347 517
347 518
347 519
347 520
347 521
347 522
347 523
347 524
347 525
347 526
347 527
347 528
347 538
347 539
347 540
347 541
347 542
347 543
347 544
347 545
347 546
347 548
347 549
347 550
347 551
347 552
347 553
347 554
347 555
347 556
347 557
347 558
347 559
347 560
347 561
347 562
347 563
347 574
347 578
347 579
347 580
347 582
347 583
347 584
347 585
347 586
347 587
347 588
347 597
348 349
348 350
348 351
348 352
348 353
348 354
348 356
348 370
348 385
348 388
348 400
348 412
348 424
348 428
348 435
348 438
348 441
348 443
348 444
348 445
348 446
348 452
348 453
348 456
348 457
348 459
348 461
348 467
348 470
348 475
348 485
348 488
348 489
348 490
348 491
348 492
348 493
348 494
348 496
348 497
348 498
348 499
348 500
348 501
348 502
348 503
348 504
348 505
348 506
348 507
348 508
348 509
348 510
348 511
348 512
348 513
348 514
348 515
348 517
348 518
348 519
348 520
348 521
348 522
348 523
348 524
348 525
348 526
348 527
348 528
348 538
348 539
348 540
348 541
348 542
348 543
348 544
348 545
348 546
348 547
348 549
348 550
348 551
348 552
348 553
348 554
348 555
348 556
348 557
348 558
348 559
348 560
348 561
348 562
348 563
348 574
348 578
348 579
348 581
348 582
348 584
348 586
348 588
348 597
349 350
349 351
349 352
349 353
349 354
349 356
349 370
349 385
349 388
349 400
349 412
349 424
349 428
349 435
349 437
349 438
349 439
349 440
349 441
349 442
349 444
349 445
349 446
349 452
349 453
349 456
349 457
349 459
349 461
349 467
349 470
349 475
349 485
349 488
349 489
349 490
349 491
349 492
349 493
349 494
349 495
349 496
349 498
349 499
349 500
349 501
349 502
349 503
349 504
349 505
349 506
349 507
349 508
349 509
349 510
349 511
349 512
349 513
349 514
349 515
349 516
349 517
349 519
349 520
349 521
349 522
349 523
349 524
349 525
349 526
349 527
349 528
349 538
349 539
349 540
349 541
349 542
349 543
349 544
349 545
349 546
349 547
349 548
349 549
349 550
349 552
349 553
349 554
349 555
349 556
349 557
349 558
349 559
349 560
349 561
349 562
349 563
349 574
349 578
349 579
349 581
349 582
349 584
349 586
349 588
349 597
350 351
350 352
350 353
350 354
350 355
350 356
350 357
350 358
350 359
350 360
350 361
350 362
350 363
350 364
350 365
350 366
350 367
350 368
350 369
350 371
350 372
350 373
350 376
350 377
350 378
350 379
350 380
350 381
350 382
350 383
350 384
350 386
350 387
350 388
350 389
350 390
350 391
350 392
350 393
350 394
350 395
350 396
350 397
350 398
350 399
350 401
350 402
350 403
350 404
350 405
350 406
350 407
350 408
350 409
350 410
350 411
350 413
350 416
350 417
350 418
350 419
350 420
350 421
350 422
350 423
350 425
350 426
350 427
350 429
350 430
350 431
350 432
350 433
350 434
350 436
350 437
350 438
350 439
350 440
350 441
350 442
350 443
350 445
350 446
350 449
350 450
350 451
350 453
350 454
350 455
350 456
350 458
350 459
350 460
350 461
350 462
350 463
350 464
350 465
350 466
350 468
350 469
350 472
350 473
350 474
350 476
350 477
350 478
350 479
350 480
350 481
350 482
350 483
350 484
350 486
350 488
350 489
350 490
350 491
350 492
350 493
350 494
350 495
350 496
350 497
350 498
350 500
350 501
350 502
350 503
350 504
350 505
350 506
350 507
350 508
350 509
350 510
350 511
350 512
350 513
350 514
350 515
350 516
350 517
350 518
350 519
350 521
350 522
350 523
350 524
350 525
350 526
350 527
350 528
350 531
350 532
350 533
350 534
350 535
350 536
350 537
350 539
350 540
350 541
350 542
350 543
350 544
350 545
350 546
350 547
350 548
350 549
350 550
350 551
350 552
350 554
350 555
350 556
350 557
350 558
350 559
350 560
350 561
350 562
350 563
350 564
350 565
350 566
350 567
350 568
350 569
350 570
350 571
350 572
350 573
350 579
350 580
350 581
350 583
350 584
350 585
350 586
350 587
350 588
350 589
350 590
350 591
350 592
350 593
350 594
350 595
350 596
350 598
351 352
351 353
351 354
351 356
351 370
351 385
351 388
351 400
351 412
351 424
351 428
351 435
351 437
351 438
351 439
351 440
351 441
351 442
351 443
351 444
351 446
351 452
351 453
351 454
351 455
351 456
351 457
351 458
351 460
351 461
351 467
351 470
351 475
351 485
351 488
351 489
351 490
351 491
351 492
351 493
351 494
351 495
351 496
351 497
351 498
351 499
351 500
351 502
351 503
351 504
351 505
351 506
351 507
351 509
351 515
351 516
351 518
351 520
351 523
351 524
351 526
351 528
351 538
351 539
351 540
351 541
351 542
351 543
351 544
351 545
351 546
351 547
351 548
351 549
351 550
351 551
351 552
351 553
351 554
351 556
351 557
351 558
351 559
351 560
351 561
351 562
351 563
351 574
351 578
351 579
351 580
351 581
351 582
351 583
351 585
351 586
351 587
351 588
351 597
352 353
352 354
352 356
352 370
352 385
352 388
352 400
352 412
352 424
352 428
352 435
352 438
352 441
352 443
352 444
352 445
352 446
352 452
352 453
352 456
352 457
352 459
352 461
352 467
352 470
352 475
352 485
352 488
352 489
352 490
352 491
352 492
352 493
352 494
352 495
352 496
352 497
352 498
352 499
352 500
352 501
352 502
352 504
352 505
352 506
352 507
352 508
352 509
352 510
352 511
352 512
352 513
352 514
352 515
352 516
352 517
352 518
352 519
352 520
352 521
352 522
352 524
352 525
352 526
352 527
352 528
352 538
352 539
352 540
352 541
352 542
352 543
352 544
352 545
352 546
352 547
352 548
352 549
352 550
352 551
352 552
352 553
352 554
352 555
352 556
352 558
352 559
352 560
352 561
352 562
352 563
352 574
352 578
352 579
352 580
352 581
352 582
352 583
352 584
352 585
352 587
352 588
352 597
353 354
353 356
353 370
353 385
353 388
353 400
353 412
353 424
353 428
353 435
353 437
353 438
353 439
353 440
353 441
353 442
353 443
353 444
353 445
353 452
353 453
353 456
353 457
353 459
353 461
353 467
353 470
353 475
353 485
353 488
353 489
353 490
353 491
353 492
353 493
353 494
353 495
353 496
353 497
353 498
353 499
353 500
353 501
353 502
353 503
353 505
353 506
353 507
353 508
353 509
353 510
353 511
353 512
353 513
353 514
353 515
353 516
353 517
353 518
353 519
353 520
353 521
353 522
353 523
353 525
353 526
353 527
353 528
353 538
353 539
353 540
353 541
353 542
353 543
353 544
353 545
353 546
353 547
353 548
353 549
353 550
353 551
353 552
353 553
353 554
353 555
353 556
353 557
353 558
353 560
353 561
353 562
353 563
353 574
353 578
353 579
353 581
353 582
353 584
353 586
353 588
353 597
354 356
354 370
354 385
354 388
354 400
354 412
354 424
354 428
354 435
354 438
354 441
354 443
354 444
354 445
354 446
354 452
354 453
354 454
354 455
354 456
354 457
354 458
354 459
354 460
354 467
354 470
354 475
354 485
354 488
354 489
354 490
354 491
354 492
354 493
354 494
354 495
354 496
354 497
354 498
354 499
354 500
354 501
354 502
354 503
354 504
354 505
354 507
354 508
354 509
354 510
354 511
354 512
354 513
354 514
354 515
354 516
354 517
354 518
354 519
354 520
354 521
354 522
354 523
354 524
354 525
354 527
354 528
354 538
354 539
354 540
354 541
354 542
354 543
354 544
354 545
354 546
354 547
354 548
354 549
354 550
354 551
354 552
354 553
354 554
354 555
354 556
354 557
354 558
354 559
354 560
354 561
354 562
354 574
354 578
354 579
354 580
354 581
354 582
354 583
354 584
354 585
354 586
354 587
354 597
355 356
355 357
355 358
355 359
355 360
355 361
355 362
355 363
355 364
355 365
355 366
355 367
355 368
355 369
355 370
355 371
355 372
355 373
355 375
355 378
355 383
355 385
355 387
355 388
355 389
355 390
355 391
355 392
355 393
355 394
355 395
355 396
355 397
355 398
355 399
355 400
355 401
355 402
355 403
355 405
355 406
355 407
355 408
355 409
355 410
355 411
355 412
355 413
355 417
355 418
355 419
355 420
355 421
355 422
355 423
355 424
355 425
355 428
355 435
355 438
355 444
355 452
355 453
355 457
355 463
355 464
355 465
355 466
355 467
355 468
355 470
355 473
355 474
355 475
355 476
355 478
355 479
355 480
355 481
355 482
355 483
355 484
355 485
355 486
355 487
355 489
355 492
355 499
355 509
355 512
355 520
355 528
355 538
355 540
355 541
355 542
355 543
355 544
355 545
355 546
355 547
355 548
355 549
355 550
355 551
355 552
355 553
355 554
355 555
355 556
355 557
355 558
355 559
355 560
355 561
355 562
355 563
355 565
355 566
355 567
355 568
355 569
355 570
355 571
355 572
355 573
355 574
355 578
355 579
355 582
355 597
356 357
356 358
356 359
356 360
356 361
356 362
356 363
356 364
356 365
356 366
356 367
356 368
356 369
356 370
356 371
356 372
356 373
356 375
356 378
356 383
356 385
356 386
356 387
356 389
356 390
356 391
356 392
356 393
356 394
356 395
356 396
356 397
356 398
356 399
356 400
356 401
356 402
356 403
356 404
356 405
356 406
356 407
356 408
356 409
356 411
356 412
356 413
356 416
356 417
356 418
356 419
356 420
356 421
356 423
356 424
356 425
356 428
356 435
356 437
356 439
356 440
356 441
356 442
356 443
356 444
356 445
356 446
356 452
356 454
356 455
356 456
356 457
356 458
356 459
356 460
356 461
356 462
356 463
356 464
356 465
356 467
356 468
356 470
356 472
356 473
356 475
356 476
356 477
356 478
356 479
356 480
356 481
356 482
356 484
356 485
356 486
356 487
356 488
356 490
356 491
356 492
356 493
356 494
356 495
356 496
356 497
356 498
356 499
356 500
356 501
356 502
356 503
356 504
356 505
356 506
356 507
356 508
356 510
356 511
356 512
356 513
356 514
356 515
356 516
356 517
356 518
356 519
356 520
356 521
356 522
356 523
356 524
356 525
356 526
356 527
356 529
356 530
356 538
356 539
356 541
356 544
356 553
356 561
356 564
356 566
356 569
356 574
356 578
356 580
356 581
356 582
356 583
356 584
356 585
356 586
356 587
356 588
356 597
357 358
357 359
357 360
357 361
357 362
357 363
357 364
357 365
357 366
357 367
357 368
357 369
357 370
357 371
357 372
357 373
357 375
357 378
357 383
357 385
357 386
357 388
357 390
357 393
357 396
357 400
357 402
357 403
357 404
357 406
357 407
357 408
357 409
357 410
357 411
357 412
357 413
357 416
357 418
357 419
357 420
357 421
357 422
357 423
357 424
357 425
357 428
357 435
357 438
357 444
357 452
357 453
357 457
357 462
357 463
357 464
357 465
357 467
357 468
357 470
357 472
357 473
357 475
357 476
357 477
357 479
357 480
357 481
357 482
357 483
357 484
357 485
357 486
357 487
357 489
357 492
357 499
357 509
357 512
357 520
357 528
357 538
357 539
357 541
357 544
357 553
357 561
357 564
357 566
357 569
357 574
357 578
357 579
357 582
357 597
358 359
358 360
358 361
358 362
358 363
358 364
358 365
358 366
358 367
358 368
358 369
358 370
358 371
358 372
358 373
358 375
358 376
358 377
358 379
358 380
358 381
358 382
358 383
358 384
358 385
358 386
358 388
358 390
358 393
358 396
358 400
358 402
358 403
358 404
358 405
358 406
358 407
358 408
358 409
358 411
358 412
358 413
358 416
358 417
358 418
358 419
358 420
358 421
358 423
358 424
358 425
358 428
358 435
358 438
358 444
358 452
358 453
358 457
358 462
358 464
358 465
358 466
358 467
358 468
358 470
358 472
358 474
358 475
358 476
358 477
358 478
358 479
358 480
358 481
358 482
358 484
358 485
358 486
358 487
358 489
358 492
358 499
358 509
358 512
358 520
358 528
358 538
358 539
358 540
358 542
358 543
358 544
358 545
358 546
358 547
358 548
358 549
358 550
358 551
358 552
358 553
358 554
358 555
358 556
358 557
358 558
358 559
358 560
358 561
358 562
358 563
358 564
358 565
358 567
358 568
358 569
358 570
358 571
358 572
358 573
358 574
358 578
358 579
358 582
358 597
359 360
359 361
359 362
359 363
359 364
359 365
359 366
359 367
359 368
359 369
359 370
359 371
359 372
359 373
359 375
359 378
359 383
359 385
359 386
359 387
359 388
359 389
359 391
359 392
359 393
359 394
359 395
359 396
359 397
359 398
359 399
359 400
359 401
359 402
359 403
359 404
359 405
359 406
359 407
359 408
359 409
359 411
359 412
359 413
359 416
359 417
359 418
359 419
359 420
359 421
359 423
359 424
359 425
359 428
359 435
359 438
359 444
359 452
359 453
359 457
359 462
359 463
359 465
359 466
359 467
359 468
359 470
359 472
359 473
359 475
359 476
359 477
359 478
359 479
359 480
359 481
359 482
359 484
359 485
359 486
359 487
359 489
359 492
359 499
359 509
359 512
359 520
359 528
359 538
359 539
359 541
359 544
359 553
359 561
359 564
359 566
359 569
359 574
359 578
359 579
359 582
359 597
360 361
360 362
360 363
360 364
360 365
360 366
360 367
360 368
360 369
360 370
360 371
360 372
360 373
360 375
360 378
360 383
360 385
360 386
360 388
360 390
360 393
360 396
360 400
360 402
360 403
360 404
360 405
360 407
360 408
360 409
360 410
360 411
360 412
360 413
360 416
360 417
360 419
360 420
360 421
360 422
360 423
360 424
360 425
360 428
360 435
360 438
360 444
360 452
360 453
360 457
360 462
360 463
360 464
360 465
360 467
360 468
360 470
360 472
360 473
360 475
360 476
360 477
360 478
360 479
360 480
360 481
360 482
360 484
360 485
360 486
360 487
360 489
360 492
360 499
360 509
360 512
360 520
360 528
360 538
360 539
360 541
360 544
360 553
360 561
360 564
360 566
360 569
360 574
360 578
360 579
360 582
360 597
361 362
361 363
361 364
361 365
361 366
361 367
361 368
361 369
361 370
361 371
361 372
361 373
361 375
361 378
361 383
361 385
361 386
361 388
361 390
361 393
361 396
361 400
361 402
361 403
361 404
361 405
361 406
361 407
361 408
361 409
361 411
361 412
361 413
361 416
361 417
361 418
361 420
361 421
361 422
361 423
361 424
361 425
361 428
361 435
361 438
361 444
361 452
361 453
361 457
361 462
361 463
361 464
361 465
361 467
361 468
361 470
361 472
361 473
361 475
361 476
361 477
361 478
361 480
361 481
361 482
361 483
361 484
361 485
361 486
361 487
361 489
361 492
361 499
361 509
361 512
361 520
361 528
361 538
361 539
361 541
361 544
361 553
361 561
361 564
361 566
361 569
361 574
361 578
361 579
361 582
361 597
362 363
362 364
362 365
362 366
362 367
362 368
362 369
362 370
362 371
362 372
362 373
362 375
362 378
362 383
362 385
362 386
362 387
362 388
362 389
362 390
362 391
362 392
362 394
362 395
362 396
362 397
362 398
362 399
362 400
362 401
362 402
362 403
362 404
362 405
362 406
362 407
362 408
362 409
362 411
362 412
362 413
362 416
362 417
362 418
362 419
362 420
362 421
362 423
362 424
362 425
362 428
362 435
362 438
362 444
362 452
362 453
362 457
362 462
362 463
362 464
362 465
362 467
362 469
362 470
362 472
362 473
362 475
362 476
362 477
362 478
362 479
362 480
362 481
362 482
362 484
362 485
362 486
362 488
362 489
362 490
362 491
362 493
362 494
362 495
362 496
362 497
362 498
362 499
362 500
362 501
362 502
362 503
362 504
362 505
362 506
362 507
362 508
362 509
362 510
362 511
362 513
362 514
362 515
362 516
362 517
362 518
362 519
362 520
362 521
362 522
362 523
362 524
362 525
362 526
362 527
362 528
362 538
362 539
362 540
362 541
362 542
362 543
362 545
362 546
362 547
362 548
362 549
362 550
362 551
362 552
362 553
362 554
362 555
362 556
362 557
362 558
362 559
362 560
362 561
362 562
362 563
362 564
362 565
362 566
362 567
362 568
362 570
362 571
362 572
362 573
362 574
362 578
362 579
362 582
362 597
363 364
363 365
363 366
363 367
363 368
363 369
363 370
363 371
363 372
363 373
363 375
363 378
363 383
363 385
363 386
363 388
363 390
363 393
363 396
363 400
363 402
363 403
363 404
363 405
363 406
363 408
363 409
363 410
363 411
363 412
363 413
363 416
363 417
363 418
363 419
363 420
363 421
363 423
363 424
363 425
363 428
363 435
363 438
363 444
363 452
363 453
363 457
363 462
363 463
363 464
363 465
363 467
363 468
363 470
363 472
363 473
363 475
363 476
363 477
363 478
363 479
363 481
363 482
363 483
363 484
363 485
363 486
363 487
363 489
363 492
363 499
363 509
363 512
363 520
363 528
363 538
363 539
363 541
363 544
363 553
363 561
363 564
363 566
363 569
363 574
363 578
363 579
363 582
363 597
364 365
364 366
364 367
364 368
364 369
364 370
364 371
364 372
364 373
364 375
364 378
364 383
364 385
364 386
364 388
364 390
364 393
364 396
364 400
364 402
364 403
364 404
364 405
364 406
364 407
364 409
364 410
364 411
364 412
364 413
364 416
364 417
364 418
364 419
364 421
364 422
364 423
364 424
364 425
364 428
364 435
364 438
364 444
364 452
364 453
364 457
364 462
364 463
364 464
364 465
364 467
364 468
364 470
364 472
364 473
364 475
364 476
364 477
364 478
364 479
364 480
364 482
364 483
364 484
364 485
364 486
364 487
364 489
364 492
364 499
364 509
364 512
364 520
364 528
364 538
364 539
364 541
364 544
364 553
364 561
364 564
364 566
364 569
364 574
364 578
364 579
364 582
364 597
365 366
365 367
365 368
365 369
365 370
365 371
365 372
365 373
365 375
365 378
365 383
365 385
365 386
365 388
365 390
365 393
365 396
365 400
365 402
365 403
365 404
365 405
365 406
365 407
365 408
365 409
365 411
365 412
365 413
365 416
365 417
365 418
365 419
365 420
365 421
365 423
365 424
365 425
365 428
365 435
365 438
365 444
365 452
365 453
365 457
365 462
365 463
365 464
365 465
365 467
365 468
365 470
365 472
365 473
365 475
365 476
365 477
365 478
365 479
365 480
365 481
365 482
365 484
365 485
365 486
365 487
365 489
365 492
365 499
365 509
365 512
365 520
365 528
365 538
365 539
365 541
365 544
365 553
365 561
365 564
365 566
365 569
365 574
365 578
365 579
365 582
365 597
366 367
366 368
366 369
366 370
366 371
366 372
366 373
366 375
366 378
366 383
366 385
366 386
366 388
366 390
366 393
366 396
366 400
366 402
366 403
366 404
366 405
366 406
366 407
366 408
366 409
366 411
366 412
366 413
366 416
366 417
366 418
366 419
366 420
366 421
366 423
366 424
366 425
366 428
366 435
366 438
366 444
366 452
366 453
366 457
366 462
366 463
366 464
366 466
366 467
366 468
366 470
366 472
366 473
366 475
366 476
366 477
366 478
366 479
366 480
366 481
366 482
366 484
366 485
366 486
366 487
366 489
366 492
366 499
366 509
366 512
366 520
366 528
366 538
366 539
366 541
366 544
366 553
366 561
366 564
366 566
366 569
366 574
366 578
366 579
366 582
366 597
367 368
367 369
367 370
367 371
367 372
367 373
367 375
367 378
367 383
367 385
367 386
367 388
367 390
367 393
367 396
367 400
367 402
367 403
367 404
367 405
367 406
367 407
367 408
367 410
367 411
367 412
367 413
367 416
367 417
367 418
367 419
367 420
367 422
367 423
367 424
367 425
367 428
367 435
367 438
367 444
367 452
367 453
367 457
367 462
367 463
367 464
367 465
367 467
367 468
367 470
367 472
367 473
367 475
367 476
367 477
367 478
367 479
367 480
367 481
367 483
367 484
367 485
367 486
367 487
367 489
367 492
367 499
367 509
367 512
367 520
367 528
367 538
367 539
367 541
367 544
367 553
367 561
367 564
367 566
367 569
367 574
367 578
367 579
367 582
367 597
368 369
368 370
368 371
368 372
368 373
368 375
368 376
368 377
368 378
368 379
368 380
368 381
368 382
368 384
368 385
368 386
368 387
368 388
368 389
368 390
368 391
368 392
368 393
368 394
368 395
368 397
368 398
368 399
368 400
368 401
368 402
368 403
368 404
368 405
368 406
368 407
368 408
368 409
368 411
368 412
368 413
368 416
368 417
368 418
368 419
368 420
368 421
368 423
368 424
368 425
368 428
368 435
368 438
368 444
368 452
368 453
368 457
368 462
368 463
368 464
368 465
368 467
368 468
368 470
368 472
368 473
368 475
368 476
368 477
368 478
368 479
368 480
368 481
368 482
368 484
368 485
368 486
368 487
368 489
368 492
368 499
368 509
368 512
368 520
368 528
368 538
368 539
368 541
368 544
368 553
368 561
368 564
368 566
368 569
368 574
368 578
368 579
368 582
368 597
369 370
369 371
369 372
369 373
369 375
369 378
369 383
369 385
369 386
369 388
369 390
369 393
369 396
369 400
369 402
369 403
369 404
369 405
369 406
369 407
369 408
369 409
369 410
369 412
369 413
369 416
369 417
369 418
369 419
369 420
369 421
369 422
369 424
369 425
369 428
369 435
369 438
369 444
369 452
369 453
369 457
369 462
369 463
369 464
369 465
369 467
369 468
369 470
369 472
369 473
369 475
369 476
369 477
369 478
369 479
369 480
369 481
369 482
369 483
369 485
369 486
369 487
369 489
369 492
369 499
369 509
369 512
369 520
369 528
369 538
369 539
369 541
369 544
369 553
369 561
369 564
369 566
369 569
369 574
369 578
369 579
369 582
369 597
370 371
370 372
370 373
370 375
370 376
370 377
370 378
370 379
370 380
370 381
370 382
370 383
370 384
370 386
370 387
370 388
370 389
370 390
370 391
370 392
370 393
370 394
370 395
370 396
370 397
370 398
370 399
370 401
370 402
370 403
370 404
370 405
370 406
370 407
370 408
370 409
370 410
370 411
370 413
370 416
370 417
370 418
370 419
370 420
370 421
370 422
370 423
370 425
370 426
370 427
370 429
370 430
370 431
370 432
370 433
370 434
370 436
370 437
370 438
370 439
370 440
370 441
370 442
370 443
370 445
370 446
370 449
370 450
370 451
370 453
370 454
370 455
370 456
370 458
370 459
370 460
370 461
370 462
370 463
370 464
370 465
370 466
370 468
370 469
370 472
370 473
370 474
370 476
370 477
370 478
370 479
370 480
370 481
370 482
370 483
370 484
370 486
370 487
370 488
370 489
370 490
370 491
370 492
370 493
370 494
370 495
370 496
370 497
370 498
370 500
370 501
370 502
370 503
370 504
370 505
370 506
370 507
370 508
370 509
370 510
370 511
370 512
370 513
370 514
370 515
370 516
370 517
370 518
370 519
370 521
370 522
370 523
370 524
370 525
370 526
370 527
370 528
370 531
370 532
370 533
370 534
370 535
370 536
370 537
370 539
370 540
370 541
370 542
370 543
370 544
370 545
370 546
370 547
370 548
370 549
370 550
370 551
370 552
370 554
370 555
370 556
370 557
370 558
370 559
370 560
370 561
370 562
370 563
370 564
370 565
370 566
370 567
370 568
370 569
370 570
370 571
370 572
370 573
370 579
370 580
370 581
370 583
370 584
370 585
370 586
370 587
370 588
370 589
370 590
370 591
370 592
370 593
370 594
370 595
370 596
370 598
371 372
371 373
371 375
371 378
371 383
371 385
371 386
371 388
371 390
371 393
371 396
371 400
371 402
371 403
371 404
371 405
371 406
371 407
371 408
371 409
371 410
371 411
371 412
371 416
371 417
371 418
371 419
371 420
371 421
371 422
371 423
371 424
371 428
371 435
371 438
371 444
371 452
371 453
371 457
371 462
371 463
371 464
371 465
371 467
371 468
371 470
371 472
371 473
371 475
371 476
371 477
371 478
371 479
371 480
371 481
371 482
371 483
371 484
371 485
371 487
371 489
371 492
371 499
371 509
371 512
371 520
371 528
371 538
371 539
371 541
371 544
371 553
371 561
371 564
371 566
371 569
371 574
371 578
371 579
371 582
371 597
372 373
372 375
372 378
372 383
372 385
372 386
372 387
372 388
372 389
372 390
372 391
372 392
372 393
372 394
372 395
372 396
372 397
372 398
372 399
372 400
372 401
372 403
372 404
372 405
372 406
372 407
372 408
372 409
372 411
372 412
372 413
372 416
372 417
372 418
372 419
372 420
372 421
372 423
372 424
372 425
372 428
372 435
372 438
372 444
372 452
372 453
372 457
372 462
372 463
372 464
372 465
372 467
372 468
372 470
372 472
372 473
372 475
372 476
372 477
372 478
372 479
372 480
372 481
372 482
372 484
372 485
372 486
372 487
372 489
372 492
372 499
372 509
372 512
372 520
372 528
372 538
372 539
372 540
372 541
372 542
372 543
372 544
372 545
372 546
372 547
372 548
372 549
372 550
372 551
372 552
372 553
372 554
372 555
372 556
372 557
372 558
372 559
372 560
372 562
372 563
372 564
372 566
372 569
372 574
372 578
372 579
372 582
372 597
373 374
373 378
373 383
373 385
373 386
373 387
373 388
373 389
373 390
373 391
373 392
373 393
373 394
373 395
373 396
373 397
373 398
373 399
373 400
373 401
373 402
373 404
373 405
373 406
373 407
373 408
373 409
373 411
373 412
373 413
373 416
373 417
373 418
373 419
373 420
373 421
373 423
373 424
373 425
373 428
373 435
373 438
373 444
373 452
373 453
373 457
373 462
373 463
373 464
373 465
373 467
373 468
373 470
373 472
373 473
373 474
373 475
373 477
373 478
373 479
373 480
373 481
373 482
373 484
373 485
373 486
373 487
373 489
373 492
373 499
373 509
373 512
373 520
373 528
373 538
373 539
373 541
373 544
373 553
373 561
373 564
373 566
373 569
373 574
373 578
373 579
373 582
373 597
374 375
374 386
374 387
374 388
374 389
374 390
374 391
374 392
374 393
374 394
374 395
374 396
374 398
374 399
374 400
374 401
374 402
374 403
374 404
374 405
374 406
374 407
374 408
374 409
374 411
374 412
374 413
374 416
374 417
374 418
374 419
374 420
374 421
374 423
374 424
374 425
374 462
374 463
374 464
374 465
374 467
374 472
374 473
374 475
374 476
374 477
374 478
374 479
374 480
374 481
374 482
374 484
374 485
374 486
374 539
374 540
374 541
374 542
374 543
374 544
374 545
374 546
374 547
374 548
374 549
374 550
374 551
374 553
374 554
374 555
374 556
374 557
374 558
374 559
374 560
374 561
374 562
374 563
374 564
374 565
374 566
374 567
374 568
374 569
374 570
374 571
374 573
374 574
375 386
375 387
375 388
375 389
375 390
375 391
375 392
375 393
375 394
375 395
375 396
375 397
375 398
375 399
375 400
375 401
375 402
375 410
375 422
375 466
375 472
375 473
375 474
375 475
375 483
375 552
375 572
375 577
376 377
376 378
376 379
376 380
376 381
376 382
376 383
376 384
376 385
376 386
376 388
376 389
376 390
376 391
376 392
376 393
376 394
376 395
376 396
376 397
376 398
376 399
376 400
376 401
376 402
376 403
376 412
376 424
376 428
376 435
376 444
376 449
376 450
376 452
376 457
376 463
376 467
376 470
376 473
376 475
376 485
376 499
376 520
376 538
376 541
376 553
376 565
376 566
376 567
376 568
376 570
376 571
376 574
376 578
376 582
376 597
377 378
377 379
377 380
377 381
377 382
377 383
377 384
377 385
377 386
377 387
377 388
377 390
377 391
377 392
377 393
377 394
377 395
377 396
377 397
377 398
377 399
377 400
377 401
377 402
377 403
377 412
377 424
377 428
377 435
377 444
377 449
377 450
377 452
377 457
377 463
377 467
377 470
377 473
377 475
377 485
377 499
377 520
377 538
377 541
377 553
377 564
377 566
377 567
377 568
377 569
377 570
377 571
377 572
377 573
377 574
377 578
377 582
377 597
378 379
378 380
378 381
378 382
378 383
378 384
378 385
378 387
378 389
378 391
378 392
378 394
378 395
378 396
378 399
378 400
378 412
378 424
378 428
378 435
378 444
378 449
378 450
378 452
378 457
378 462
378 464
378 465
378 466
378 467
378 470
378 472
378 474
378 475
378 476
378 485
378 499
378 520
378 538
378 539
378 540
378 542
378 543
378 544
378 545
378 546
378 547
378 548
378 549
378 550
378 551
378 552
378 553
378 554
378 555
378 556
378 557
378 558
378 559
378 560
378 561
378 562
378 563
378 564
378 565
378 567
378 568
378 569
378 570
378 571
378 572
378 573
378 574
378 578
378 582
378 597
379 380
379 381
379 382
379 383
379 384
379 385
379 386
379 387
379 388
379 389
379 390
379 392
379 393
379 394
379 395
379 396
379 397
379 398
379 399
379 400
379 401
379 402
379 403
379 412
379 424
379 428
379 435
379 444
379 449
379 450
379 452
379 457
379 463
379 467
379 470
379 473
379 475
379 485
379 499
379 520
379 538
379 541
379 553
379 564
379 565
379 566
379 568
379 569
379 570
379 571
379 572
379 573
379 574
379 578
379 582
379 597
380 381
380 382
380 383
380 384
380 385
380 386
380 387
380 388
380 389
380 390
380 391
380 393
380 394
380 395
380 396
380 397
380 398
380 399
380 400
380 401
380 402
380 403
380 412
380 424
380 428
380 435
380 444
380 450
380 451
380 452
380 457
380 463
380 467
380 470
380 473
380 475
380 485
380 499
380 520
380 538
380 541
380 553
380 564
380 565
380 566
380 567
380 569
380 570
380 571
380 572
380 573
380 574
380 578
380 582
380 597
381 382
381 383
381 384
381 385
381 386
381 387
381 388
381 389
381 390
381 391
381 392
381 393
381 395
381 396
381 397
381 398
381 399
381 400
381 401
381 402
381 403
381 412
381 424
381 428
381 435
381 444
381 449
381 451
381 452
381 457
381 463
381 467
381 470
381 473
381 475
381 485
381 499
381 520
381 538
381 541
381 553
381 564
381 565
381 566
381 567
381 568
381 569
381 571
381 572
381 573
381 574
381 578
381 582
381 597
382 383
382 384
382 385
382 386
382 387
382 388
382 389
382 390
382 391
382 392
382 393
382 394
382 396
382 397
382 398
382 399
382 400
382 401
382 402
382 403
382 412
382 424
382 428
382 435
382 444
382 449
382 450
382 452
382 457
382 463
382 467
382 470
382 473
382 475
382 485
382 499
382 520
382 538
382 541
382 553
382 564
382 565
382 566
382 567
382 568
382 569
382 570
382 572
382 573
382 574
382 578
382 582
382 597
383 384
383 385
383 386
383 387
383 388
383 389
383 390
383 391
383 392
383 393
383 394
383 395
383 397
383 398
383 399
383 400
383 401
383 402
383 403
383 412
383 424
383 428
383 435
383 444
383 449
383 450
383 452
383 457
383 463
383 467
383 470
383 473
383 475
383 485
383 499
383 520
383 538
383 541
383 553
383 565
383 566
383 567
383 568
383 570
383 571
383 574
383 578
383 582
383 597
384 385
384 386
384 387
384 388
384 389
384 390
384 391
384 392
384 393
384 394
384 395
384 396
384 397
384 398
384 400
384 401
384 402
384 403
384 412
384 424
384 428
384 435
384 444
384 449
384 450
384 452
384 457
384 463
384 467
384 470
384 473
384 475
384 485
384 499
384 520
384 538
384 541
384 553
384 565
384 566
384 567
384 568
384 570
384 571
384 574
384 578
384 582
384 597
385 386
385 387
385 388
385 389
385 390
385 391
385 392
385 393
385 394
385 395
385 396
385 397
385 398
385 399
385 401
385 402
385 403
385 404
385 405
385 406
385 407
385 408
385 409
385 410
385 411
385 413
385 416
385 417
385 418
385 419
385 420
385 421
385 422
385 423
385 425
385 426
385 427
385 429
385 430
385 431
385 432
385 433
385 434
385 436
385 437
385 438
385 439
385 440
385 441
385 442
385 443
385 445
385 446
385 449
385 450
385 451
385 453
385 454
385 455
385 456
385 458
385 459
385 460
385 461
385 462
385 463
385 464
385 465
385 466
385 468
385 469
385 472
385 473
385 474
385 476
385 477
385 478
385 479
385 480
385 481
385 482
385 483
385 484
385 486
385 488
385 489
385 490
385 491
385 492
385 493
385 494
385 495
385 496
385 497
385 498
385 500
385 501
385 502
385 503
385 504
385 505
385 506
385 507
385 508
385 509
385 510
385 511
385 512
385 513
385 514
385 515
385 516
385 517
385 518
385 519
385 521
385 522
385 523
385 524
385 525
385 526
385 527
385 531
385 532
385 533
385 534
385 535
385 536
385 537
385 539
385 540
385 541
385 542
385 543
385 544
385 545
385 546
385 547
385 548
385 549
385 550
385 551
385 552
385 554
385 555
385 556
385 557
385 558
385 559
385 560
385 561
385 562
385 563
385 564
385 565
385 566
385 567
385 568
385 569
385 570
385 571
385 572
385 573
385 579
385 580
385 581
385 583
385 584
385 585
385 586
385 587
385 588
385 589
385 590
385 591
385 592
385 593
385 594
385 595
385 596
385 598
386 387
386 388
386 389
386 390
386 391
386 392
386 393
386 394
386 395
386 396
386 397
386 398
386 399
386 400
386 401
386 402
386 403
386 405
386 406
386 407
386 408
386 409
386 410
386 411
386 412
386 413
386 417
386 418
386 419
386 420
386 421
386 422
386 423
386 424
386 425
386 428
386 435
386 438
386 444
386 449
386 450
386 452
386 453
386 457
386 463
386 464
386 465
386 466
386 467
386 468
386 470
386 473
386 474
386 475
386 476
386 478
386 479
386 480
386 481
386 482
386 483
386 484
386 485
386 486
386 487
386 489
386 492
386 499
386 509
386 512
386 520
386 528
386 538
386 540
386 541
386 542
386 543
386 544
386 545
386 546
386 547
386 548
386 549
386 550
386 551
386 552
386 553
386 554
386 555
386 556
386 557
386 558
386 559
386 560
386 561
386 562
386 563
386 565
386 566
386 567
386 568
386 569
386 570
386 571
386 572
386 573
386 574
386 577
386 578
386 579
386 582
386 597
387 388
387 389
387 390
387 391
387 392
387 393
387 394
387 395
387 396
387 397
387 398
387 399
387 400
387 401
387 402
387 403
387 404
387 410
387 412
387 416
387 422
387 424
387 428
387 435
387 438
387 444
387 449
387 450
387 452
387 453
387 457
387 462
387 464
387 466
387 467
387 468
387 470
387 472
387 474
387 475
387 476
387 477
387 483
387 485
387 487
387 489
387 492
387 499
387 509
387 512
387 520
387 528
387 538
387 539
387 544
387 552
387 553
387 561
387 564
387 565
387 567
387 568
387 569
387 570
387 571
387 572
387 573
387 574
387 577
387 578
387 579
387 582
387 597
388 389
388 390
388 391
388 392
388 393
388 394
388 395
388 396
388 397
388 398
388 399
388 400
388 401
388 402
388 403
388 404
388 410
388 412
388 416
388 422
388 424
388 428
388 435
388 437
388 439
388 440
388 441
388 442
388 443
388 444
388 445
388 446
388 449
388 450
388 452
388 454
388 455
388 456
388 457
388 458
388 459
388 460
388 461
388 462
388 464
388 466
388 467
388 468
388 470
388 472
388 474
388 475
388 476
388 477
388 483
388 485
388 487
388 488
388 490
388 491
388 492
388 493
388 494
388 495
388 496
388 497
388 498
388 499
388 500
388 501
388 502
388 503
388 504
388 505
388 506
388 507
388 508
388 510
388 511
388 512
388 513
388 514
388 515
388 516
388 517
388 518
388 519
388 520
388 521
388 522
388 523
388 524
388 525
388 526
388 527
388 529
388 530
388 538
388 539
388 544
388 552
388 553
388 561
388 564
388 565
388 567
388 568
388 569
388 570
388 571
388 572
388 573
388 574
388 577
388 578
388 580
388 581
388 582
388 583
388 584
388 585
388 586
388 587
388 588
388 597
389 390
389 391
389 392
389 393
389 394
389 395
389 396
389 397
389 398
389 399
389 400
389 401
389 402
389 403
389 404
389 410
389 412
389 416
389 422
389 424
389 428
389 435
389 438
389 444
389 449
389 450
389 452
389 453
389 457
389 462
389 464
389 466
389 467
389 468
389 470
389 472
389 474
389 475
389 476
389 477
389 483
389 485
389 487
389 489
389 492
389 499
389 509
389 512
389 520
389 528
389 538
389 539
389 544
389 552
389 553
389 561
389 564
389 566
389 567
389 568
389 569
389 570
389 571
389 572
389 573
389 574
389 577
389 578
389 579
389 582
389 597
390 391
390 392
390 393
390 394
390 395
390 396
390 397
390 398
390 399
390 400
390 401
390 402
390 403
390 404
390 410
390 412
390 416
390 422
390 424
390 428
390 435
390 438
390 444
390 449
390 450
390 452
390 453
390 457
390 462
390 463
390 465
390 466
390 467
390 468
390 470
390 472
390 474
390 475
390 476
390 477
390 483
390 485
390 487
390 489
390 492
390 499
390 509
390 512
390 520
390 528
390 538
390 539
390 544
390 552
390 553
390 561
390 564
390 565
390 567
390 568
390 569
390 570
390 571
390 572
390 573
390 574
390 577
390 578
390 579
390 582
390 597
391 392
391 393
391 394
391 395
391 396
391 397
391 398
391 399
391 400
391 401
391 402
391 403
391 404
391 410
391 412
391 416
391 422
391 424
391 428
391 435
391 438
391 444
391 449
391 450
391 452
391 453
391 457
391 462
391 464
391 466
391 467
391 468
391 470
391 472
391 474
391 475
391 476
391 477
391 483
391 485
391 487
391 489
391 492
391 499
391 509
391 512
391 520
391 528
391 538
391 539
391 544
391 552
391 553
391 561
391 564
391 565
391 566
391 568
391 569
391 570
391 571
391 572
391 573
391 574
391 577
391 578
391 579
391 582
391 597
392 393
392 394
392 395
392 396
392 397
392 398
392 399
392 400
392 401
392 402
392 403
392 404
392 410
392 412
392 416
392 422
392 424
392 428
392 435
392 438
392 444
392 450
392 451
392 452
392 453
392 457
392 462
392 464
392 466
392 467
392 468
392 470
392 472
392 474
392 475
392 476
392 477
392 483
392 485
392 487
392 489
392 492
392 499
392 509
392 512
392 520
392 528
392 538
392 539
392 544
392 552
392 553
392 561
392 564
392 565
392 566
392 567
392 569
392 570
392 571
392 572
392 573
392 574
392 577
392 578
392 579
392 582
392 597
393 394
393 395
393 396
393 397
393 398
393 399
393 400
393 401
393 402
393 403
393 404
393 410
393 412
393 416
393 422
393 424
393 428
393 435
393 438
393 444
393 449
393 450
393 452
393 453
393 457
393 462
393 464
393 466
393 467
393 469
393 470
393 472
393 474
393 475
393 476
393 477
393 483
393 485
393 488
393 489
393 490
393 491
393 493
393 494
393 495
393 496
393 497
393 498
393 499
393 500
393 501
393 502
393 503
393 504
393 505
393 506
393 507
393 508
393 509
393 510
393 511
393 513
393 514
393 515
393 516
393 517
393 518
393 519
393 520
393 521
393 522
393 523
393 524
393 525
393 526
393 527
393 528
393 538
393 539
393 540
393 541
393 542
393 543
393 545
393 546
393 547
393 548
393 549
393 550
393 551
393 552
393 553
393 554
393 555
393 556
393 557
393 558
393 559
393 560
393 561
393 562
393 563
393 564
393 565
393 566
393 567
393 568
393 570
393 571
393 572
393 573
393 574
393 577
393 578
393 579
393 582
393 597
394 395
394 396
394 397
394 398
394 399
394 400
394 401
394 402
394 403
394 404
394 410
394 412
394 416
394 422
394 424
394 428
394 435
394 438
394 444
394 449
394 451
394 452
394 453
394 457
394 462
394 464
394 466
394 467
394 468
394 470
394 472
394 474
394 475
394 476
394 477
394 483
394 485
394 487
394 489
394 492
394 499
394 509
394 512
394 520
394 528
394 538
394 539
394 544
394 552
394 553
394 561
394 564
394 565
394 566
394 567
394 568
394 569
394 571
394 572
394 573
394 574
394 577
394 578
394 579
394 582
394 597
395 396
395 397
395 398
395 399
395 400
395 401
395 402
395 403
395 404
395 410
395 412
395 416
395 422
395 424
395 428
395 435
395 438
395 444
395 449
395 450
395 452
395 453
395 457
395 462
395 464
395 466
395 467
395 468
395 470
395 472
395 474
395 475
395 476
395 477
395 483
395 485
395 487
395 489
395 492
395 499
395 509
395 512
395 520
395 528
395 538
395 539
395 544
395 552
395 553
395 561
395 564
395 565
395 566
395 567
395 568
395 569
395 570
395 572
395 573
395 574
395 577
395 578
395 579
395 582
395 597
396 397
396 398
396 399
396 400
396 401
396 402
396 403
396 404
396 410
396 412
396 416
396 422
396 424
396 428
396 435
396 438
396 444
396 449
396 450
396 452
396 453
396 457
396 462
396 464
396 466
396 467
396 468
396 470
396 472
396 474
396 475
396 476
396 477
396 483
396 485
396 487
396 489
396 492
396 499
396 509
396 512
396 520
396 528
396 538
396 539
396 544
396 552
396 553
396 561
396 564
396 565
396 567
396 568
396 569
396 570
396 571
396 572
396 573
396 574
396 577
396 578
396 579
396 582
396 597
397 398
397 399
397 400
397 401
397 402
397 403
397 404
397 405
397 406
397 407
397 408
397 409
397 411
397 412
397 413
397 416
397 417
397 418
397 419
397 420
397 421
397 423
397 424
397 425
397 428
397 435
397 438
397 444
397 449
397 450
397 452
397 453
397 457
397 462
397 463
397 464
397 465
397 467
397 468
397 470
397 472
397 473
397 475
397 476
397 477
397 478
397 479
397 480
397 481
397 482
397 484
397 485
397 486
397 487
397 489
397 492
397 499
397 509
397 512
397 520
397 528
397 538
397 539
397 540
397 541
397 542
397 543
397 544
397 545
397 546
397 547
397 548
397 549
397 550
397 551
397 553
397 554
397 555
397 556
397 557
397 558
397 559
397 560
397 561
397 562
397 563
397 564
397 565
397 566
397 567
397 568
397 569
397 570
397 571
397 573
397 574
397 578
397 579
397 582
397 597
398 399
398 400
398 401
398 402
398 403
398 404
398 410
398 412
398 416
398 422
398 424
398 428
398 435
398 438
398 444
398 449
398 450
398 452
398 453
398 457
398 462
398 464
398 466
398 467
398 468
398 470
398 472
398 474
398 475
398 476
398 477
398 483
398 485
398 487
398 489
398 492
398 499
398 509
398 512
398 520
398 528
398 538
398 539
398 544
398 552
398 553
398 561
398 564
398 565
398 566
398 567
398 568
398 569
398 570
398 571
398 572
398 574
398 577
398 578
398 579
398 582
398 597
399 400
399 401
399 402
399 403
399 404
399 410
399 412
399 416
399 422
399 424
399 428
399 435
399 438
399 444
399 449
399 450
399 452
399 453
399 457
399 462
399 464
399 466
399 467
399 468
399 470
399 472
399 474
399 475
399 476
399 477
399 483
399 485
399 487
399 489
399 492
399 499
399 509
399 512
399 520
399 528
399 538
399 539
399 544
399 552
399 553
399 561
399 564
399 565
399 567
399 568
399 569
399 570
399 571
399 572
399 573
399 574
399 577
399 578
399 579
399 582
399 597
400 401
400 402
400 403
400 404
400 405
400 406
400 407
400 408
400 409
400 410
400 411
400 413
400 416
400 417
400 418
400 419
400 420
400 421
400 422
400 423
400 425
400 426
400 427
400 429
400 430
400 431
400 432
400 433
400 434
400 436
400 437
400 438
400 439
400 440
400 441
400 442
400 443
400 445
400 446
400 449
400 450
400 451
400 453
400 454
400 455
400 456
400 458
400 459
400 460
400 461
400 462
400 463
400 464
400 465
400 466
400 468
400 469
400 472
400 473
400 474
400 476
400 477
400 478
400 479
400 480
400 481
400 482
400 483
400 484
400 486
400 487
400 488
400 489
400 490
400 491
400 492
400 493
400 494
400 495
400 496
400 497
400 498
400 500
400 501
400 502
400 503
400 504
400 505
400 506
400 507
400 508
400 509
400 510
400 511
400 512
400 513
400 514
400 515
400 516
400 517
400 518
400 519
400 521
400 522
400 523
400 524
400 525
400 526
400 527
400 528
400 531
400 532
400 533
400 534
400 535
400 536
400 537
400 539
400 540
400 541
400 542
400 543
400 544
400 545
400 546
400 547
400 548
400 549
400 550
400 551
400 552
400 554
400 555
400 556
400 557
400 558
400 559
400 560
400 561
400 562
400 563
400 564
400 565
400 566
400 567
400 568
400 569
400 570
400 571
400 572
400 573
400 577
400 579
400 580
400 581
400 583
400 584
400 585
400 586
400 587
400 588
400 589
400 590
400 591
400 592
400 593
400 594
400 595
400 596
400 598
401 402
401 403
401 404
401 410
401 412
401 416
401 422
401 424
401 428
401 435
401 438
401 444
401 449
401 450
401 452
401 453
401 457
401 462
401 464
401 466
401 467
401 468
401 470
401 472
401 474
401 475
401 476
401 477
401 483
401 485
401 487
401 489
401 492
401 499
401 509
401 512
401 520
401 528
401 538
401 539
401 544
401 552
401 553
401 561
401 564
401 565
401 567
401 568
401 569
401 570
401 571
401 572
401 573
401 574
401 577
401 578
401 579
401 582
401 597
402 403
402 404
402 410
402 412
402 416
402 422
402 424
402 428
402 435
402 438
402 444
402 449
402 450
402 452
402 453
402 457
402 462
402 464
402 466
402 467
402 468
402 470
402 472
402 474
402 475
402 476
402 477
402 483
402 485
402 487
402 489
402 492
402 499
402 509
402 512
402 520
402 528
402 538
402 539
402 540
402 541
402 542
402 543
402 544
402 545
402 546
402 547
402 548
402 549
402 550
402 551
402 552
402 553
402 554
402 555
402 556
402 557
402 558
402 559
402 560
402 562
402 563
402 564
402 565
402 567
402 568
402 569
402 570
402 571
402 572
402 573
402 574
402 577
402 578
402 579
402 582
402 597
403 404
403 410
403 412
403 416
403 422
403 424
403 428
403 435
403 438
403 444
403 449
403 450
403 452
403 453
403 457
403 462
403 464
403 466
403 467
403 468
403 470
403 472
403 473
403 474
403 475
403 477
403 483
403 485
403 487
403 489
403 492
403 499
403 509
403 512
403 520
403 528
403 538
403 539
403 544
403 552
403 553
403 561
403 564
403 565
403 567
403 568
403 569
403 570
403 571
403 572
403 573
403 574
403 577
403 578
403 579
403 582
403 597
404 405
404 406
404 407
404 408
404 409
404 410
404 411
404 412
404 413
404 417
404 418
404 419
404 420
404 421
404 422
404 423
404 424
404 425
404 428
404 435
404 444
404 452
404 457
404 463
404 464
404 465
404 466
404 467
404 470
404 473
404 474
404 475
404 476
404 478
404 479
404 480
404 481
404 482
404 483
404 484
404 485
404 486
404 499
404 520
404 538
404 540
404 541
404 542
404 543
404 544
404 545
404 546
404 547
404 548
404 549
404 550
404 551
404 552
404 553
404 554
404 555
404 556
404 557
404 558
404 559
404 560
404 561
404 562
404 563
404 565
404 566
404 567
404 568
404 569
404 570
404 571
404 572
404 573
404 574
404 577
404 578
404 582
404 597
405 406
405 407
405 408
405 409
405 410
405 411
405 412
405 413
405 416
405 418
405 419
405 420
405 421
405 422
405 423
405 424
405 425
405 428
405 435
405 444
405 452
405 457
405 462
405 466
405 467
405 470
405 472
405 474
405 475
405 477
405 479
405 480
405 481
405 482
405 483
405 484
405 485
405 486
405 499
405 520
405 538
405 539
405 552
405 553
405 564
405 572
405 574
405 577
405 578
405 582
405 597
406 407
406 408
406 409
406 410
406 411
406 412
406 413
406 416
406 417
406 419
406 420
406 421
406 422
406 423
406 424
406 425
406 428
406 435
406 444
406 452
406 457
406 462
406 466
406 467
406 470
406 472
406 474
406 475
406 477
406 478
406 480
406 481
406 482
406 483
406 484
406 485
406 486
406 499
406 520
406 538
406 539
406 552
406 553
406 564
406 572
406 574
406 577
406 578
406 582
406 597
407 408
407 409
407 410
407 411
407 412
407 413
407 416
407 417
407 418
407 420
407 421
407 422
407 423
407 424
407 425
407 428
407 435
407 444
407 452
407 457
407 462
407 466
407 467
407 470
407 472
407 474
407 475
407 477
407 478
407 479
407 481
407 482
407 483
407 484
407 485
407 486
407 499
407 520
407 538
407 539
407 552
407 553
407 564
407 572
407 574
407 577
407 578
407 582
407 597
408 409
408 410
408 411
408 412
408 413
408 416
408 417
408 418
408 419
408 421
408 422
408 423
408 424
408 425
408 428
408 435
408 444
408 452
408 457
408 462
408 466
408 467
408 470
408 472
408 474
408 475
408 477
408 478
408 479
408 480
408 482
408 483
408 484
408 485
408 486
408 499
408 520
408 538
408 539
408 552
408 553
408 564
408 572
408 574
408 577
408 578
408 582
408 597
409 410
409 411
409 412
409 413
409 416
409 417
409 418
409 419
409 420
409 422
409 423
409 424
409 425
409 428
409 435
409 444
409 452
409 457
409 462
409 466
409 467
409 470
409 472
409 474
409 475
409 477
409 478
409 479
409 480
409 481
409 483
409 484
409 485
409 486
409 499
409 520
409 538
409 539
409 552
409 553
409 564
409 572
409 574
409 577
409 578
409 582
409 597
410 411
410 412
410 413
410 416
410 417
410 418
410 419
410 420
410 421
410 423
410 424
410 425
410 428
410 435
410 444
410 452
410 457
410 462
410 463
410 464
410 465
410 467
410 470
410 472
410 473
410 475
410 476
410 477
410 478
410 479
410 480
410 481
410 482
410 484
410 485
410 486
410 499
410 520
410 538
410 539
410 540
410 541
410 542
410 543
410 544
410 545
410 546
410 547
410 548
410 549
410 550
410 551
410 553
410 554
410 555
410 556
410 557
410 558
410 559
410 560
410 561
410 562
410 563
410 564
410 565
410 566
410 567
410 568
410 569
410 570
410 571
410 573
410 574
410 578
410 582
410 597
411 412
411 413
411 416
411 417
411 418
411 419
411 420
411 421
411 422
411 424
411 425
411 428
411 435
411 444
411 452
411 457
411 462
411 466
411 467
411 470
411 472
411 474
411 475
411 477
411 478
411 479
411 480
411 481
411 482
411 483
411 485
411 486
411 499
411 520
411 538
411 539
411 552
411 553
411 564
411 572
411 574
411 577
411 578
411 582
411 597
412 413
412 416
412 417
412 418
412 419
412 420
412 421
412 422
412 423
412 425
412 426
412 427
412 429
412 430
412 431
412 432
412 433
412 434
412 436
412 437
412 438
412 439
412 440
412 441
412 442
412 443
412 445
412 446
412 449
412 450
412 451
412 453
412 454
412 455
412 456
412 458
412 459
412 460
412 461
412 462
412 463
412 464
412 465
412 466
412 468
412 469
412 472
412 473
412 474
412 476
412 477
412 478
412 479
412 480
412 481
412 482
412 483
412 484
412 486
412 488
412 489
412 490
412 491
412 492
412 493
412 494
412 495
412 496
412 497
412 498
412 500
412 501
412 502
412 503
412 504
412 505
412 506
412 507
412 508
412 509
412 510
412 511
412 512
412 513
412 514
412 515
412 516
412 517
412 518
412 519
412 521
412 522
412 523
412 524
412 525
412 526
412 527
412 531
412 532
412 533
412 534
412 535
412 536
412 537
412 539
412 540
412 541
412 542
412 543
412 544
412 545
412 546
412 547
412 548
412 549
412 550
412 551
412 552
412 554
412 555
412 556
412 557
412 558
412 559
412 560
412 561
412 562
412 563
412 564
412 565
412 566
412 567
412 568
412 569
412 570
412 571
412 572
412 573
412 577
412 579
412 580
412 581
412 583
412 584
412 585
412 586
412 587
412 588
412 589
412 590
412 591
412 592
412 593
412 594
412 595
412 596
412 598
413 416
413 417
413 418
413 419
413 420
413 421
413 422
413 423
413 424
413 428
413 435
413 444
413 452
413 457
413 462
413 466
413 467
413 470
413 472
413 474
413 475
413 477
413 478
413 479
413 480
413 481
413 482
413 483
413 484
413 485
413 499
413 520
413 538
413 539
413 552
413 553
413 564
413 572
413 574
413 577
413 578
413 582
413 597
414 415
414 448
414 576
415 447
415 575
416 417
416 418
416 419
416 420
416 421
416 422
416 423
416 424
416 425
416 428
416 435
416 444
416 452
416 457
416 463
416 464
416 465
416 466
416 467
416 470
416 473
416 474
416 475
416 476
416 478
416 479
416 480
416 481
416 482
416 483
416 484
416 485
416 486
416 499
416 520
416 538
416 540
416 541
416 542
416 543
416 544
416 545
416 546
416 547
416 548
416 549
416 550
416 551
416 552
416 553
416 554
416 555
416 556
416 557
416 558
416 559
416 560
416 561
416 562
416 563
416 565
416 566
416 567
416 568
416 569
416 570
416 571
416 572
416 573
416 574
416 577
416 578
416 582
416 597
417 418
417 419
417 420
417 421
417 422
417 423
417 424
417 425
417 428
417 435
417 444
417 452
417 457
417 462
417 466
417 467
417 470
417 472
417 474
417 475
417 477
417 479
417 480
417 481
417 482
417 483
417 484
417 485
417 486
417 499
417 520
417 538
417 539
417 552
417 553
417 564
417 572
417 574
417 577
417 578
417 582
417 597
418 419
418 420
418 421
418 422
418 423
418 424
418 425
418 428
418 435
418 444
418 452
418 457
418 462
418 466
418 467
418 470
418 472
418 474
418 475
418 477
418 478
418 479
418 481
418 482
418 483
418 484
418 485
418 486
418 499
418 520
418 538
418 539
418 552
418 553
418 564
418 572
418 574
418 577
418 578
418 582
418 597
419 420
419 421
419 422
419 423
419 424
419 425
419 428
419 435
419 444
419 452
419 457
419 462
419 466
419 467
419 470
419 472
419 474
419 475
419 477
419 478
419 480
419 481
419 482
419 483
419 484
419 485
419 486
419 499
419 520
419 538
419 539
419 552
419 553
419 564
419 572
419 574
419 577
419 578
419 582
419 597
420 421
420 422
420 423
420 424
420 425
420 428
420 435
420 444
420 452
420 457
420 462
420 466
420 467
420 470
420 472
420 474
420 475
420 477
420 478
420 479
420 480
420 482
420 483
420 484
420 485
420 486
420 499
420 520
420 538
420 539
420 552
420 553
420 564
420 572
420 574
420 577
420 578
420 582
420 597
421 422
421 423
421 424
421 425
421 428
421 435
421 444
421 452
421 457
421 462
421 466
421 467
421 470
421 472
421 474
421 475
421 477
421 478
421 479
421 480
421 481
421 483
421 484
421 485
421 486
421 499
421 520
421 538
421 539
421 552
421 553
421 564
421 572
421 574
421 577
421 578
421 582
421 597
422 423
422 424
422 425
422 428
422 435
422 444
422 452
422 457
422 462
422 463
422 464
422 465
422 467
422 470
422 472
422 473
422 475
422 476
422 477
422 478
422 479
422 480
422 481
422 482
422 484
422 485
422 486
422 499
422 520
422 538
422 539
422 540
422 541
422 542
422 543
422 544
422 545
422 546
422 547
422 548
422 549
422 550
422 551
422 553
422 554
422 555
422 556
422 557
422 558
422 559
422 560
422 561
422 562
422 563
422 564
422 565
422 566
422 567
422 568
422 569
422 570
422 571
422 573
422 574
422 578
422 582
422 597
423 424
423 425
423 428
423 435
423 444
423 452
423 457
423 462
423 466
423 467
423 470
423 472
423 474
423 475
423 477
423 478
423 479
423 480
423 481
423 482
423 483
423 485
423 486
423 499
423 520
423 538
423 539
423 552
423 553
423 564
423 572
423 574
423 577
423 578
423 582
423 597
424 425
424 426
424 427
424 429
424 430
424 431
424 432
424 433
424 434
424 436
424 437
424 438
424 439
424 440
424 441
424 442
424 443
424 445
424 446
424 449
424 450
424 451
424 453
424 454
424 455
424 456
424 458
424 459
424 460
424 461
424 462
424 463
424 464
424 465
424 466
424 468
424 469
424 472
424 473
424 474
424 476
424 477
424 478
424 479
424 480
424 481
424 482
424 483
424 484
424 486
424 488
424 489
424 490
424 491
424 492
424 493
424 494
424 495
424 496
424 497
424 498
424 500
424 501
424 502
424 503
424 504
424 505
424 506
424 507
424 508
424 509
424 510
424 511
424 512
424 513
424 514
424 515
424 516
424 517
424 518
424 519
424 521
424 522
424 523
424 524
424 525
424 526
424 527
424 531
424 532
424 533
424 534
424 535
424 536
424 537
424 539
424 540
424 541
424 542
424 543
424 544
424 545
424 546
424 547
424 548
424 549
424 550
424 551
424 552
424 554
424 555
424 556
424 557
424 558
424 559
424 560
424 561
424 562
424 563
424 564
424 565
424 566
424 567
424 568
424 569
424 570
424 571
424 572
424 573
424 577
424 579
424 580
424 581
424 583
424 584
424 585
424 586
424 587
424 588
424 589
424 590
424 591
424 592
424 593
424 594
424 595
424 596
424 598
425 428
425 435
425 444
425 452
425 457
425 462
425 466
425 467
425 470
425 472
425 474
425 475
425 477
425 478
425 479
425 480
425 481
425 482
425 483
425 484
425 485
425 499
425 520
425 538
425 539
425 552
425 553
425 564
425 572
425 574
425 577
425 578
425 582
425 597
426 427
426 428
426 429
426 431
426 432
426 433
426 434
426 435
426 436
426 444
426 452
426 457
426 467
426 470
426 475
426 485
426 499
426 520
426 531
426 533
426 534
426 535
426 536
426 537
426 538
426 553
426 574
426 578
426 582
426 592
426 597
427 428
427 429
427 430
427 431
427 432
427 434
427 435
427 436
427 444
427 452
427 457
427 467
427 470
427 475
427 485
427 499
427 520
427 531
427 532
427 533
427 534
427 536
427 537
427 538
427 553
427 574
427 578
427 582
427 589
427 590
427 591
427 593
427 594
427 595
427 596
427 597
427 598
428 429
428 430
428 431
428 432
428 433
428 434
428 436
428 437
428 438
428 439
428 440
428 441
428 442
428 443
428 445
428 446
428 449
428 450
428 451
428 453
428 454
428 455
428 456
428 458
428 459
428 460
428 461
428 462
428 463
428 464
428 465
428 466
428 468
428 469
428 472
428 473
428 474
428 476
428 477
428 478
428 479
428 480
428 481
428 482
428 483
428 484
428 486
428 488
428 489
428 490
428 491
428 492
428 493
428 494
428 495
428 496
428 497
428 498
428 500
428 501
428 502
428 503
428 504
428 505
428 506
428 507
428 508
428 509
428 510
428 511
428 512
428 513
428 514
428 515
428 516
428 517
428 518
428 519
428 521
428 522
428 523
428 524
428 525
428 526
428 527
428 531
428 532
428 533
428 534
428 535
428 536
428 537
428 539
428 540
428 541
428 542
428 543
428 544
428 545
428 546
428 547
428 548
428 549
428 550
428 551
428 552
428 554
428 555
428 556
428 557
428 558
428 559
428 560
428 561
428 562
428 563
428 564
428 565
428 566
428 567
428 568
428 569
428 570
428 571
428 572
428 573
428 579
428 580
428 581
428 583
428 584
428 585
428 586
428 587
428 588
428 589
428 590
428 591
428 592
428 593
428 594
428 595
428 596
428 598
429 430
429 431
429 432
429 433
429 434
429 435
429 436
429 444
429 452
429 457
429 467
429 470
429 475
429 485
429 499
429 520
429 532
429 533
429 534
429 535
429 536
429 537
429 538
429 553
429 574
429 578
429 582
429 590
429 591
429 592
429 593
429 594
429 595
429 596
429 597
429 598
430 431
430 432
430 433
430 434
430 435
430 436
430 444
430 452
430 457
430 467
430 470
430 475
430 485
430 499
430 520
430 531
430 533
430 534
430 535
430 536
430 537
430 538
430 553
430 574
430 578
430 582
430 589
430 590
430 591
430 592
430 595
430 597
430 598
431 432
431 433
431 434
431 435
431 436
431 444
431 452
431 457
431 467
431 470
431 475
431 485
431 499
431 520
431 531
431 532
431 534
431 535
431 536
431 537
431 538
431 553
431 574
431 578
431 582
431 589
431 591
431 592
431 593
431 594
431 595
431 596
431 597
431 598
432 433
432 434
432 435
432 436
432 444
432 452
432 457
432 467
432 470
432 475
432 485
432 499
432 520
432 531
432 532
432 533
432 535
432 536
432 537
432 538
432 553
432 574
432 578
432 582
432 589
432 590
432 592
432 593
432 594
432 595
432 596
432 597
432 598
433 434
433 435
433 436
433 444
433 452
433 457
433 467
433 470
433 475
433 485
433 499
433 520
433 531
433 532
433 533
433 534
433 536
433 537
433 538
433 553
433 574
433 578
433 582
433 589
433 590
433 591
433 593
433 594
433 595
433 596
433 597
433 598
434 435
434 436
434 444
434 452
434 457
434 467
434 470
434 475
434 485
434 499
434 520
434 531
434 532
434 533
434 534
434 535
434 537
434 538
434 553
434 574
434 578
434 582
434 589
434 590
434 591
434 592
434 593
434 594
434 596
434 597
434 598
435 436
435 437
435 438
435 439
435 440
435 441
435 442
435 443
435 445
435 446
435 449
435 450
435 451
435 453
435 454
435 455
435 456
435 458
435 459
435 460
435 461
435 462
435 463
435 464
435 465
435 466
435 468
435 469
435 472
435 473
435 474
435 476
435 477
435 478
435 479
435 480
435 481
435 482
435 483
435 484
435 486
435 488
435 489
435 490
435 491
435 492
435 493
435 494
435 495
435 496
435 497
435 498
435 500
435 501
435 502
435 503
435 504
435 505
435 506
435 507
435 508
435 509
435 510
435 511
435 512
435 513
435 514
435 515
435 516
435 517
435 518
435 519
435 521
435 522
435 523
435 524
435 525
435 526
435 527
435 531
435 532
435 533
435 534
435 535
435 536
435 537
435 539
435 540
435 541
435 542
435 543
435 544
435 545
435 546
435 547
435 548
435 549
435 550
435 551
435 552
435 554
435 555
435 556
435 557
435 558
435 559
435 560
435 561
435 562
435 563
435 564
435 565
435 566
435 567
435 568
435 569
435 570
435 571
435 572
435 573
435 579
435 580
435 581
435 583
435 584
435 585
435 586
435 587
435 588
435 589
435 590
435 591
435 592
435 593
435 594
435 595
435 596
435 598
436 444
436 452
436 457
436 467
436 470
436 475
436 485
436 499
436 520
436 531
436 532
436 533
436 534
436 535
436 536
436 538
436 553
436 574
436 578
436 582
436 589
436 590
436 591
436 592
436 593
436 594
436 595
436 596
436 597
437 438
437 439
437 440
437 441
437 442
437 443
437 444
437 445
437 446
437 452
437 453
437 455
437 456
437 457
437 459
437 467
437 470
437 475
437 485
437 489
437 490
437 491
437 492
437 493
437 494
437 495
437 496
437 497
437 498
437 499
437 500
437 501
437 502
437 503
437 504
437 505
437 506
437 507
437 509
437 510
437 511
437 512
437 513
437 514
437 515
437 516
437 517
437 518
437 519
437 520
437 521
437 522
437 523
437 524
437 525
437 526
437 527
437 528
437 538
437 539
437 541
437 542
437 543
437 544
437 545
437 546
437 547
437 548
437 549
437 550
437 551
437 552
437 553
437 554
437 555
437 556
437 557
437 558
437 559
437 560
437 561
437 562
437 563
437 574
437 578
437 579
437 581
437 582
437 584
437 597
438 439
438 440
438 441
438 442
438 443
438 444
438 445
438 446
438 452
438 454
438 455
438 456
438 457
438 458
438 459
438 460
438 461
438 467
438 470
438 475
438 485
438 488
438 490
438 491
438 492
438 493
438 494
438 495
438 496
438 497
438 498
438 499
438 500
438 501
438 502
438 503
438 504
438 505
438 506
438 507
438 508
438 510
438 511
438 512
438 513
438 514
438 515
438 516
438 517
438 518
438 519
438 520
438 521
438 522
438 523
438 524
438 525
438 526
438 527
438 529
438 530
438 538
438 540
438 542
438 545
438 547
438 550
438 551
438 553
438 555
438 559
438 574
438 578
438 580
438 581
438 582
438 583
438 584
438 585
438 586
438 587
438 588
438 597
439 440
439 441
439 442
439 443
439 444
439 445
439 446
439 452
439 453
439 455
439 456
439 457
439 459
439 467
439 470
439 475
439 485
439 488
439 489
439 491
439 492
439 493
439 494
439 495
439 496
439 497
439 498
439 499
439 500
439 501
439 502
439 503
439 504
439 505
439 506
439 507
439 508
439 509
439 511
439 512
439 513
439 514
439 515
439 516
439 517
439 518
439 519
439 520
439 521
439 522
439 523
439 524
439 525
439 526
439 527
439 528
439 538
439 539
439 540
439 541
439 543
439 544
439 545
439 546
439 547
439 548
439 549
439 550
439 551
439 552
439 553
439 554
439 555
439 556
439 557
439 558
439 559
439 560
439 561
439 562
439 563
439 574
439 578
439 579
439 581
439 582
439 584
439 597
440 441
440 442
440 443
440 444
440 445
440 446
440 452
440 453
440 454
440 456
440 457
440 458
440 459
440 460
440 461
440 467
440 470
440 475
440 485
440 488
440 489
440 490
440 491
440 492
440 494
440 495
440 496
440 497
440 498
440 499
440 500
440 501
440 502
440 503
440 504
440 505
440 506
440 507
440 508
440 509
440 510
440 511
440 512
440 514
440 515
440 516
440 517
440 518
440 519
440 520
440 521
440 522
440 523
440 524
440 525
440 526
440 527
440 528
440 538
440 539
440 540
440 541
440 542
440 543
440 544
440 546
440 547
440 548
440 549
440 550
440 551
440 552
440 553
440 554
440 555
440 556
440 557
440 558
440 559
440 560
440 561
440 562
440 563
440 574
440 578
440 579
440 581
440 582
440 584
440 597
441 442
441 443
441 444
441 445
441 446
441 452
441 453
441 454
441 455
441 457
441 458
441 459
441 460
441 461
441 467
441 470
441 475
441 485
441 488
441 489
441 490
441 493
441 496
441 497
441 499
441 501
441 504
441 508
441 509
441 510
441 511
441 512
441 513
441 514
441 516
441 517
441 518
441 519
441 520
441 521
441 522
441 523
441 524
441 525
441 526
441 527
441 528
441 538
441 539
441 540
441 541
441 542
441 543
441 544
441 545
441 546
441 548
441 549
441 550
441 551
441 552
441 553
441 554
441 555
441 556
441 557
441 558
441 559
441 560
441 561
441 562
441 563
441 574
441 578
441 579
441 580
441 582
441 583
441 584
441 585
441 586
441 587
441 588
441 597
442 443
442 444
442 445
442 446
442 452
442 453
442 455
442 456
442 457
442 459
442 467
442 470
442 475
442 485
442 488
442 489
442 490
442 491
442 492
442 493
442 494
442 495
442 497
442 498
442 499
442 500
442 501
442 502
442 503
442 504
442 505
442 506
442 507
442 508
442 509
442 510
442 511
442 512
442 513
442 514
442 515
442 516
442 518
442 519
442 520
442 521
442 522
442 523
442 524
442 525
442 526
442 527
442 528
442 538
442 539
442 540
442 541
442 542
442 543
442 544
442 545
442 546
442 547
442 548
442 549
442 551
442 552
442 553
442 554
442 555
442 556
442 557
442 558
442 559
442 560
442 561
442 562
442 563
442 574
442 578
442 579
442 581
442 582
442 584
442 597
443 444
443 445
443 446
443 452
443 453
443 455
443 456
443 457
443 459
443 467
443 470
443 475
443 485
443 488
443 489
443 490
443 491
443 492
443 493
443 494
443 495
443 496
443 498
443 499
443 500
443 501
443 502
443 503
443 504
443 505
443 506
443 507
443 508
443 509
443 510
443 511
443 512
443 513
443 514
443 515
443 516
443 517
443 519
443 520
443 521
443 522
443 523
443 524
443 525
443 526
443 527
443 528
443 538
443 539
443 540
443 541
443 542
443 543
443 544
443 545
443 546
443 547
443 548
443 549
443 550
443 552
443 553
443 554
443 555
443 556
443 557
443 558
443 559
443 560
443 561
443 562
443 563
443 574
443 578
443 579
443 581
443 582
443 584
443 597
444 445
444 446
444 449
444 450
444 451
444 453
444 454
444 455
444 456
444 458
444 459
444 460
444 461
444 462
444 463
444 464
444 465
444 466
444 468
444 469
444 472
444 473
444 474
444 476
444 477
444 478
444 479
444 480
444 481
444 482
444 483
444 484
444 486
444 488
444 489
444 490
444 491
444 492
444 493
444 494
444 495
444 496
444 497
444 498
444 500
444 501
444 502
444 503
444 504
444 505
444 506
444 507
444 508
444 509
444 510
444 511
444 512
444 513
444 514
444 515
444 516
444 517
444 518
444 519
444 521
444 522
444 523
444 524
444 525
444 526
444 527
444 528
444 531
444 532
444 533
444 534
444 535
444 536
444 537
444 539
444 540
444 541
444 542
444 543
444 544
444 545
444 546
444 547
444 548
444 549
444 550
444 551
444 552
444 554
444 555
444 556
444 557
444 558
444 559
444 560
444 561
444 562
444 563
444 564
444 565
444 566
444 567
444 568
444 569
444 570
444 571
444 572
444 573
444 579
444 580
444 581
444 583
444 584
444 585
444 586
444 587
444 588
444 589
444 590
444 591
444 592
444 593
444 594
444 595
444 596
444 598
445 446
445 452
445 453
445 454
445 455
445 456
445 457
445 458
445 460
445 461
445 467
445 470
445 475
445 485
445 488
445 489
445 490
445 491
445 492
445 493
445 494
445 495
445 496
445 497
445 498
445 499
445 500
445 502
445 503
445 504
445 505
445 506
445 507
445 508
445 509
445 510
445 513
445 515
445 517
445 518
445 520
445 524
445 528
445 538
445 539
445 540
445 541
445 542
445 543
445 544
445 545
445 546
445 547
445 548
445 549
445 550
445 551
445 552
445 553
445 554
445 556
445 557
445 558
445 559
445 560
445 561
445 562
445 563
445 574
445 578
445 579
445 580
445 581
445 582
445 583
445 585
445 586
445 587
445 588
445 597
446 452
446 453
446 455
446 456
446 457
446 459
446 467
446 470
446 475
446 485
446 488
446 489
446 490
446 491
446 492
446 493
446 494
446 495
446 496
446 497
446 498
446 499
446 500
446 501
446 502
446 503
446 505
446 506
446 507
446 508
446 509
446 510
446 511
446 512
446 513
446 514
446 515
446 516
446 517
446 518
446 519
446 520
446 521
446 522
446 523
446 525
446 526
446 527
446 528
446 538
446 539
446 540
446 541
446 542
446 543
446 544
446 545
446 546
446 547
446 548
446 549
446 550
446 551
446 552
446 553
446 554
446 555
446 556
446 557
446 558
446 560
446 561
446 562
446 563
446 574
446 578
446 579
446 581
446 582
446 584
446 597
447 448
447 575
448 576
449 450
449 451
449 452
449 457
449 467
449 470
449 475
449 485
449 499
449 520
449 538
449 553
449 564
449 565
449 566
449 567
449 569
449 570
449 571
449 572
449 573
449 574
449 578
449 582
449 597
450 451
450 452
450 457
450 467
450 470
450 475
450 485
450 499
450 520
450 538
450 553
450 564
450 565
450 566
450 567
450 568
450 569
450 571
450 572
450 573
450 574
450 578
450 582
450 597
451 452
451 457
451 467
451 470
451 475
451 485
451 499
451 520
451 538
451 553
451 568
451 570
451 574
451 578
451 582
451 597
452 453
452 454
452 455
452 456
452 458
452 459
452 460
452 461
452 462
452 463
452 464
452 465
452 466
452 468
452 469
452 472
452 473
452 474
452 476
452 477
452 478
452 479
452 480
452 481
452 482
452 483
452 484
452 486
452 488
452 489
452 490
452 491
452 492
452 493
452 494
452 495
452 496
452 497
452 498
452 500
452 501
452 502
452 503
452 504
452 505
452 506
452 507
452 508
452 509
452 510
452 511
452 512
452 513
452 514
452 515
452 516
452 517
452 518
452 519
452 521
452 522
452 523
452 524
452 525
452 526
452 527
452 531
452 532
452 533
452 534
452 535
452 536
452 537
452 539
452 540
452 541
452 542
452 543
452 544
452 545
452 546
452 547
452 548
452 549
452 550
452 551
452 552
452 554
452 555
452 556
452 557
452 558
452 559
452 560
452 561
452 562
452 563
452 564
452 565
452 566
452 567
452 568
452 569
452 570
452 571
452 572
452 573
452 579
452 580
452 581
452 583
452 584
452 585
452 586
452 587
452 588
452 589
452 590
452 591
452 592
452 593
452 594
452 595
452 596
452 598
453 454
453 455
453 456
453 457
453 458
453 459
453 460
453 461
453 467
453 470
453 475
453 485
453 488
453 490
453 491
453 492
453 493
453 494
453 495
453 496
453 497
453 498
453 499
453 500
453 501
453 502
453 503
453 504
453 505
453 506
453 507
453 508
453 510
453 511
453 512
453 513
453 514
453 515
453 516
453 517
453 518
453 519
453 520
453 521
453 522
453 523
453 524
453 525
453 526
453 527
453 529
453 530
453 538
453 543
453 545
453 547
453 553
453 554
453 555
453 556
453 563
453 574
453 578
453 580
453 581
453 582
453 583
453 584
453 585
453 586
453 587
453 588
453 597
454 455
454 456
454 457
454 458
454 459
454 460
454 461
454 467
454 470
454 475
454 485
454 488
454 489
454 490
454 492
454 493
454 494
454 495
454 496
454 497
454 498
454 499
454 500
454 501
454 502
454 503
454 504
454 505
454 506
454 507
454 508
454 509
454 510
454 512
454 513
454 514
454 515
454 516
454 517
454 518
454 519
454 520
454 521
454 522
454 523
454 524
454 525
454 526
454 527
454 528
454 538
454 539
454 540
454 541
454 542
454 544
454 545
454 546
454 547
454 548
454 549
454 550
454 551
454 552
454 553
454 554
454 555
454 556
454 557
454 558
454 559
454 560
454 561
454 562
454 563
454 574
454 578
454 579
454 581
454 582
454 583
454 584
454 585
454 586
454 587
454 588
454 597
455 456
455 457
455 458
455 459
455 460
455 461
455 467
455 470
455 475
455 485
455 488
455 489
455 490
455 491
455 492
455 494
455 495
455 496
455 497
455 498
455 499
455 500
455 501
455 502
455 503
455 504
455 505
455 506
455 507
455 508
455 509
455 510
455 511
455 512
455 514
455 515
455 516
455 517
455 518
455 519
455 520
455 521
455 522
455 523
455 524
455 525
455 526
455 527
455 528
455 538
455 539
455 540
455 541
455 542
455 543
455 544
455 546
455 547
455 548
455 549
455 550
455 551
455 552
455 553
455 554
455 555
455 556
455 557
455 558
455 559
455 560
455 561
455 562
455 563
455 574
455 578
455 579
455 580
455 581
455 582
455 583
455 584
455 585
455 588
455 597
456 457
456 458
456 459
456 460
456 461
456 467
456 470
456 475
456 485
456 489
456 491
456 493
456 499
456 500
456 501
456 502
456 506
456 508
456 509
456 510
456 511
456 512
456 513
456 514
456 516
456 517
456 518
456 519
456 520
456 521
456 522
456 523
456 524
456 525
456 526
456 527
456 528
456 538
456 539
456 540
456 541
456 542
456 543
456 544
456 545
456 546
456 548
456 549
456 550
456 551
456 552
456 553
456 554
456 555
456 556
456 557
456 558
456 559
456 560
456 561
456 562
456 563
456 574
456 578
456 579
456 580
456 582
456 583
456 584
456 585
456 586
456 587
456 588
456 597
457 458
457 459
457 460
457 461
457 462
457 463
457 464
457 465
457 466
457 468
457 469
457 472
457 473
457 474
457 476
457 477
457 478
457 479
457 480
457 481
457 482
457 483
457 484
457 486
457 488
457 489
457 490
457 491
457 492
457 493
457 494
457 495
457 496
457 497
457 498
457 500
457 501
457 502
457 503
457 504
457 505
457 506
457 507
457 508
457 509
457 510
457 511
457 512
457 513
457 514
457 515
457 516
457 517
457 518
457 519
457 521
457 522
457 523
457 524
457 525
457 526
457 527
457 528
457 531
457 532
457 533
457 534
457 535
457 536
457 537
457 539
457 540
457 541
457 542
457 543
457 544
457 545
457 546
457 547
457 548
457 549
457 550
457 551
457 552
457 554
457 555
457 556
457 557
457 558
457 559
457 560
457 561
457 562
457 563
457 564
457 565
457 566
457 567
457 568
457 569
457 570
457 571
457 572
457 573
457 579
457 580
457 581
457 583
457 584
457 585
457 586
457 587
457 588
457 589
457 590
457 591
457 592
457 593
457 594
457 595
457 596
457 598
458 459
458 460
458 461
458 467
458 470
458 475
458 485
458 488
458 489
458 490
458 491
458 492
458 493
458 494
458 495
458 496
458 497
458 498
458 499
458 501
458 502
458 503
458 504
458 505
458 506
458 507
458 508
458 509
458 510
458 511
458 512
458 513
458 514
458 515
458 516
458 517
458 518
458 519
458 520
458 522
458 523
458 524
458 525
458 526
458 527
458 528
458 538
458 539
458 540
458 541
458 542
458 543
458 544
458 545
458 546
458 547
458 548
458 549
458 550
458 551
458 552
458 553
458 555
458 556
458 557
458 558
458 559
458 560
458 561
458 562
458 563
458 574
458 578
458 579
458 580
458 581
458 582
458 584
458 585
458 586
458 587
458 588
458 597
459 460
459 461
459 467
459 470
459 475
459 485
459 488
459 489
459 490
459 491
459 492
459 493
459 494
459 495
459 496
459 497
459 498
459 499
459 500
459 502
459 503
459 504
459 505
459 506
459 507
459 509
459 511
459 513
459 515
459 520
459 521
459 522
459 526
459 528
459 538
459 539
459 540
459 541
459 542
459 543
459 544
459 545
459 546
459 547
459 548
459 549
459 550
459 551
459 552
459 553
459 554
459 556
459 557
459 558
459 559
459 560
459 561
459 562
459 563
459 574
459 578
459 579
459 580
459 581
459 582
459 583
459 585
459 586
459 587
459 588
459 597
460 461
460 467
460 470
460 475
460 485
460 488
460 489
460 490
460 491
460 492
460 493
460 494
460 495
460 496
460 497
460 498
460 499
460 500
460 501
460 503
460 504
460 505
460 506
460 507
460 508
460 509
460 510
460 511
460 512
460 513
460 514
460 515
460 516
460 517
460 518
460 519
460 520
460 521
460 523
460 524
460 525
460 526
460 527
460 528
460 538
460 539
460 540
460 541
460 542
460 543
460 544
460 545
460 546
460 547
460 548
460 549
460 550
460 551
460 552
460 553
460 554
460 555
460 557
460 558
460 559
460 560
460 561
460 562
460 563
460 574
460 578
460 579
460 580
460 581
460 582
460 583
460 584
460 586
460 587
460 588
460 597
461 467
461 470
461 475
461 485
461 488
461 489
461 490
461 491
461 492
461 493
461 494
461 495
461 496
461 497
461 498
461 499
461 500
461 501
461 502
461 503
461 504
461 505
461 507
461 508
461 509
461 510
461 511
461 512
461 513
461 514
461 515
461 516
461 517
461 518
461 519
461 520
461 521
461 522
461 523
461 524
461 525
461 527
461 528
461 538
461 539
461 540
461 541
461 542
461 543
461 544
461 545
461 546
461 547
461 548
461 549
461 550
461 551
461 552
461 553
461 554
461 555
461 556
461 557
461 558
461 559
461 560
461 561
461 562
461 574
461 578
461 579
461 580
461 581
461 582
461 583
461 584
461 585
461 586
461 587
461 597
462 463
462 464
462 465
462 466
462 467
462 470
462 473
462 474
462 475
462 476
462 478
462 479
462 480
462 481
462 482
462 483
462 484
462 485
462 486
462 499
462 520
462 538
462 540
462 541
462 542
462 543
462 544
462 545
462 546
462 547
462 548
462 549
462 550
462 551
462 552
462 553
462 554
462 555
462 556
462 557
462 558
462 559
462 560
462 561
462 562
462 563
462 565
462 566
462 567
462 568
462 569
462 570
462 571
462 572
462 573
462 574
462 577
462 578
462 582
462 597
463 464
463 465
463 466
463 467
463 470
463 472
463 474
463 475
463 476
463 477
463 483
463 485
463 499
463 520
463 538
463 539
463 540
463 542
463 543
463 544
463 545
463 546
463 547
463 548
463 549
463 550
463 551
463 552
463 553
463 554
463 555
463 556
463 557
463 558
463 559
463 560
463 561
463 562
463 563
463 564
463 565
463 567
463 568
463 569
463 570
463 571
463 572
463 573
463 574
463 577
463 578
463 582
463 597
464 465
464 466
464 467
464 470
464 472
464 473
464 474
464 475
464 477
464 483
464 485
464 499
464 520
464 538
464 539
464 541
464 552
464 553
464 564
464 566
464 572
464 574
464 577
464 578
464 582
464 597
465 466
465 467
465 470
465 472
465 473
465 474
465 475
465 477
465 483
465 485
465 499
465 520
465 538
465 539
465 541
465 552
465 553
465 564
465 566
465 572
465 574
465 577
465 578
465 582
465 597
466 467
466 470
466 472
466 473
466 475
466 476
466 477
466 478
466 479
466 480
466 481
466 482
466 484
466 485
466 486
466 499
466 520
466 538
466 539
466 540
466 541
466 542
466 543
466 544
466 545
466 546
466 547
466 548
466 549
466 550
466 551
466 553
466 554
466 555
466 556
466 557
466 558
466 559
466 560
466 561
466 562
466 563
466 564
466 565
466 566
466 567
466 568
466 569
466 570
466 571
466 573
466 574
466 578
466 582
466 597
467 468
467 469
467 472
467 473
467 474
467 476
467 477
467 478
467 479
467 480
467 481
467 482
467 483
467 484
467 486
467 488
467 489
467 490
467 491
467 492
467 493
467 494
467 495
467 496
467 497
467 498
467 500
467 501
467 502
467 503
467 504
467 505
467 506
467 507
467 508
467 509
467 510
467 511
467 512
467 513
467 514
467 515
467 516
467 517
467 518
467 519
467 521
467 522
467 523
467 524
467 525
467 526
467 527
467 531
467 532
467 533
467 534
467 535
467 536
467 537
467 539
467 540
467 541
467 542
467 543
467 544
467 545
467 546
467 547
467 548
467 549
467 550
467 551
467 552
467 554
467 555
467 556
467 557
467 558
467 559
467 560
467 561
467 562
467 563
467 564
467 565
467 566
467 567
467 568
467 569
467 570
467 571
467 572
467 573
467 577
467 579
467 580
467 581
467 583
467 584
467 585
467 586
467 587
467 588
467 589
467 590
467 591
467 592
467 593
467 594
467 595
467 596
467 598
468 469
468 470
468 475
468 485
468 488
468 489
468 490
468 491
468 493
468 494
468 495
468 496
468 497
468 498
468 499
468 500
468 501
468 502
468 503
468 504
468 505
468 506
468 507
468 508
468 509
468 510
468 511
468 513
468 514
468 515
468 516
468 517
468 518
468 519
468 520
468 521
468 522
468 523
468 524
468 525
468 526
468 527
468 538
468 539
468 540
468 541
468 542
468 543
468 545
468 546
468 547
468 548
468 549
468 550
468 551
468 552
468 553
468 554
468 555
468 556
468 557
468 558
468 559
468 560
468 561
468 562
468 563
468 564
468 565
468 566
468 567
468 568
468 570
468 571
468 572
468 573
468 574
468 578
468 582
468 597
469 470
469 475
469 485
469 487
469 492
469 499
469 512
469 520
469 538
469 544
469 553
469 569
469 574
469 578
469 582
469 597
470 472
470 473
470 474
470 476
470 477
470 478
470 479
470 480
470 481
470 482
470 483
470 484
470 486
470 487
470 488
470 489
470 490
470 491
470 492
470 493
470 494
470 495
470 496
470 497
470 498
470 500
470 501
470 502
470 503
470 504
470 505
470 506
470 507
470 508
470 509
470 510
470 511
470 512
470 513
470 514
470 515
470 516
470 517
470 518
470 519
470 521
470 522
470 523
470 524
470 525
470 526
470 527
470 531
470 532
470 533
470 534
470 535
470 536
470 537
470 539
470 540
470 541
470 542
470 543
470 544
470 545
470 546
470 547
470 548
470 549
470 550
470 551
470 552
470 554
470 555
470 556
470 557
470 558
470 559
470 560
470 561
470 562
470 563
470 564
470 565
470 566
470 567
470 568
470 569
470 570
470 571
470 572
470 573
470 579
470 580
470 581
470 583
470 584
470 585
470 586
470 587
470 588
470 589
470 590
470 591
470 592
470 593
470 594
470 595
470 596
470 598
472 473
472 474
472 475
472 476
472 478
472 479
472 480
472 481
472 482
472 483
472 484
472 485
472 486
472 499
472 520
472 538
472 540
472 541
472 542
472 543
472 544
472 545
472 546
472 547
472 548
472 549
472 550
472 551
472 552
472 553
472 554
472 555
472 556
472 557
472 558
472 559
472 560
472 561
472 562
472 563
472 565
472 566
472 567
472 568
472 569
472 570
472 571
472 572
472 573
472 574
472 577
472 578
472 582
472 597
473 474
473 475
473 476
473 477
473 483
473 485
473 499
473 520
473 538
473 539
473 540
473 542
473 543
473 544
473 545
473 546
473 547
473 548
473 549
473 550
473 551
473 552
473 553
473 554
473 555
473 556
473 557
473 558
473 559
473 560
473 561
473 562
473 563
473 564
473 565
473 567
473 568
473 569
473 570
473 571
473 572
473 573
473 574
473 577
473 578
473 582
473 597
474 475
474 476
474 477
474 478
474 479
474 480
474 481
474 482
474 484
474 485
474 486
474 499
474 520
474 538
474 539
474 540
474 541
474 542
474 543
474 544
474 545
474 546
474 547
474 548
474 549
474 550
474 551
474 553
474 554
474 555
474 556
474 557
474 558
474 559
474 560
474 561
474 562
474 563
474 564
474 565
474 566
474 567
474 568
474 569
474 570
474 571
474 573
474 574
474 578
474 582
474 597
475 476
475 477
475 478
475 479
475 480
475 481
475 482
475 483
475 484
475 486
475 488
475 489
475 490
475 491
475 492
475 493
475 494
475 495
475 496
475 497
475 498
475 500
475 501
475 502
475 503
475 504
475 505
475 506
475 507
475 508
475 509
475 510
475 511
475 512
475 513
475 514
475 515
475 516
475 517
475 518
475 519
475 521
475 522
475 523
475 524
475 525
475 526
475 527
475 531
475 532
475 533
475 534
475 535
475 536
475 537
475 539
475 540
475 541
475 542
475 543
475 544
475 545
475 546
475 547
475 548
475 549
475 550
475 551
475 552
475 554
475 555
475 556
475 557
475 558
475 559
475 560
475 561
475 562
475 563
475 564
475 565
475 566
475 567
475 568
475 569
475 570
475 571
475 572
475 573
475 577
475 579
475 580
475 581
475 583
475 584
475 585
475 586
475 587
475 588
475 589
475 590
475 591
475 592
475 593
475 594
475 595
475 596
475 598
476 477
476 483
476 485
476 499
476 520
476 538
476 539
476 541
476 552
476 553
476 564
476 566
476 572
476 574
476 577
476 578
476 582
476 597
477 478
477 479
477 480
477 481
477 482
477 483
477 484
477 485
477 486
477 499
477 520
477 538
477 540
477 541
477 542
477 543
477 544
477 545
477 546
477 547
477 548
477 549
477 550
477 551
477 552
477 553
477 554
477 555
477 556
477 557
477 558
477 559
477 560
477 561
477 562
477 563
477 565
477 566
477 567
477 568
477 569
477 570
477 571
477 572
477 573
477 574
477 577
477 578
477 582
477 597
478 479
478 480
478 481
478 482
478 483
478 484
478 485
478 486
478 499
478 520
478 538
478 539
478 552
478 553
478 564
478 572
478 574
478 577
478 578
478 582
478 597
479 480
479 481
479 482
479 483
479 484
479 485
479 486
479 499
479 520
479 538
479 539
479 552
479 553
479 564
479 572
479 574
479 577
479 578
479 582
479 597
480 481
480 482
480 483
480 484
480 485
480 486
480 499
480 520
480 538
480 539
480 552
480 553
480 564
480 572
480 574
480 577
480 578
480 582
480 597
481 482
481 483
481 484
481 485
481 486
481 499
481 520
481 538
481 539
481 552
481 553
481 564
481 572
481 574
481 577
481 578
481 582
481 597
482 483
482 484
482 485
482 486
482 499
482 520
482 538
482 539
482 552
482 553
482 564
482 572
482 574
482 577
482 578
482 582
482 597
483 484
483 485
483 486
483 499
483 520
483 538
483 539
483 540
483 541
483 542
483 543
483 544
483 545
483 546
483 547
483 548
483 549
483 550
483 551
483 553
483 554
483 555
483 556
483 557
483 558
483 559
483 560
483 561
483 562
483 563
483 564
483 565
483 566
483 567
483 568
483 569
483 570
483 571
483 573
483 574
483 578
483 582
483 597
484 485
484 486
484 499
484 520
484 538
484 539
484 552
484 553
484 564
484 572
484 574
484 577
484 578
484 582
484 597
485 486
485 488
485 489
485 490
485 491
485 492
485 493
485 494
485 495
485 496
485 497
485 498
485 500
485 501
485 502
485 503
485 504
485 505
485 506
485 507
485 508
485 509
485 510
485 511
485 512
485 513
485 514
485 515
485 516
485 517
485 518
485 519
485 521
485 522
485 523
485 524
485 525
485 526
485 527
485 531
485 532
485 533
485 534
485 535
485 536
485 537
485 539
485 540
485 541
485 542
485 543
485 544
485 545
485 546
485 547
485 548
485 549
485 550
485 551
485 552
485 554
485 555
485 556
485 557
485 558
485 559
485 560
485 561
485 562
485 563
485 564
485 565
485 566
485 567
485 568
485 569
485 570
485 571
485 572
485 573
485 577
485 579
485 580
485 581
485 583
485 584
485 585
485 586
485 587
485 588
485 589
485 590
485 591
485 592
485 593
485 594
485 595
485 596
485 598
486 499
486 520
486 538
486 539
486 552
486 553
486 564
486 572
486 574
486 577
486 578
486 582
486 597
487 488
487 489
487 490
487 491
487 493
487 494
487 495
487 496
487 497
487 498
487 499
487 500
487 501
487 502
487 503
487 504
487 505
487 506
487 507
487 508
487 509
487 510
487 511
487 513
487 514
487 515
487 516
487 517
487 518
487 519
487 520
487 521
487 522
487 523
487 524
487 525
487 526
487 527
487 539
487 540
487 541
487 542
487 543
487 545
487 546
487 547
487 548
487 549
487 550
487 551
487 552
487 553
487 554
487 555
487 556
487 557
487 558
487 559
487 560
487 561
487 562
487 563
487 564
487 565
487 566
487 567
487 568
487 570
487 571
487 572
487 573
487 574
488 489
488 490
488 491
488 492
488 493
488 494
488 495
488 496
488 497
488 498
488 499
488 500
488 501
488 502
488 503
488 504
488 505
488 506
488 507
488 509
488 510
488 511
488 512
488 513
488 514
488 515
488 516
488 517
488 518
488 519
488 520
488 521
488 522
488 523
488 524
488 525
488 526
488 527
488 528
488 538
488 539
488 541
488 542
488 543
488 544
488 545
488 546
488 547
488 548
488 549
488 550
488 551
488 552
488 553
488 554
488 555
488 556
488 557
488 558
488 559
488 560
488 561
488 562
488 563
488 569
488 574
488 578
488 579
488 580
488 582
488 583
488 584
488 585
488 586
488 587
488 588
488 597
489 490
489 491
489 492
489 493
489 494
489 495
489 496
489 497
489 498
489 499
489 500
489 501
489 502
489 503
489 504
489 505
489 506
489 507
489 508
489 510
489 511
489 512
489 513
489 514
489 515
489 516
489 517
489 518
489 519
489 520
489 521
489 522
489 523
489 524
489 525
489 526
489 527
489 529
489 530
489 538
489 540
489 542
489 543
489 544
489 545
489 548
489 550
489 551
489 553
489 554
489 555
489 556
489 557
489 559
489 560
489 563
489 569
489 574
489 578
489 580
489 581
489 582
489 583
489 584
489 585
489 586
489 587
489 588
489 597
490 491
490 492
490 493
490 494
490 495
490 496
490 497
490 498
490 499
490 500
490 501
490 502
490 503
490 504
490 505
490 506
490 507
490 508
490 509
490 511
490 512
490 513
490 514
490 515
490 516
490 517
490 518
490 519
490 520
490 521
490 522
490 523
490 524
490 525
490 526
490 527
490 528
490 538
490 539
490 540
490 541
490 543
490 544
490 545
490 546
490 547
490 548
490 549
490 550
490 551
490 552
490 553
490 554
490 555
490 556
490 557
490 558
490 559
490 560
490 561
490 562
490 563
490 569
490 574
490 578
490 579
490 580
490 582
490 583
490 584
490 585
490 586
490 587
490 588
490 597
491 492
491 493
491 494
491 495
491 496
491 497
491 498
491 499
491 500
491 501
491 502
491 503
491 504
491 505
491 506
491 507
491 508
491 509
491 510
491 512
491 513
491 514
491 515
491 516
491 517
491 518
491 519
491 520
491 521
491 522
491 523
491 524
491 525
491 526
491 527
491 528
491 538
491 539
491 540
491 541
491 542
491 544
491 545
491 546
491 547
491 548
491 549
491 550
491 551
491 552
491 553
491 554
491 555
491 556
491 557
491 558
491 559
491 560
491 561
491 562
491 563
491 569
491 574
491 578
491 579
491 581
491 582
491 583
491 584
491 585
491 586
491 587
491 588
491 597
492 493
492 494
492 495
492 496
492 497
492 498
492 499
492 500
492 501
492 502
492 503
492 504
492 505
492 506
492 507
492 508
492 509
492 510
492 511
492 513
492 514
492 515
492 516
492 517
492 518
492 519
492 520
492 521
492 522
492 523
492 524
492 525
492 526
492 527
492 528
492 538
492 539
492 540
492 541
492 542
492 543
492 545
492 546
492 547
492 548
492 549
492 550
492 551
492 552
492 553
492 554
492 555
492 556
492 557
492 558
492 559
492 560
492 561
492 562
492 563
492 564
492 565
492 566
492 567
492 568
492 570
492 571
492 572
492 573
492 574
492 578
492 579
492 580
492 582
492 583
492 584
492 585
492 586
492 587
492 588
492 597
493 494
493 495
493 496
493 497
493 498
493 499
493 500
493 501
493 502
493 503
493 504
493 505
493 506
493 507
493 508
493 509
493 510
493 511
493 512
493 514
493 515
493 516
493 517
493 518
493 519
493 520
493 521
493 522
493 523
493 524
493 525
493 526
493 527
493 528
493 538
493 539
493 540
493 541
493 542
493 543
493 544
493 546
493 547
493 548
493 549
493 550
493 551
493 552
493 553
493 554
493 555
493 556
493 557
493 558
493 559
493 560
493 561
493 562
493 563
493 569
493 574
493 578
493 579
493 580
493 582
493 583
493 584
493 585
493 586
493 587
493 588
493 597
494 495
494 496
494 497
494 498
494 499
494 500
494 501
494 502
494 503
494 504
494 505
494 506
494 507
494 508
494 509
494 510
494 511
494 512
494 513
494 515
494 516
494 517
494 518
494 519
494 520
494 521
494 522
494 523
494 524
494 525
494 526
494 527
494 528
494 538
494 540
494 542
494 543
494 544
494 545
494 548
494 550
494 551
494 553
494 554
494 555
494 556
494 557
494 559
494 560
494 563
494 569
494 574
494 578
494 579
494 580
494 582
494 583
494 584
494 585
494 586
494 587
494 588
494 597
495 496
495 497
495 498
495 499
495 500
495 501
495 502
495 503
495 504
495 505
495 506
495 507
495 508
495 509
495 510
495 511
495 512
495 513
495 514
495 515
495 517
495 518
495 519
495 520
495 521
495 522
495 523
495 524
495 525
495 526
495 527
495 528
495 538
495 539
495 540
495 541
495 542
495 543
495 544
495 545
495 546
495 547
495 549
495 550
495 551
495 552
495 553
495 554
495 555
495 556
495 557
495 558
495 559
495 560
495 561
495 562
495 563
495 569
495 574
495 578
495 579
495 580
495 582
495 583
495 584
495 585
495 586
495 587
495 588
495 597
496 497
496 498
496 499
496 500
496 501
496 502
496 503
496 504
496 505
496 506
496 507
496 508
496 509
496 510
496 511
496 512
496 513
496 514
496 515
496 516
496 518
496 519
496 520
496 521
496 522
496 523
496 524
496 525
496 526
496 527
496 528
496 538
496 539
496 540
496 541
496 542
496 543
496 544
496 545
496 546
496 547
496 548
496 549
496 551
496 552
496 553
496 554
496 555
496 556
496 557
496 558
496 559
496 560
496 561
496 562
496 563
496 569
496 574
496 578
496 579
496 580
496 582
496 583
496 584
496 585
496 586
496 587
496 588
496 597
497 498
497 499
497 500
497 501
497 502
497 503
497 504
497 505
497 506
497 507
497 508
497 509
497 510
497 511
497 512
497 513
497 514
497 515
497 516
497 517
497 519
497 520
497 521
497 522
497 523
497 524
497 525
497 526
497 527
497 528
497 538
497 539
497 540
497 541
497 542
497 543
497 544
497 545
497 546
497 547
497 548
497 549
497 550
497 552
497 553
497 554
497 555
497 556
497 557
497 558
497 559
497 560
497 561
497 562
497 563
497 569
497 574
497 578
497 579
497 580
497 582
497 583
497 584
497 585
497 586
497 587
497 588
497 597
498 499
498 500
498 501
498 502
498 503
498 504
498 505
498 506
498 507
498 508
498 509
498 510
498 511
498 512
498 513
498 514
498 515
498 516
498 517
498 518
498 520
498 521
498 522
498 523
498 524
498 525
498 526
498 527
498 528
498 538
498 540
498 542
498 543
498 544
498 545
498 548
498 550
498 551
498 553
498 554
498 555
498 556
498 557
498 559
498 560
498 563
498 569
498 574
498 578
498 579
498 580
498 582
498 583
498 584
498 585
498 586
498 587
498 588
498 597
499 500
499 501
499 502
499 503
499 504
499 505
499 506
499 507
499 508
499 509
499 510
499 511
499 512
499 513
499 514
499 515
499 516
499 517
499 518
499 519
499 521
499 522
499 523
499 524
499 525
499 526
499 527
499 528
499 531
499 532
499 533
499 534
499 535
499 536
499 537
499 539
499 540
499 541
499 542
499 543
499 544
499 545
499 546
499 547
499 548
499 549
499 550
499 551
499 552
499 554
499 555
499 556
499 557
499 558
499 559
499 560
499 561
499 562
499 563
499 564
499 565
499 566
499 567
499 568
499 569
499 570
499 571
499 572
499 573
499 579
499 580
499 581
499 583
499 584
499 585
499 586
499 587
499 588
499 589
499 590
499 591
499 592
499 593
499 594
499 595
499 596
499 598
500 501
500 502
500 503
500 504
500 505
500 506
500 507
500 508
500 509
500 510
500 511
500 512
500 513
500 514
500 515
500 516
500 517
500 518
500 519
500 520
500 522
500 523
500 524
500 525
500 526
500 527
500 528
500 538
500 539
500 540
500 541
500 542
500 543
500 544
500 545
500 546
500 547
500 548
500 549
500 550
500 551
500 552
500 553
500 555
500 556
500 557
500 558
500 559
500 560
500 561
500 562
500 563
500 569
500 574
500 578
500 579
500 580
500 581
500 582
500 584
500 585
500 586
500 587
500 588
500 597
501 502
501 503
501 504
501 505
501 506
501 507
501 508
501 509
501 510
501 511
501 512
501 513
501 514
501 516
501 517
501 518
501 519
501 520
501 521
501 522
501 523
501 524
501 525
501 526
501 527
501 528
501 538
501 539
501 540
501 541
501 542
501 543
501 544
501 545
501 546
501 547
501 548
501 549
501 550
501 551
501 552
501 553
501 554
501 556
501 557
501 558
501 559
501 560
501 561
501 562
501 563
501 569
501 574
501 578
501 579
501 580
501 581
501 582
501 583
501 585
501 586
501 587
501 588
501 597
502 503
502 504
502 505
502 506
502 507
502 508
502 509
502 510
502 511
502 512
502 513
502 514
502 515
502 516
502 517
502 518
502 519
502 520
502 521
502 523
502 524
502 525
502 526
502 527
502 528
502 538
502 539
502 540
502 541
502 542
502 543
502 544
502 545
502 546
502 547
502 548
502 549
502 550
502 551
502 552
502 553
502 554
502 555
502 557
502 558
502 559
502 560
502 561
502 562
502 563
502 569
502 574
502 578
502 579
502 580
502 581
502 582
502 583
502 584
502 586
502 587
502 588
502 597
503 504
503 505
503 506
503 507
503 508
503 509
503 510
503 511
503 512
503 513
503 514
503 515
503 516
503 517
503 518
503 519
503 520
503 521
503 522
503 524
503 525
503 526
503 527
503 528
503 538
503 539
503 540
503 541
503 542
503 543
503 544
503 545
503 546
503 547
503 548
503 549
503 550
503 551
503 552
503 553
503 554
503 555
503 556
503 558
503 559
503 560
503 561
503 562
503 563
503 569
503 574
503 578
503 579
503 580
503 581
503 582
503 583
503 584
503 585
503 587
503 588
503 597
504 505
504 506
504 507
504 508
504 509
504 510
504 511
504 512
504 513
504 514
504 515
504 516
504 517
504 518
504 519
504 520
504 521
504 522
504 523
504 525
504 526
504 527
504 528
504 538
504 539
504 540
504 541
504 542
504 543
504 544
504 545
504 546
504 547
504 548
504 549
504 550
504 551
504 552
504 553
504 554
504 555
504 556
504 557
504 558
504 560
504 561
504 562
504 563
504 569
504 574
504 578
504 579
504 580
504 582
504 583
504 584
504 585
504 586
504 587
504 588
504 597
505 506
505 507
505 508
505 509
505 510
505 511
505 512
505 513
505 514
505 515
505 516
505 517
505 518
505 519
505 520
505 521
505 522
505 523
505 524
505 526
505 527
505 528
505 538
505 539
505 540
505 541
505 542
505 543
505 544
505 545
505 546
505 547
505 548
505 549
505 550
505 551
505 552
505 553
505 554
505 555
505 556
505 557
505 558
505 559
505 561
505 562
505 563
505 569
505 574
505 578
505 579
505 580
505 581
505 582
505 583
505 584
505 585
505 586
505 588
505 597
506 507
506 508
506 509
506 510
506 511
506 512
506 513
506 514
506 515
506 516
506 517
506 518
506 519
506 520
506 521
506 522
506 523
506 524
506 525
506 527
506 528
506 538
506 539
506 540
506 541
506 542
506 543
506 544
506 545
506 546
506 547
506 548
506 549
506 550
506 551
506 552
506 553
506 554
506 555
506 556
506 557
506 558
506 559
506 560
506 561
506 562
506 569
506 574
506 578
506 579
506 580
506 581
506 582
506 583
506 584
506 585
506 586
506 587
506 597
507 508
507 509
507 510
507 511
507 512
507 513
507 514
507 515
507 516
507 517
507 518
507 519
507 520
507 521
507 522
507 523
507 524
507 525
507 526
507 528
507 538
507 540
507 542
507 543
507 544
507 545
507 548
507 550
507 551
507 553
507 554
507 555
507 556
507 557
507 559
507 560
507 563
507 569
507 574
507 578
507 579
507 580
507 582
507 583
507 584
507 585
507 586
507 587
507 588
507 597
508 509
508 510
508 511
508 512
508 513
508 514
508 515
508 516
508 517
508 518
508 519
508 520
508 521
508 522
508 523
508 524
508 525
508 526
508 527
508 528
508 538
508 539
508 541
508 542
508 543
508 544
508 545
508 546
508 547
508 548
508 549
508 550
508 551
508 552
508 553
508 554
508 555
508 556
508 557
508 558
508 559
508 560
508 561
508 562
508 563
508 569
508 574
508 578
508 579
508 580
508 581
508 582
508 583
508 585
508 586
508 587
508 588
508 597
509 510
509 511
509 512
509 513
509 514
509 515
509 516
509 517
509 518
509 519
509 520
509 521
509 522
509 523
509 524
509 525
509 526
509 527
509 529
509 530
509 538
509 540
509 542
509 543
509 544
509 545
509 547
509 548
509 550
509 551
509 553
509 554
509 556
509 557
509 559
509 560
509 563
509 569
509 574
509 578
509 580
509 581
509 582
509 583
509 584
509 585
509 586
509 587
509 588
509 597
510 511
510 512
510 513
510 514
510 515
510 516
510 517
510 518
510 519
510 520
510 521
510 522
510 523
510 524
510 525
510 526
510 527
510 528
510 538
510 539
510 540
510 541
510 543
510 544
510 545
510 546
510 547
510 548
510 549
510 550
510 551
510 552
510 553
510 554
510 555
510 556
510 557
510 558
510 559
510 560
510 561
510 562
510 563
510 569
510 574
510 578
510 579
510 580
510 581
510 582
510 583
510 585
510 586
510 587
510 588
510 597
511 512
511 513
511 514
511 515
511 516
511 517
511 518
511 519
511 520
511 521
511 522
511 523
511 524
511 525
511 526
511 527
511 528
511 538
511 539
511 540
511 541
511 542
511 544
511 545
511 546
511 547
511 548
511 549
511 550
511 551
511 552
511 553
511 554
511 555
511 556
511 557
511 558
511 559
511 560
511 561
511 562
511 563
511 569
511 574
511 578
511 579
511 581
511 582
511 583
511 584
511 585
511 586
511 587
511 588
511 597
512 513
512 514
512 515
512 516
512 517
512 518
512 519
512 520
512 521
512 522
512 523
512 524
512 525
512 526
512 527
512 528
512 538
512 539
512 540
512 541
512 542
512 543
512 545
512 546
512 547
512 548
512 549
512 550
512 551
512 552
512 553
512 554
512 555
512 556
512 557
512 558
512 559
512 560
512 561
512 562
512 563
512 564
512 565
512 566
512 567
512 568
512 570
512 571
512 572
512 573
512 574
512 578
512 579
512 580
512 581
512 582
512 583
512 585
512 586
512 587
512 588
512 597
513 514
513 515
513 516
513 517
513 518
513 519
513 520
513 521
513 522
513 523
513 524
513 525
513 526
513 527
513 528
513 538
513 539
513 540
513 541
513 542
513 543
513 544
513 546
513 547
513 548
513 549
513 550
513 551
513 552
513 553
513 554
513 555
513 556
513 557
513 558
513 559
513 560
513 561
513 562
513 563
513 569
513 574
513 578
513 579
513 580
513 581
513 582
513 583
513 585
513 586
513 587
513 588
513 597
514 515
514 516
514 517
514 518
514 519
514 520
514 521
514 522
514 523
514 524
514 525
514 526
514 527
514 528
514 538
514 540
514 542
514 543
514 544
514 545
514 547
514 548
514 550
514 551
514 553
514 554
514 556
514 557
514 559
514 560
514 563
514 569
514 574
514 578
514 579
514 580
514 581
514 582
514 583
514 585
514 586
514 587
514 588
514 597
515 516
515 517
515 518
515 519
515 520
515 521
515 522
515 523
515 524
515 525
515 526
515 527
515 528
515 538
515 539
515 540
515 541
515 542
515 543
515 544
515 545
515 546
515 548
515 549
515 550
515 551
515 552
515 553
515 554
515 555
515 556
515 557
515 558
515 559
515 560
515 561
515 562
515 563
515 569
515 574
515 578
515 579
515 580
515 582
515 583
515 584
515 585
515 586
515 587
515 588
515 597
516 517
516 518
516 519
516 520
516 521
516 522
516 523
516 524
516 525
516 526
516 527
516 528
516 538
516 539
516 540
516 541
516 542
516 543
516 544
516 545
516 546
516 547
516 549
516 550
516 551
516 552
516 553
516 554
516 555
516 556
516 557
516 558
516 559
516 560
516 561
516 562
516 563
516 569
516 574
516 578
516 579
516 580
516 581
516 582
516 583
516 585
516 586
516 587
516 588
516 597
517 518
517 519
517 520
517 521
517 522
517 523
517 524
517 525
517 526
517 527
517 528
517 538
517 539
517 540
517 541
517 542
517 543
517 544
517 545
517 546
517 547
517 548
517 549
517 551
517 552
517 553
517 554
517 555
517 556
517 557
517 558
517 559
517 560
517 561
517 562
517 563
517 569
517 574
517 578
517 579
517 580
517 581
517 582
517 583
517 585
517 586
517 587
517 588
517 597
518 519
518 520
518 521
518 522
518 523
518 524
518 525
518 526
518 527
518 528
518 538
518 539
518 540
518 541
518 542
518 543
518 544
518 545
518 546
518 547
518 548
518 549
518 550
518 552
518 553
518 554
518 555
518 556
518 557
518 558
518 559
518 560
518 561
518 562
518 563
518 569
518 574
518 578
518 579
518 580
518 581
518 582
518 583
518 585
518 586
518 587
518 588
518 597
519 520
519 521
519 522
519 523
519 524
519 525
519 526
519 527
519 528
519 538
519 540
519 542
519 543
519 544
519 545
519 547
519 548
519 550
519 551
519 553
519 554
519 556
519 557
519 559
519 560
519 563
519 569
519 574
519 578
519 579
519 580
519 581
519 582
519 583
519 585
519 586
519 587
519 588
519 597
520 521
520 522
520 523
520 524
520 525
520 526
520 527
520 528
520 531
520 532
520 533
520 534
520 535
520 536
520 537
520 539
520 540
520 541
520 542
520 543
520 544
520 545
520 546
520 547
520 548
520 549
520 550
520 551
520 552
520 554
520 555
520 556
520 557
520 558
520 559
520 560
520 561
520 562
520 563
520 564
520 565
520 566
520 567
520 568
520 569
520 570
520 571
520 572
520 573
520 579
520 580
520 581
520 583
520 584
520 585
520 586
520 587
520 588
520 589
520 590
520 591
520 592
520 593
520 594
520 595
520 596
520 598
521 522
521 523
521 524
521 525
521 526
521 527
521 528
521 538
521 539
521 540
521 541
521 542
521 543
521 544
521 545
521 546
521 547
521 548
521 549
521 550
521 551
521 552
521 553
521 555
521 556
521 557
521 558
521 559
521 560
521 561
521 562
521 563
521 569
521 574
521 578
521 579
521 580
521 581
521 582
521 584
521 585
521 586
521 587
521 588
521 597
522 523
522 524
522 525
522 526
522 527
522 528
522 538
522 539
522 540
522 541
522 542
522 543
522 544
522 545
522 546
522 547
522 548
522 549
522 550
522 551
522 552
522 553
522 554
522 555
522 557
522 558
522 559
522 560
522 561
522 562
522 563
522 569
522 574
522 578
522 579
522 580
522 581
522 582
522 583
522 584
522 586
522 587
522 588
522 597
523 524
523 525
523 526
523 527
523 528
523 538
523 539
523 540
523 541
523 542
523 543
523 544
523 545
523 546
523 547
523 548
523 549
523 550
523 551
523 552
523 553
523 554
523 555
523 556
523 558
523 559
523 560
523 561
523 562
523 563
523 569
523 574
523 578
523 579
523 580
523 581
523 582
523 583
523 584
523 585
523 587
523 588
523 597
524 525
524 526
524 527
524 528
524 538
524 539
524 540
524 541
524 542
524 543
524 544
524 545
524 546
524 547
524 548
524 549
524 550
524 551
524 552
524 553
524 554
524 555
524 556
524 557
524 558
524 560
524 561
524 562
524 563
524 569
524 574
524 578
524 579
524 580
524 581
524 582
524 583
524 585
524 586
524 587
524 588
524 597
525 526
525 527
525 528
525 538
525 539
525 540
525 541
525 542
525 543
525 544
525 545
525 546
525 547
525 548
525 549
525 550
525 551
525 552
525 553
525 554
525 555
525 556
525 557
525 558
525 559
525 561
525 562
525 563
525 569
525 574
525 578
525 579
525 580
525 581
525 582
525 583
525 584
525 585
525 586
525 588
525 597
526 527
526 528
526 538
526 539
526 540
526 541
526 542
526 543
526 544
526 545
526 546
526 547
526 548
526 549
526 550
526 551
526 552
526 553
526 554
526 555
526 556
526 557
526 558
526 559
526 560
526 561
526 562
526 569
526 574
526 578
526 579
526 580
526 581
526 582
526 583
526 584
526 585
526 586
526 587
526 597
527 528
527 538
527 540
527 542
527 543
527 544
527 545
527 547
527 548
527 550
527 551
527 553
527 554
527 556
527 557
527 559
527 560
527 563
527 569
527 574
527 578
527 579
527 580
527 581
527 582
527 583
527 585
527 586
527 587
527 588
527 597
528 529
528 530
528 546
528 549
528 580
528 581
528 582
528 583
528 584
528 585
528 586
528 587
528 588
529 530
529 539
529 540
529 541
529 542
529 543
529 544
529 545
529 547
529 548
529 549
529 550
529 551
529 552
529 553
529 554
529 555
529 556
529 557
529 558
529 559
529 560
529 561
529 562
529 563
529 579
530 539
530 540
530 541
530 542
530 543
530 544
530 545
530 546
530 547
530 548
530 550
530 551
530 552
530 553
530 554
530 555
530 556
530 557
530 558
530 559
530 560
530 561
530 562
530 563
530 579
531 532
531 533
531 534
531 535
531 536
531 537
531 538
531 553
531 574
531 578
531 582
531 590
531 591
531 592
531 593
531 594
531 595
531 596
531 597
531 598
532 533
532 534
532 535
532 536
532 537
532 538
532 553
532 574
532 578
532 582
532 589
532 590
532 591
532 592
532 595
532 596
532 597
533 534
533 535
533 536
533 537
533 538
533 553
533 574
533 578
533 582
533 589
533 591
533 592
533 593
533 594
533 595
533 596
533 597
533 598
534 535
534 536
534 537
534 538
534 553
534 574
534 578
534 582
534 589
534 590
534 592
534 593
534 594
534 595
534 596
534 597
534 598
535 536
535 537
535 538
535 553
535 574
535 578
535 582
535 589
535 590
535 591
535 593
535 594
535 595
535 596
535 597
535 598
536 537
536 538
536 553
536 574
536 578
536 582
536 589
536 590
536 591
536 592
536 593
536 594
536 596
536 597
536 598
537 538
537 553
537 574
537 578
537 582
537 589
537 590
537 591
537 592
537 593
537 594
537 595
537 597
537 598
538 539
538 540
538 541
538 542
538 543
538 544
538 545
538 546
538 547
538 548
538 549
538 550
538 551
538 552
538 554
538 555
538 556
538 557
538 558
538 559
538 560
538 561
538 562
538 563
538 564
538 565
538 566
538 567
538 568
538 569
538 570
538 571
538 572
538 573
538 579
538 580
538 581
538 583
538 584
538 585
538 586
538 587
538 588
538 589
538 590
538 591
538 592
538 593
538 594
538 595
538 596
538 598
539 540
539 541
539 542
539 543
539 544
539 545
539 546
539 547
539 548
539 549
539 550
539 551
539 552
539 553
539 554
539 555
539 556
539 557
539 558
539 559
539 560
539 561
539 562
539 563
539 565
539 566
539 567
539 568
539 569
539 570
539 571
539 572
539 573
539 574
539 577
539 578
539 580
539 581
539 582
539 583
539 584
539 585
539 586
539 587
539 588
539 597
540 541
540 542
540 543
540 544
540 545
540 546
540 547
540 548
540 549
540 550
540 551
540 552
540 553
540 554
540 555
540 556
540 557
540 558
540 559
540 560
540 561
540 562
540 563
540 564
540 566
540 569
540 572
540 574
540 577
540 578
540 580
540 581
540 582
540 583
540 584
540 585
540 586
540 587
540 588
540 597
541 542
541 543
541 544
541 545
541 546
541 547
541 548
541 549
541 550
541 551
541 552
541 553
541 554
541 555
541 556
541 557
541 558
541 559
541 560
541 561
541 562
541 563
541 564
541 565
541 567
541 568
541 569
541 570
541 571
541 572
541 573
541 574
541 577
541 578
541 580
541 581
541 582
541 583
541 584
541 585
541 586
541 587
541 588
541 597
542 543
542 544
542 545
542 546
542 547
542 548
542 549
542 550
542 551
542 552
542 553
542 554
542 555
542 556
542 557
542 558
542 559
542 560
542 561
542 562
542 563
542 564
542 566
542 569
542 572
542 574
542 577
542 578
542 580
542 581
542 582
542 583
542 584
542 585
542 586
542 587
542 588
542 597
543 544
543 545
543 546
543 547
543 548
543 549
543 550
543 551
543 552
543 553
543 554
543 555
543 556
543 557
543 558
543 559
543 560
543 561
543 562
543 563
543 564
543 566
543 569
543 572
543 574
543 577
543 578
543 579
543 581
543 582
543 583
543 584
543 585
543 586
543 587
543 588
543 597
544 545
544 546
544 547
544 548
544 549
544 550
544 551
544 552
544 553
544 554
544 555
544 556
544 557
544 558
544 559
544 560
544 561
544 562
544 563
544 564
544 565
544 566
544 567
544 568
544 570
544 571
544 572
544 573
544 574
544 577
544 578
544 580
544 581
544 582
544 583
544 584
544 585
544 586
544 587
544 588
544 597
545 546
545 547
545 548
545 549
545 550
545 551
545 552
545 553
545 554
545 555
545 556
545 557
545 558
545 559
545 560
545 561
545 562
545 563
545 564
545 566
545 569
545 572
545 574
545 577
545 578
545 580
545 581
545 582
545 583
545 584
545 585
545 586
545 587
545 588
545 597
546 547
546 548
546 549
546 550
546 551
546 552
546 553
546 554
546 555
546 556
546 557
546 558
546 559
546 560
546 561
546 562
546 563
546 564
546 566
546 569
546 572
546 574
546 577
546 578
546 580
546 581
546 582
546 583
546 584
546 585
546 586
546 587
546 588
546 597
547 548
547 549
547 550
547 551
547 552
547 553
547 554
547 555
547 556
547 557
547 558
547 559
547 560
547 561
547 562
547 563
547 564
547 566
547 569
547 572
547 574
547 577
547 578
547 579
547 580
547 582
547 583
547 584
547 585
547 586
547 587
547 588
547 597
548 549
548 550
548 551
548 552
548 553
548 554
548 555
548 556
548 557
548 558
548 559
548 560
548 561
548 562
548 563
548 564
548 566
548 569
548 572
548 574
548 577
548 578
548 580
548 581
548 582
548 583
548 584
548 585
548 586
548 587
548 588
548 597
549 550
549 551
549 552
549 553
549 554
549 555
549 556
549 557
549 558
549 559
549 560
549 561
549 562
549 563
549 564
549 566
549 569
549 572
549 574
549 577
549 578
549 580
549 581
549 582
549 583
549 584
549 585
549 586
549 587
549 588
549 597
550 551
550 552
550 553
550 554
550 555
550 556
550 557
550 558
550 559
550 560
550 561
550 562
550 563
550 564
550 566
550 569
550 572
550 574
550 577
550 578
550 580
550 581
550 582
550 583
550 584
550 585
550 586
550 587
550 588
550 597
551 552
551 553
551 554
551 555
551 556
551 557
551 558
551 559
551 560
551 561
551 562
551 563
551 564
551 566
551 569
551 572
551 574
551 577
551 578
551 580
551 581
551 582
551 583
551 584
551 585
551 586
551 587
551 588
551 597
552 553
552 554
552 555
552 556
552 557
552 558
552 559
552 560
552 561
552 562
552 563
552 564
552 565
552 566
552 567
552 568
552 569
552 570
552 571
552 573
552 574
552 578
552 580
552 581
552 582
552 583
552 584
552 585
552 586
552 587
552 588
552 597
553 554
553 555
553 556
553 557
553 558
553 559
553 560
553 561
553 562
553 563
553 564
553 565
553 566
553 567
553 568
553 569
553 570
553 571
553 572
553 573
553 577
553 579
553 580
553 581
553 583
553 584
553 585
553 586
553 587
553 588
553 589
553 590
553 591
553 592
553 593
553 594
553 595
553 596
553 598
554 555
554 556
554 557
554 558
554 559
554 560
554 561
554 562
554 563
554 564
554 566
554 569
554 572
554 574
554 577
554 578
554 579
554 580
554 581
554 582
554 584
554 585
554 586
554 587
554 588
554 597
555 556
555 557
555 558
555 559
555 560
555 561
555 562
555 563
555 564
555 566
555 569
555 572
555 574
555 577
555 578
555 579
555 580
555 581
555 582
555 583
555 585
555 586
555 587
555 588
555 597
556 557
556 558
556 559
556 560
556 561
556 562
556 563
556 564
556 566
556 569
556 572
556 574
556 577
556 578
556 579
556 580
556 581
556 582
556 583
556 584
556 586
556 587
556 588
556 597
557 558
557 559
557 560
557 561
557 562
557 563
557 564
557 566
557 569
557 572
557 574
557 577
557 578
557 579
557 580
557 581
557 582
557 583
557 584
557 585
557 587
557 588
557 597
558 559
558 560
558 561
558 562
558 563
558 564
558 566
558 569
558 572
558 574
558 577
558 578
558 580
558 581
558 582
558 583
558 584
558 585
558 586
558 587
558 588
558 597
559 560
559 561
559 562
559 563
559 564
559 566
559 569
559 572
559 574
559 577
559 578
559 580
559 581
559 582
559 583
559 584
559 585
559 586
559 587
559 588
559 597
560 561
560 562
560 563
560 564
560 566
560 569
560 572
560 574
560 577
560 578
560 579
560 580
560 581
560 582
560 583
560 584
560 585
560 586
560 588
560 597
561 562
561 563
561 564
561 566
561 569
561 572
561 574
561 577
561 578
561 580
561 581
561 582
561 583
561 584
561 585
561 586
561 587
561 588
561 597
562 563
562 564
562 566
562 569
562 572
562 574
562 577
562 578
562 580
562 581
562 582
562 583
562 584
562 585
562 586
562 587
562 588
562 597
563 564
563 566
563 569
563 572
563 574
563 577
563 578
563 579
563 580
563 581
563 582
563 583
563 584
563 585
563 586
563 587
563 597
564 565
564 566
564 567
564 568
564 569
564 570
564 571
564 572
564 573
564 574
564 577
564 578
564 582
564 597
565 566
565 567
565 568
565 569
565 570
565 571
565 572
565 573
565 574
565 577
565 578
565 582
565 597
566 567
566 568
566 569
566 570
566 571
566 572
566 573
566 574
566 577
566 578
566 582
566 597
567 568
567 569
567 570
567 571
567 572
567 573
567 574
567 577
567 578
567 582
567 597
568 569
568 570
568 571
568 572
568 573
568 574
568 577
568 578
568 582
568 597
569 570
569 571
569 572
569 573
569 574
569 577
569 578
569 582
569 597
570 571
570 572
570 573
570 574
570 577
570 578
570 582
570 597
571 572
571 573
571 574
571 577
571 578
571 582
571 597
572 573
572 574
572 578
572 582
572 597
573 574
573 577
573 578
573 582
573 597
574 577
574 579
574 580
574 581
574 583
574 584
574 585
574 586
574 587
574 588
574 589
574 590
574 591
574 592
574 593
574 594
574 595
574 596
574 598
575 576
578 579
578 580
578 581
578 583
578 584
578 585
578 586
578 587
578 588
578 589
578 590
578 591
578 592
578 593
578 594
578 595
578 596
578 598
579 580
579 581
579 582
579 583
579 584
579 585
579 586
579 587
579 588
579 597
580 581
580 582
580 583
580 584
580 585
580 586
580 587
580 588
580 597
581 582
581 583
581 584
581 585
581 586
581 587
581 588
581 597
582 583
582 584
582 585
582 586
582 587
582 588
582 589
582 590
582 591
582 592
582 593
582 594
582 595
582 596
582 598
583 584
583 585
583 586
583 587
583 588
583 597
584 585
584 586
584 587
584 588
584 597
585 586
585 587
585 588
585 597
586 587
586 588
586 597
587 588
587 597
588 597
589 590
589 591
589 592
589 593
589 594
589 595
589 596
589 597
589 598
590 591
590 592
590 593
590 594
590 595
590 596
590 597
590 598
591 592
591 593
591 594
591 595
591 596
591 597
591 598
592 593
592 594
592 595
592 596
592 597
592 598
593 594
593 595
593 596
593 597
593 598
594 595
594 596
594 597
594 598
595 596
595 597
595 598
596 597
596 598
597 598
