495:46729
0 1
0 2
0 3
0 4
0 5
0 6
0 7
0 8
0 9
0 10
0 11
0 12
0 13
0 14
0 17
0 19
0 20
0 21
0 22
0 23
0 24
0 25
0 26
0 27
0 28
0 29
0 38
0 44
0 49
0 50
0 51
0 56
0 59
0 60
0 61
0 66
0 68
0 69
0 83
0 84
0 88
0 89
0 90
0 98
0 106
0 110
0 121
0 122
0 131
0 134
0 135
0 136
0 137
0 138
0 139
0 142
0 144
0 145
0 146
0 151
0 153
0 154
0 155
0 156
0 157
0 158
0 159
0 160
0 161
0 162
0 163
0 164
0 166
0 167
0 168
0 169
0 170
0 171
0 172
0 173
0 174
0 175
0 176
0 191
0 195
0 199
0 213
0 216
0 221
0 226
0 227
0 228
0 229
0 230
0 231
0 232
0 233
0 238
0 240
0 248
0 254
0 263
0 265
0 267
0 269
0 270
0 271
0 272
0 273
0 274
0 275
0 276
0 281
0 286
0 287
0 290
0 291
0 292
0 293
0 294
0 295
0 296
0 297
0 298
0 299
0 300
0 301
0 303
0 304
0 305
0 306
0 307
0 308
0 309
0 310
0 311
0 312
0 313
0 314
0 315
0 316
0 317
0 318
0 319
0 320
0 321
0 322
0 323
0 328
0 340
0 342
0 352
0 354
0 358
0 363
0 366
0 371
0 372
0 373
0 374
0 375
0 376
0 377
0 378
0 379
0 380
0 386
0 391
0 402
0 404
0 405
0 406
0 409
0 410
0 411
0 412
0 416
0 417
0 424
0 425
0 428
0 429
0 430
0 431
0 432
0 433
0 434
0 435
0 436
0 437
0 438
0 439
0 440
0 442
0 447
0 448
0 449
0 453
0 454
0 455
0 458
0 461
0 464
0 465
0 466
0 473
0 476
0 478
0 479
0 482
0 485
0 486
0 487
0 492
0 493
1 2
1 3
1 4
1 5
1 6
1 7
1 8
1 9
1 10
1 11
1 12
1 13
1 14
1 17
1 18
1 20
1 21
1 22
1 23
1 24
1 25
1 26
1 27
1 28
1 29
1 38
1 44
1 49
1 50
1 51
1 56
1 59
1 60
1 61
1 66
1 68
1 69
1 83
1 84
1 88
1 89
1 90
1 98
1 106
1 110
1 121
1 122
1 131
1 133
1 135
1 136
1 137
1 138
1 139
1 142
1 144
1 145
1 146
1 151
1 152
1 154
1 155
1 156
1 157
1 158
1 159
1 160
1 161
1 162
1 163
1 164
1 165
1 167
1 168
1 169
1 170
1 171
1 172
1 173
1 174
1 175
1 176
1 191
1 195
1 199
1 213
1 216
1 221
1 225
1 227
1 228
1 229
1 230
1 231
1 232
1 233
1 238
1 240
1 248
1 254
1 263
1 265
1 268
1 269
1 270
1 271
1 272
1 273
1 274
1 275
1 276
1 281
1 286
1 287
1 289
1 291
1 292
1 293
1 294
1 295
1 296
1 297
1 298
1 299
1 300
1 301
1 302
1 303
1 305
1 306
1 307
1 308
1 309
1 310
1 311
1 312
1 313
1 314
1 315
1 316
1 317
1 318
1 319
1 320
1 321
1 322
1 323
1 328
1 340
1 342
1 352
1 354
1 358
1 363
1 366
1 370
1 372
1 373
1 374
1 375
1 376
1 377
1 378
1 379
1 380
1 386
1 391
1 403
1 404
1 405
1 406
1 407
1 408
1 409
1 410
1 411
1 412
1 416
1 417
1 424
1 425
1 427
1 429
1 430
1 431
1 432
1 433
1 434
1 435
1 436
1 437
1 438
1 439
1 441
1 442
1 443
1 444
1 445
1 446
1 447
1 448
1 449
1 450
1 451
1 452
1 453
1 454
1 455
1 456
1 457
1 458
1 461
1 464
1 465
1 466
1 473
1 476
1 478
1 479
1 482
1 485
1 486
1 487
1 492
1 493
2 3
2 4
2 5
2 6
2 7
2 8
2 9
2 10
2 11
2 12
2 13
2 14
2 17
2 18
2 19
2 21
2 22
2 23
2 24
2 25
2 26
2 27
2 28
2 29
2 38
2 44
2 49
2 50
2 51
2 56
2 59
2 60
2 61
2 66
2 68
2 69
2 83
2 84
2 88
2 89
2 90
2 97
2 99
2 100
2 101
2 102
2 103
2 104
2 105
2 107
2 108
2 109
2 110
2 111
2 112
2 121
2 122
2 131
2 133
2 134
2 136
2 137
2 138
2 139
2 142
2 144
2 145
2 146
2 151
2 152
2 153
2 154
2 156
2 157
2 158
2 159
2 160
2 161
2 162
2 163
2 164
2 165
2 166
2 167
2 169
2 170
2 171
2 172
2 173
2 174
2 175
2 176
2 184
2 185
2 186
2 187
2 188
2 189
2 190
2 192
2 193
2 194
2 195
2 196
2 197
2 198
2 199
2 200
2 201
2 202
2 203
2 204
2 205
2 206
2 207
2 208
2 209
2 210
2 211
2 212
2 213
2 214
2 215
2 216
2 217
2 218
2 219
2 222
2 225
2 226
2 228
2 229
2 230
2 231
2 232
2 233
2 238
2 241
2 242
2 248
2 254
2 263
2 265
2 267
2 269
2 270
2 271
2 272
2 273
2 274
2 275
2 276
2 281
2 286
2 287
2 289
2 290
2 291
2 293
2 294
2 295
2 296
2 297
2 298
2 299
2 300
2 301
2 302
2 303
2 304
2 305
2 306
2 307
2 309
2 310
2 311
2 312
2 313
2 314
2 315
2 316
2 317
2 318
2 319
2 320
2 321
2 322
2 323
2 328
2 340
2 342
2 353
2 354
2 355
2 356
2 357
2 358
2 359
2 360
2 361
2 362
2 364
2 365
2 366
2 367
2 368
2 369
2 370
2 371
2 372
2 374
2 375
2 376
2 377
2 378
2 379
2 380
2 386
2 392
2 393
2 394
2 402
2 403
2 405
2 406
2 407
2 408
2 409
2 410
2 411
2 412
2 416
2 417
2 424
2 425
2 427
2 428
2 429
2 431
2 432
2 433
2 434
2 435
2 436
2 437
2 438
2 439
2 440
2 442
2 447
2 448
2 449
2 453
2 454
2 455
2 458
2 459
2 460
2 462
2 463
2 464
2 465
2 466
2 467
2 468
2 469
2 470
2 471
2 472
2 473
2 474
2 476
2 478
2 479
2 481
2 483
2 484
2 485
2 486
2 487
2 488
2 489
2 490
2 491
2 492
2 493
3 4
3 5
3 6
3 7
3 8
3 9
3 10
3 11
3 12
3 13
3 14
3 17
3 18
3 19
3 20
3 22
3 23
3 24
3 25
3 26
3 27
3 28
3 29
3 38
3 44
3 49
3 50
3 51
3 56
3 59
3 60
3 61
3 66
3 68
3 69
3 83
3 84
3 88
3 89
3 90
3 98
3 106
3 110
3 121
3 122
3 131
3 133
3 134
3 135
3 137
3 138
3 139
3 142
3 144
3 145
3 146
3 151
3 152
3 153
3 154
3 155
3 157
3 158
3 159
3 160
3 161
3 162
3 163
3 164
3 165
3 166
3 168
3 169
3 170
3 171
3 172
3 173
3 174
3 175
3 176
3 191
3 195
3 199
3 213
3 216
3 221
3 225
3 226
3 227
3 229
3 230
3 231
3 232
3 233
3 238
3 240
3 248
3 254
3 263
3 265
3 267
3 268
3 270
3 271
3 272
3 273
3 274
3 275
3 276
3 281
3 286
3 287
3 289
3 290
3 291
3 292
3 294
3 295
3 296
3 297
3 298
3 299
3 300
3 301
3 302
3 303
3 304
3 305
3 306
3 307
3 308
3 309
3 311
3 312
3 313
3 314
3 315
3 316
3 317
3 318
3 319
3 320
3 321
3 322
3 323
3 328
3 340
3 342
3 352
3 354
3 358
3 363
3 366
3 370
3 371
3 372
3 373
3 375
3 376
3 377
3 378
3 379
3 380
3 386
3 391
3 402
3 403
3 404
3 406
3 407
3 408
3 409
3 410
3 411
3 412
3 416
3 417
3 424
3 425
3 427
3 428
3 429
3 430
3 432
3 433
3 434
3 435
3 436
3 437
3 438
3 439
3 440
3 441
3 443
3 444
3 445
3 446
3 447
3 448
3 449
3 450
3 451
3 452
3 453
3 454
3 455
3 456
3 457
3 458
3 461
3 464
3 465
3 466
3 473
3 476
3 478
3 479
3 482
3 485
3 486
3 487
3 492
3 493
4 5
4 6
4 7
4 8
4 9
4 10
4 11
4 12
4 13
4 14
4 17
4 18
4 20
4 21
4 22
4 23
4 24
4 25
4 26
4 27
4 28
4 29
4 38
4 44
4 47
4 48
4 50
4 51
4 52
4 53
4 54
4 55
4 56
4 57
4 58
4 60
4 61
4 62
4 63
4 64
4 65
4 66
4 67
4 69
4 70
4 78
4 79
4 80
4 81
4 82
4 84
4 85
4 86
4 87
4 89
4 90
4 91
4 92
4 93
4 94
4 95
4 96
4 98
4 106
4 110
4 121
4 122
4 131
4 133
4 134
4 136
4 137
4 138
4 139
4 142
4 143
4 145
4 146
4 147
4 148
4 149
4 150
4 151
4 152
4 153
4 155
4 156
4 157
4 158
4 159
4 160
4 161
4 162
4 163
4 164
4 165
4 166
4 168
4 169
4 170
4 171
4 172
4 173
4 174
4 175
4 176
4 184
4 185
4 186
4 187
4 188
4 189
4 190
4 191
4 192
4 193
4 194
4 196
4 197
4 198
4 199
4 200
4 201
4 202
4 203
4 204
4 205
4 206
4 207
4 208
4 209
4 210
4 211
4 212
4 213
4 214
4 215
4 216
4 217
4 218
4 219
4 221
4 225
4 226
4 228
4 229
4 230
4 231
4 232
4 233
4 238
4 240
4 248
4 254
4 263
4 265
4 267
4 269
4 270
4 271
4 272
4 273
4 274
4 275
4 276
4 281
4 286
4 287
4 289
4 290
4 292
4 293
4 294
4 295
4 296
4 297
4 298
4 299
4 301
4 302
4 303
4 304
4 305
4 306
4 307
4 308
4 309
4 310
4 312
4 313
4 314
4 315
4 316
4 317
4 318
4 319
4 320
4 321
4 322
4 323
4 328
4 337
4 338
4 339
4 341
4 342
4 343
4 344
4 345
4 346
4 347
4 348
4 349
4 350
4 351
4 352
4 353
4 355
4 356
4 357
4 358
4 359
4 360
4 361
4 362
4 363
4 366
4 370
4 371
4 373
4 374
4 375
4 376
4 377
4 378
4 379
4 380
4 386
4 391
4 402
4 404
4 405
4 406
4 409
4 410
4 411
4 412
4 413
4 414
4 415
4 417
4 418
4 419
4 420
4 421
4 422
4 423
4 425
4 426
4 427
4 428
4 430
4 431
4 432
4 433
4 435
4 436
4 437
4 438
4 439
4 440
4 442
4 447
4 448
4 449
4 453
4 454
4 455
4 458
4 459
4 460
4 461
4 462
4 463
4 465
4 466
4 467
4 468
4 469
4 470
4 471
4 472
4 473
4 474
4 476
4 478
4 479
4 482
4 485
4 486
4 487
4 493
4 494
5 6
5 7
5 8
5 9
5 10
5 11
5 12
5 13
5 14
5 17
5 18
5 19
5 20
5 21
5 23
5 24
5 25
5 26
5 27
5 28
5 29
5 38
5 44
5 49
5 50
5 51
5 56
5 59
5 60
5 61
5 66
5 68
5 69
5 83
5 84
5 88
5 89
5 90
5 98
5 106
5 110
5 121
5 122
5 131
5 133
5 134
5 135
5 136
5 138
5 139
5 142
5 144
5 145
5 146
5 151
5 152
5 153
5 154
5 155
5 156
5 158
5 159
5 160
5 161
5 162
5 163
5 164
5 165
5 166
5 167
5 168
5 170
5 171
5 172
5 173
5 174
5 175
5 176
5 191
5 195
5 199
5 213
5 216
5 221
5 225
5 226
5 227
5 228
5 230
5 231
5 232
5 233
5 238
5 240
5 248
5 254
5 263
5 265
5 267
5 268
5 269
5 271
5 272
5 273
5 274
5 275
5 276
5 281
5 286
5 287
5 289
5 290
5 291
5 292
5 293
5 295
5 296
5 297
5 298
5 299
5 300
5 301
5 302
5 303
5 304
5 305
5 306
5 307
5 308
5 309
5 310
5 311
5 313
5 314
5 315
5 316
5 317
5 318
5 319
5 320
5 321
5 322
5 323
5 328
5 340
5 342
5 352
5 354
5 358
5 363
5 366
5 370
5 371
5 372
5 373
5 374
5 376
5 377
5 378
5 379
5 380
5 386
5 391
5 402
5 403
5 404
5 405
5 407
5 408
5 409
5 410
5 411
5 412
5 416
5 417
5 424
5 425
5 427
5 428
5 430
5 431
5 432
5 433
5 435
5 436
5 437
5 438
5 439
5 440
5 441
5 442
5 443
5 444
5 445
5 446
5 448
5 449
5 450
5 451
5 452
5 453
5 454
5 455
5 456
5 457
5 458
5 461
5 464
5 465
5 466
5 473
5 476
5 478
5 479
5 481
5 482
5 483
5 484
5 486
5 487
5 488
5 489
5 490
5 491
5 492
5 493
6 7
6 8
6 9
6 10
6 11
6 12
6 13
6 14
6 17
6 18
6 20
6 21
6 22
6 23
6 24
6 25
6 26
6 27
6 28
6 29
6 38
6 44
6 47
6 48
6 49
6 51
6 52
6 53
6 54
6 55
6 56
6 57
6 58
6 59
6 61
6 62
6 63
6 64
6 65
6 66
6 68
6 69
6 83
6 84
6 86
6 87
6 88
6 90
6 91
6 92
6 93
6 94
6 95
6 96
6 98
6 106
6 110
6 115
6 116
6 117
6 118
6 119
6 120
6 122
6 123
6 124
6 125
6 126
6 127
6 128
6 129
6 130
6 131
6 133
6 134
6 136
6 137
6 138
6 139
6 142
6 143
6 144
6 146
6 147
6 148
6 149
6 150
6 151
6 152
6 153
6 155
6 156
6 157
6 158
6 159
6 160
6 161
6 162
6 163
6 164
6 165
6 166
6 168
6 169
6 170
6 171
6 172
6 173
6 174
6 175
6 176
6 184
6 185
6 186
6 187
6 188
6 189
6 190
6 191
6 192
6 193
6 194
6 195
6 196
6 197
6 198
6 200
6 201
6 202
6 203
6 204
6 205
6 206
6 207
6 208
6 209
6 210
6 211
6 212
6 213
6 214
6 215
6 216
6 217
6 218
6 219
6 221
6 225
6 226
6 228
6 229
6 230
6 231
6 232
6 233
6 238
6 240
6 248
6 254
6 263
6 265
6 267
6 269
6 270
6 271
6 272
6 273
6 274
6 275
6 276
6 280
6 282
6 283
6 284
6 285
6 286
6 287
6 289
6 290
6 292
6 293
6 294
6 295
6 296
6 297
6 298
6 299
6 300
6 301
6 302
6 304
6 308
6 310
6 311
6 312
6 313
6 314
6 316
6 317
6 321
6 322
6 323
6 328
6 340
6 342
6 352
6 354
6 358
6 363
6 366
6 370
6 371
6 373
6 374
6 375
6 376
6 377
6 378
6 379
6 380
6 386
6 391
6 402
6 404
6 405
6 406
6 409
6 410
6 411
6 412
6 416
6 417
6 424
6 425
6 427
6 428
6 430
6 431
6 432
6 433
6 435
6 436
6 437
6 438
6 439
6 440
6 442
6 447
6 448
6 449
6 453
6 454
6 455
6 458
6 459
6 460
6 461
6 462
6 463
6 464
6 466
6 467
6 468
6 469
6 470
6 471
6 472
6 473
6 474
6 476
6 478
6 479
6 481
6 482
6 483
6 484
6 485
6 487
6 488
6 489
6 490
6 491
6 492
6 493
7 8
7 9
7 10
7 11
7 12
7 13
7 14
7 15
7 16
7 18
7 20
7 21
7 22
7 23
7 24
7 25
7 26
7 27
7 28
7 29
7 37
7 39
7 40
7 41
7 42
7 43
7 47
7 48
7 49
7 50
7 52
7 53
7 54
7 55
7 56
7 57
7 58
7 59
7 60
7 62
7 63
7 64
7 65
7 66
7 67
7 68
7 70
7 78
7 79
7 80
7 81
7 82
7 83
7 85
7 86
7 87
7 88
7 89
7 91
7 92
7 93
7 94
7 95
7 96
7 98
7 106
7 107
7 108
7 109
7 111
7 112
7 115
7 116
7 117
7 118
7 119
7 120
7 121
7 123
7 124
7 125
7 126
7 127
7 128
7 129
7 130
7 131
7 133
7 134
7 136
7 137
7 138
7 139
7 142
7 143
7 144
7 145
7 147
7 148
7 149
7 150
7 151
7 152
7 153
7 154
7 155
7 156
7 157
7 159
7 160
7 161
7 162
7 163
7 164
7 165
7 166
7 168
7 169
7 170
7 171
7 172
7 173
7 174
7 175
7 176
7 191
7 195
7 199
7 213
7 216
7 221
7 225
7 226
7 228
7 229
7 230
7 231
7 232
7 233
7 234
7 235
7 236
7 237
7 239
7 240
7 244
7 245
7 246
7 247
7 249
7 250
7 251
7 252
7 253
7 255
7 263
7 264
7 266
7 267
7 269
7 270
7 271
7 272
7 273
7 274
7 275
7 276
7 281
7 286
7 288
7 289
7 290
7 292
7 293
7 294
7 295
7 296
7 297
7 298
7 299
7 300
7 302
7 303
7 304
7 305
7 306
7 307
7 308
7 309
7 310
7 311
7 312
7 314
7 315
7 316
7 317
7 318
7 319
7 320
7 321
7 322
7 323
7 324
7 325
7 326
7 327
7 329
7 337
7 338
7 339
7 340
7 341
7 343
7 344
7 345
7 346
7 347
7 348
7 349
7 350
7 351
7 352
7 353
7 354
7 355
7 356
7 357
7 359
7 360
7 361
7 362
7 363
7 364
7 365
7 367
7 368
7 369
7 370
7 371
7 373
7 374
7 375
7 376
7 377
7 378
7 379
7 380
7 381
7 382
7 383
7 384
7 385
7 387
7 388
7 389
7 390
7 391
7 402
7 404
7 405
7 406
7 409
7 410
7 411
7 412
7 413
7 414
7 415
7 416
7 418
7 419
7 420
7 421
7 422
7 423
7 424
7 426
7 427
7 428
7 430
7 431
7 432
7 433
7 435
7 436
7 437
7 438
7 439
7 440
7 441
7 442
7 443
7 444
7 445
7 446
7 447
7 449
7 450
7 451
7 452
7 453
7 454
7 455
7 456
7 457
7 458
7 459
7 460
7 461
7 462
7 463
7 464
7 465
7 467
7 468
7 469
7 470
7 471
7 472
7 473
7 474
7 476
7 478
7 482
7 485
7 486
7 487
7 492
7 494
8 9
8 10
8 11
8 12
8 13
8 14
8 17
8 18
8 19
8 20
8 21
8 22
8 24
8 25
8 26
8 27
8 28
8 29
8 38
8 44
8 49
8 50
8 51
8 56
8 59
8 60
8 61
8 66
8 68
8 69
8 83
8 84
8 88
8 89
8 90
8 98
8 106
8 110
8 121
8 122
8 131
8 133
8 134
8 136
8 137
8 138
8 139
8 142
8 144
8 145
8 146
8 151
8 152
8 153
8 154
8 155
8 156
8 157
8 158
8 160
8 161
8 162
8 163
8 164
8 165
8 166
8 167
8 168
8 169
8 171
8 172
8 173
8 174
8 175
8 176
8 191
8 195
8 199
8 213
8 216
8 221
8 225
8 226
8 228
8 229
8 230
8 231
8 232
8 233
8 238
8 240
8 248
8 254
8 265
8 267
8 269
8 270
8 271
8 272
8 273
8 274
8 275
8 276
8 281
8 286
8 287
8 289
8 290
8 291
8 292
8 293
8 294
8 296
8 297
8 298
8 299
8 300
8 301
8 302
8 303
8 304
8 305
8 306
8 307
8 308
8 309
8 310
8 311
8 312
8 313
8 315
8 316
8 317
8 318
8 319
8 320
8 321
8 322
8 323
8 328
8 340
8 342
8 352
8 354
8 358
8 363
8 366
8 370
8 371
8 372
8 373
8 374
8 375
8 377
8 378
8 379
8 380
8 386
8 391
8 402
8 404
8 405
8 406
8 409
8 410
8 411
8 412
8 416
8 417
8 424
8 425
8 427
8 428
8 429
8 430
8 431
8 433
8 434
8 435
8 436
8 437
8 438
8 439
8 440
8 441
8 442
8 443
8 444
8 445
8 446
8 447
8 448
8 450
8 451
8 452
8 453
8 454
8 455
8 456
8 457
8 458
8 461
8 464
8 465
8 466
8 473
8 476
8 478
8 479
8 481
8 482
8 483
8 484
8 485
8 486
8 488
8 489
8 490
8 491
8 492
8 493
9 10
9 11
9 12
9 13
9 14
9 17
9 18
9 19
9 20
9 21
9 22
9 23
9 25
9 26
9 27
9 28
9 29
9 38
9 44
9 49
9 50
9 51
9 56
9 59
9 60
9 61
9 66
9 68
9 69
9 83
9 84
9 88
9 89
9 90
9 98
9 106
9 110
9 121
9 122
9 131
9 133
9 134
9 136
9 137
9 138
9 139
9 142
9 144
9 145
9 146
9 151
9 152
9 153
9 154
9 155
9 156
9 157
9 158
9 159
9 161
9 162
9 163
9 164
9 165
9 166
9 167
9 168
9 169
9 170
9 172
9 173
9 174
9 175
9 176
9 191
9 195
9 199
9 213
9 216
9 221
9 225
9 226
9 228
9 229
9 230
9 231
9 232
9 233
9 238
9 240
9 248
9 254
9 263
9 265
9 267
9 268
9 269
9 270
9 272
9 273
9 274
9 275
9 276
9 281
9 286
9 287
9 289
9 290
9 292
9 293
9 294
9 295
9 296
9 297
9 298
9 299
9 300
9 301
9 302
9 303
9 304
9 305
9 306
9 307
9 308
9 309
9 310
9 311
9 312
9 313
9 314
9 315
9 317
9 318
9 319
9 320
9 321
9 322
9 323
9 328
9 340
9 342
9 352
9 354
9 358
9 363
9 366
9 370
9 371
9 373
9 374
9 375
9 376
9 377
9 378
9 379
9 380
9 386
9 391
9 402
9 404
9 405
9 406
9 409
9 410
9 411
9 412
9 416
9 417
9 424
9 425
9 427
9 428
9 429
9 430
9 431
9 432
9 434
9 435
9 436
9 437
9 438
9 439
9 440
9 442
9 447
9 448
9 449
9 453
9 454
9 455
9 458
9 461
9 464
9 465
9 466
9 473
9 476
9 478
9 479
9 482
9 485
9 486
9 487
9 492
9 493
10 11
10 12
10 13
10 14
10 17
10 18
10 19
10 20
10 21
10 22
10 23
10 24
10 26
10 27
10 28
10 29
10 38
10 44
10 49
10 50
10 51
10 56
10 59
10 60
10 61
10 66
10 68
10 69
10 83
10 84
10 88
10 89
10 90
10 98
10 106
10 110
10 121
10 122
10 131
10 133
10 134
10 136
10 137
10 138
10 139
10 142
10 144
10 145
10 146
10 151
10 152
10 153
10 154
10 155
10 156
10 157
10 158
10 159
10 160
10 162
10 163
10 164
10 165
10 166
10 167
10 168
10 169
10 170
10 171
10 173
10 174
10 175
10 176
10 191
10 195
10 199
10 213
10 216
10 221
10 225
10 226
10 228
10 229
10 230
10 231
10 232
10 233
10 238
10 240
10 248
10 254
10 263
10 265
10 267
10 268
10 269
10 270
10 271
10 273
10 274
10 275
10 276
10 281
10 286
10 287
10 289
10 290
10 291
10 292
10 293
10 294
10 295
10 297
10 298
10 299
10 300
10 301
10 302
10 303
10 304
10 305
10 306
10 307
10 308
10 309
10 310
10 311
10 312
10 313
10 314
10 315
10 316
10 318
10 319
10 320
10 321
10 322
10 323
10 328
10 340
10 342
10 352
10 354
10 358
10 363
10 366
10 370
10 371
10 372
10 373
10 374
10 375
10 376
10 378
10 379
10 380
10 386
10 391
10 402
10 404
10 405
10 406
10 409
10 410
10 411
10 412
10 416
10 417
10 424
10 425
10 427
10 428
10 429
10 430
10 431
10 432
10 433
10 434
10 436
10 437
10 438
10 439
10 440
10 442
10 447
10 448
10 449
10 453
10 454
10 455
10 458
10 461
10 464
10 465
10 466
10 473
10 476
10 478
10 479
10 482
10 485
10 486
10 487
10 492
10 493
11 12
11 13
11 14
11 17
11 18
11 19
11 20
11 21
11 22
11 23
11 24
11 25
11 27
11 28
11 29
11 38
11 44
11 49
11 50
11 51
11 56
11 59
11 60
11 61
11 66
11 68
11 69
11 83
11 84
11 88
11 89
11 90
11 98
11 106
11 110
11 121
11 122
11 131
11 133
11 134
11 135
11 136
11 137
11 139
11 142
11 144
11 145
11 146
11 151
11 152
11 153
11 155
11 156
11 157
11 158
11 159
11 160
11 161
11 162
11 163
11 164
11 165
11 166
11 167
11 168
11 169
11 170
11 171
11 172
11 174
11 175
11 176
11 184
11 185
11 186
11 187
11 188
11 189
11 190
11 191
11 192
11 193
11 194
11 195
11 196
11 197
11 198
11 199
11 200
11 201
11 202
11 203
11 204
11 205
11 206
11 207
11 208
11 209
11 210
11 211
11 212
11 214
11 215
11 216
11 217
11 218
11 219
11 221
11 225
11 226
11 227
11 228
11 229
11 231
11 232
11 233
11 238
11 240
11 248
11 254
11 263
11 265
11 267
11 268
11 269
11 270
11 271
11 272
11 274
11 275
11 276
11 281
11 286
11 287
11 289
11 290
11 291
11 292
11 293
11 294
11 295
11 296
11 298
11 299
11 300
11 301
11 302
11 303
11 304
11 305
11 306
11 307
11 308
11 309
11 310
11 311
11 312
11 313
11 314
11 315
11 316
11 317
11 318
11 319
11 320
11 322
11 323
11 328
11 340
11 342
11 352
11 354
11 358
11 363
11 366
11 370
11 371
11 372
11 373
11 374
11 375
11 376
11 377
11 379
11 380
11 386
11 391
11 402
11 403
11 404
11 405
11 406
11 407
11 408
11 410
11 411
11 412
11 416
11 417
11 424
11 425
11 427
11 428
11 429
11 430
11 431
11 432
11 433
11 434
11 435
11 437
11 438
11 439
11 440
11 441
11 442
11 443
11 444
11 445
11 446
11 447
11 448
11 449
11 450
11 451
11 452
11 454
11 455
11 456
11 457
11 458
11 461
11 464
11 465
11 466
11 473
11 476
11 478
11 479
11 482
11 485
11 486
11 487
11 492
11 493
12 13
12 14
12 17
12 18
12 19
12 20
12 21
12 22
12 23
12 24
12 25
12 26
12 28
12 29
12 38
12 44
12 49
12 50
12 51
12 56
12 59
12 60
12 61
12 66
12 68
12 69
12 83
12 84
12 88
12 89
12 90
12 98
12 106
12 110
12 121
12 122
12 131
12 133
12 134
12 136
12 137
12 138
12 139
12 142
12 144
12 145
12 146
12 151
12 152
12 153
12 154
12 155
12 156
12 157
12 158
12 159
12 160
12 161
12 163
12 164
12 165
12 166
12 167
12 168
12 169
12 170
12 171
12 172
12 173
12 175
12 176
12 191
12 195
12 199
12 213
12 216
12 221
12 225
12 226
12 227
12 228
12 229
12 230
12 232
12 233
12 238
12 240
12 248
12 254
12 263
12 265
12 267
12 268
12 269
12 270
12 271
12 272
12 273
12 275
12 276
12 281
12 286
12 287
12 289
12 290
12 292
12 293
12 294
12 295
12 296
12 297
12 298
12 299
12 300
12 301
12 302
12 303
12 304
12 305
12 306
12 307
12 308
12 309
12 310
12 311
12 312
12 313
12 314
12 315
12 316
12 317
12 318
12 319
12 320
12 321
12 323
12 328
12 340
12 342
12 352
12 354
12 358
12 363
12 366
12 370
12 371
12 372
12 373
12 374
12 375
12 376
12 377
12 378
12 380
12 386
12 391
12 402
12 403
12 404
12 405
12 406
12 407
12 408
12 409
12 411
12 412
12 416
12 417
12 424
12 425
12 427
12 428
12 429
12 430
12 431
12 432
12 433
12 434
12 435
12 436
12 438
12 439
12 440
12 441
12 442
12 443
12 444
12 445
12 446
12 447
12 448
12 449
12 450
12 451
12 452
12 453
12 455
12 456
12 457
12 458
12 461
12 464
12 465
12 466
12 473
12 476
12 478
12 479
12 482
12 485
12 486
12 487
12 492
12 493
13 14
13 17
13 18
13 19
13 20
13 21
13 22
13 23
13 24
13 25
13 26
13 27
13 29
13 38
13 44
13 47
13 48
13 49
13 50
13 51
13 52
13 53
13 54
13 55
13 57
13 58
13 59
13 60
13 61
13 62
13 63
13 64
13 65
13 68
13 69
13 83
13 84
13 88
13 89
13 90
13 98
13 106
13 110
13 115
13 116
13 117
13 118
13 119
13 120
13 121
13 122
13 123
13 124
13 125
13 126
13 127
13 128
13 129
13 130
13 133
13 134
13 135
13 136
13 137
13 138
13 141
13 143
13 144
13 145
13 146
13 147
13 148
13 149
13 150
13 152
13 153
13 154
13 155
13 156
13 157
13 158
13 159
13 160
13 161
13 162
13 164
13 165
13 166
13 167
13 168
13 169
13 170
13 171
13 172
13 173
13 174
13 176
13 184
13 185
13 186
13 187
13 188
13 189
13 190
13 191
13 192
13 193
13 194
13 195
13 196
13 197
13 198
13 199
13 200
13 201
13 202
13 203
13 204
13 205
13 206
13 207
13 208
13 209
13 210
13 211
13 212
13 213
13 214
13 215
13 217
13 218
13 219
13 221
13 225
13 226
13 227
13 228
13 229
13 230
13 231
13 233
13 238
13 240
13 248
13 254
13 263
13 265
13 267
13 268
13 269
13 270
13 271
13 272
13 273
13 274
13 276
13 280
13 281
13 282
13 283
13 284
13 285
13 287
13 289
13 290
13 291
13 292
13 293
13 294
13 295
13 296
13 297
13 299
13 300
13 301
13 302
13 304
13 308
13 310
13 311
13 312
13 313
13 314
13 316
13 317
13 321
13 322
13 323
13 328
13 340
13 342
13 352
13 354
13 358
13 363
13 366
13 370
13 371
13 372
13 373
13 374
13 375
13 376
13 377
13 378
13 379
13 386
13 391
13 402
13 403
13 404
13 405
13 406
13 407
13 408
13 409
13 410
13 412
13 416
13 417
13 424
13 425
13 427
13 428
13 429
13 430
13 431
13 432
13 433
13 434
13 435
13 436
13 437
13 439
13 440
13 441
13 442
13 443
13 444
13 445
13 446
13 447
13 448
13 449
13 450
13 451
13 452
13 453
13 454
13 456
13 457
13 458
13 459
13 460
13 461
13 462
13 463
13 464
13 465
13 466
13 467
13 468
13 469
13 470
13 471
13 472
13 474
13 475
13 477
13 479
13 482
13 485
13 486
13 487
13 492
13 493
14 17
14 18
14 19
14 20
14 21
14 22
14 23
14 24
14 25
14 26
14 27
14 28
14 38
14 44
14 49
14 50
14 51
14 56
14 59
14 60
14 61
14 66
14 68
14 69
14 83
14 84
14 88
14 89
14 90
14 98
14 106
14 110
14 121
14 122
14 131
14 133
14 134
14 136
14 137
14 138
14 139
14 142
14 144
14 145
14 146
14 151
14 152
14 153
14 154
14 155
14 156
14 157
14 158
14 159
14 160
14 161
14 162
14 163
14 165
14 166
14 167
14 168
14 169
14 170
14 171
14 172
14 173
14 174
14 175
14 191
14 195
14 199
14 213
14 216
14 221
14 225
14 226
14 227
14 228
14 229
14 230
14 231
14 232
14 238
14 240
14 248
14 254
14 263
14 265
14 267
14 268
14 269
14 270
14 271
14 272
14 273
14 274
14 275
14 281
14 286
14 287
14 289
14 290
14 291
14 292
14 293
14 294
14 295
14 296
14 297
14 298
14 300
14 301
14 302
14 303
14 304
14 305
14 306
14 307
14 308
14 309
14 310
14 311
14 312
14 313
14 314
14 315
14 316
14 317
14 318
14 319
14 320
14 321
14 322
14 328
14 340
14 342
14 352
14 354
14 358
14 363
14 366
14 370
14 371
14 373
14 374
14 375
14 376
14 377
14 378
14 379
14 380
14 386
14 391
14 402
14 403
14 404
14 405
14 406
14 407
14 408
14 409
14 410
14 411
14 416
14 417
14 424
14 425
14 427
14 428
14 429
14 430
14 431
14 432
14 433
14 434
14 435
14 436
14 437
14 438
14 440
14 441
14 442
14 443
14 444
14 445
14 446
14 447
14 448
14 449
14 450
14 451
14 452
14 453
14 454
14 455
14 456
14 457
14 461
14 464
14 465
14 466
14 473
14 476
14 478
14 479
14 482
14 485
14 486
14 487
14 492
14 493
15 16
15 17
15 38
15 44
15 51
15 61
15 69
15 84
15 90
15 110
15 122
15 146
15 158
15 185
15 186
15 187
15 188
15 189
15 190
15 191
15 192
15 193
15 194
15 195
15 196
15 197
15 198
15 199
15 200
15 201
15 202
15 203
15 204
15 205
15 206
15 207
15 208
15 209
15 210
15 211
15 212
15 213
15 214
15 215
15 216
15 217
15 218
15 219
15 220
15 238
15 248
15 254
15 264
15 265
15 287
15 301
15 313
15 328
15 342
15 358
15 366
15 381
15 383
15 384
15 385
15 386
15 387
15 388
15 389
15 390
15 417
15 425
15 448
15 466
15 479
15 493
16 17
16 38
16 44
16 51
16 61
16 69
16 84
16 90
16 110
16 122
16 146
16 158
16 184
16 185
16 186
16 187
16 188
16 189
16 191
16 192
16 193
16 194
16 195
16 196
16 197
16 198
16 199
16 200
16 201
16 202
16 203
16 204
16 205
16 206
16 207
16 208
16 209
16 210
16 211
16 212
16 213
16 214
16 215
16 216
16 217
16 218
16 219
16 238
16 248
16 254
16 265
16 266
16 287
16 301
16 313
16 328
16 342
16 358
16 366
16 382
16 386
16 417
16 425
16 448
16 466
16 479
16 493
17 37
17 39
17 40
17 41
17 42
17 43
17 47
17 48
17 49
17 50
17 52
17 53
17 54
17 55
17 56
17 57
17 58
17 59
17 60
17 62
17 63
17 64
17 65
17 66
17 67
17 68
17 70
17 78
17 79
17 80
17 81
17 82
17 83
17 85
17 86
17 87
17 88
17 89
17 91
17 92
17 93
17 94
17 95
17 96
17 106
17 107
17 108
17 109
17 111
17 112
17 115
17 116
17 117
17 118
17 119
17 120
17 121
17 123
17 124
17 125
17 126
17 127
17 128
17 129
17 130
17 131
17 143
17 144
17 145
17 147
17 148
17 149
17 150
17 151
17 152
17 153
17 154
17 155
17 156
17 157
17 159
17 160
17 161
17 162
17 163
17 164
17 184
17 190
17 220
17 234
17 235
17 236
17 237
17 239
17 244
17 245
17 246
17 247
17 249
17 250
17 251
17 252
17 253
17 255
17 264
17 266
17 288
17 300
17 302
17 303
17 304
17 305
17 306
17 307
17 308
17 309
17 310
17 311
17 312
17 314
17 315
17 316
17 317
17 318
17 319
17 320
17 321
17 322
17 323
17 324
17 325
17 326
17 327
17 329
17 337
17 338
17 339
17 340
17 341
17 343
17 344
17 345
17 346
17 347
17 348
17 349
17 350
17 351
17 352
17 353
17 354
17 355
17 356
17 357
17 359
17 360
17 361
17 362
17 363
17 364
17 365
17 367
17 368
17 369
17 381
17 382
17 383
17 384
17 385
17 387
17 388
17 389
17 390
17 413
17 414
17 415
17 416
17 418
17 419
17 420
17 421
17 422
17 423
17 424
17 426
17 440
17 441
17 442
17 443
17 444
17 445
17 446
17 447
17 449
17 450
17 451
17 452
17 453
17 454
17 455
17 456
17 457
17 458
17 459
17 460
17 461
17 462
17 463
17 464
17 465
17 467
17 468
17 469
17 470
17 471
17 472
17 473
17 474
17 492
17 494
18 19
18 20
18 21
18 22
18 23
18 24
18 25
18 26
18 27
18 28
18 29
18 56
18 66
18 98
18 106
18 118
18 131
18 134
18 135
18 136
18 137
18 138
18 139
18 142
18 151
18 153
18 154
18 155
18 156
18 157
18 158
18 159
18 160
18 161
18 162
18 163
18 164
18 166
18 167
18 168
18 169
18 170
18 171
18 172
18 173
18 174
18 175
18 176
18 188
18 191
18 213
18 216
18 221
18 226
18 227
18 228
18 229
18 230
18 231
18 232
18 233
18 240
18 263
18 268
18 269
18 270
18 271
18 272
18 273
18 274
18 275
18 276
18 286
18 290
18 291
18 292
18 293
18 294
18 295
18 296
18 297
18 298
18 299
18 303
18 304
18 305
18 306
18 307
18 308
18 309
18 310
18 311
18 312
18 313
18 314
18 315
18 316
18 317
18 318
18 319
18 320
18 321
18 322
18 323
18 352
18 363
18 371
18 372
18 373
18 374
18 375
18 376
18 377
18 378
18 379
18 380
18 391
18 403
18 404
18 405
18 406
18 409
18 410
18 411
18 412
18 414
18 428
18 429
18 430
18 431
18 432
18 433
18 434
18 435
18 436
18 437
18 438
18 439
18 441
18 442
18 447
18 449
18 453
18 454
18 455
18 458
18 461
18 473
18 476
18 478
18 482
18 485
18 487
19 20
19 21
19 22
19 23
19 24
19 25
19 26
19 27
19 28
19 29
19 56
19 66
19 98
19 106
19 115
19 116
19 117
19 119
19 120
19 121
19 122
19 123
19 124
19 125
19 126
19 127
19 128
19 129
19 130
19 131
19 133
19 134
19 136
19 137
19 138
19 139
19 142
19 151
19 152
19 153
19 155
19 156
19 157
19 158
19 159
19 160
19 161
19 162
19 163
19 164
19 165
19 166
19 168
19 169
19 170
19 171
19 172
19 173
19 174
19 175
19 176
19 184
19 185
19 186
19 187
19 189
19 190
19 191
19 192
19 193
19 194
19 195
19 196
19 197
19 198
19 199
19 200
19 201
19 202
19 203
19 204
19 205
19 206
19 207
19 208
19 209
19 210
19 211
19 212
19 213
19 214
19 215
19 216
19 217
19 218
19 219
19 221
19 225
19 226
19 228
19 229
19 230
19 231
19 232
19 233
19 240
19 263
19 267
19 269
19 270
19 271
19 272
19 273
19 274
19 275
19 276
19 286
19 289
19 290
19 292
19 293
19 294
19 295
19 296
19 297
19 298
19 299
19 302
19 303
19 304
19 305
19 307
19 308
19 309
19 310
19 311
19 312
19 313
19 314
19 315
19 316
19 317
19 318
19 319
19 320
19 321
19 322
19 323
19 352
19 363
19 370
19 371
19 373
19 374
19 375
19 376
19 377
19 378
19 379
19 380
19 391
19 402
19 404
19 405
19 406
19 407
19 408
19 409
19 410
19 411
19 412
19 413
19 415
19 416
19 417
19 418
19 419
19 420
19 421
19 422
19 427
19 428
19 430
19 431
19 432
19 433
19 434
19 435
19 436
19 437
19 438
19 439
19 440
19 442
19 443
19 444
19 445
19 446
19 447
19 448
19 449
19 450
19 451
19 452
19 453
19 454
19 455
19 456
19 457
19 458
19 461
19 473
19 476
19 478
19 482
19 485
19 487
20 21
20 22
20 23
20 24
20 25
20 26
20 27
20 28
20 29
20 56
20 66
20 97
20 99
20 100
20 101
20 102
20 103
20 104
20 105
20 107
20 108
20 109
20 110
20 111
20 112
20 118
20 131
20 133
20 135
20 136
20 137
20 138
20 139
20 142
20 151
20 152
20 153
20 154
20 156
20 157
20 158
20 159
20 160
20 161
20 162
20 163
20 164
20 165
20 166
20 167
20 169
20 170
20 171
20 172
20 173
20 174
20 175
20 176
20 184
20 185
20 186
20 187
20 188
20 189
20 190
20 192
20 193
20 194
20 195
20 196
20 197
20 198
20 199
20 200
20 201
20 202
20 203
20 204
20 205
20 206
20 207
20 208
20 209
20 210
20 211
20 212
20 213
20 214
20 215
20 216
20 217
20 218
20 219
20 222
20 225
20 227
20 228
20 229
20 230
20 231
20 232
20 233
20 241
20 242
20 263
20 268
20 269
20 270
20 271
20 272
20 273
20 274
20 275
20 276
20 286
20 289
20 290
20 291
20 293
20 294
20 295
20 296
20 297
20 298
20 299
20 302
20 303
20 304
20 305
20 306
20 307
20 309
20 310
20 311
20 312
20 313
20 314
20 315
20 316
20 317
20 318
20 319
20 320
20 321
20 322
20 323
20 353
20 354
20 355
20 356
20 357
20 358
20 359
20 360
20 361
20 362
20 364
20 365
20 366
20 367
20 368
20 369
20 370
20 371
20 372
20 374
20 375
20 376
20 377
20 378
20 379
20 380
20 392
20 393
20 394
20 402
20 403
20 405
20 406
20 407
20 408
20 409
20 410
20 411
20 412
20 414
20 427
20 428
20 429
20 431
20 432
20 433
20 434
20 435
20 436
20 437
20 438
20 439
20 441
20 442
20 447
20 449
20 453
20 454
20 455
20 458
20 459
20 460
20 462
20 463
20 464
20 465
20 466
20 467
20 468
20 469
20 470
20 471
20 472
20 473
20 474
20 476
20 478
20 481
20 483
20 484
20 485
20 486
20 487
20 488
20 489
20 490
20 491
21 22
21 23
21 24
21 25
21 26
21 27
21 28
21 29
21 56
21 66
21 98
21 106
21 118
21 131
21 133
21 134
21 135
21 137
21 138
21 139
21 142
21 151
21 152
21 153
21 154
21 155
21 157
21 158
21 159
21 160
21 161
21 162
21 163
21 164
21 165
21 167
21 168
21 169
21 170
21 171
21 172
21 173
21 174
21 175
21 176
21 188
21 191
21 213
21 216
21 221
21 225
21 226
21 227
21 229
21 230
21 231
21 232
21 233
21 240
21 263
21 267
21 268
21 270
21 271
21 272
21 273
21 274
21 275
21 276
21 286
21 289
21 290
21 291
21 292
21 294
21 295
21 296
21 297
21 298
21 299
21 302
21 303
21 304
21 305
21 306
21 307
21 308
21 309
21 311
21 312
21 313
21 314
21 315
21 316
21 317
21 318
21 319
21 320
21 321
21 322
21 323
21 352
21 363
21 370
21 371
21 372
21 373
21 375
21 376
21 377
21 378
21 379
21 380
21 391
21 402
21 403
21 404
21 406
21 407
21 408
21 409
21 410
21 411
21 412
21 414
21 427
21 428
21 429
21 430
21 432
21 433
21 434
21 435
21 436
21 437
21 438
21 439
21 440
21 441
21 443
21 444
21 445
21 446
21 447
21 448
21 449
21 450
21 451
21 452
21 453
21 454
21 455
21 456
21 457
21 458
21 461
21 473
21 476
21 478
21 482
21 485
21 487
22 23
22 24
22 25
22 26
22 27
22 28
22 29
22 56
22 66
22 98
22 106
22 118
22 131
22 133
22 134
22 135
22 136
22 138
22 139
22 142
22 151
22 152
22 153
22 154
22 155
22 156
22 158
22 159
22 160
22 161
22 162
22 163
22 164
22 165
22 166
22 167
22 168
22 170
22 171
22 172
22 173
22 174
22 175
22 176
22 188
22 191
22 213
22 216
22 221
22 225
22 226
22 227
22 228
22 230
22 231
22 232
22 233
22 240
22 263
22 267
22 268
22 269
22 271
22 272
22 273
22 274
22 275
22 276
22 286
22 289
22 290
22 291
22 292
22 293
22 295
22 296
22 297
22 298
22 299
22 302
22 303
22 304
22 305
22 306
22 307
22 308
22 309
22 310
22 311
22 313
22 314
22 315
22 316
22 317
22 318
22 319
22 320
22 321
22 322
22 323
22 352
22 363
22 370
22 371
22 372
22 373
22 374
22 376
22 377
22 378
22 379
22 380
22 391
22 402
22 403
22 404
22 405
22 407
22 408
22 409
22 410
22 411
22 412
22 414
22 427
22 429
22 430
22 431
22 432
22 433
22 435
22 436
22 437
22 438
22 439
22 440
22 441
22 442
22 443
22 444
22 445
22 446
22 448
22 449
22 450
22 451
22 452
22 453
22 454
22 455
22 456
22 457
22 458
22 461
22 473
22 476
22 478
22 481
22 482
22 483
22 484
22 486
22 487
22 488
22 489
22 490
22 491
23 24
23 25
23 26
23 27
23 28
23 29
23 56
23 66
23 98
23 106
23 118
23 131
23 133
23 135
23 136
23 137
23 138
23 139
23 142
23 151
23 152
23 153
23 154
23 155
23 156
23 157
23 158
23 160
23 161
23 162
23 163
23 164
23 165
23 166
23 167
23 168
23 169
23 171
23 172
23 173
23 174
23 175
23 176
23 188
23 191
23 213
23 216
23 221
23 225
23 227
23 228
23 229
23 230
23 231
23 232
23 233
23 240
23 268
23 269
23 270
23 271
23 272
23 273
23 274
23 275
23 276
23 286
23 289
23 290
23 291
23 292
23 293
23 294
23 296
23 297
23 298
23 299
23 302
23 303
23 304
23 305
23 306
23 307
23 308
23 309
23 310
23 311
23 312
23 313
23 315
23 316
23 317
23 318
23 319
23 320
23 321
23 322
23 323
23 352
23 363
23 370
23 371
23 372
23 373
23 374
23 375
23 377
23 378
23 379
23 380
23 391
23 403
23 404
23 405
23 406
23 409
23 410
23 411
23 412
23 414
23 427
23 428
23 429
23 430
23 431
23 433
23 434
23 435
23 436
23 437
23 438
23 439
23 440
23 441
23 442
23 443
23 444
23 445
23 446
23 447
23 448
23 450
23 451
23 452
23 453
23 454
23 455
23 456
23 457
23 458
23 461
23 473
23 476
23 478
23 481
23 482
23 483
23 484
23 485
23 486
23 488
23 489
23 490
23 491
24 25
24 26
24 27
24 28
24 29
24 56
24 66
24 98
24 106
24 118
24 131
24 133
24 135
24 136
24 137
24 138
24 139
24 142
24 151
24 152
24 153
24 154
24 155
24 156
24 157
24 158
24 159
24 161
24 162
24 163
24 164
24 165
24 166
24 167
24 168
24 169
24 170
24 172
24 173
24 174
24 175
24 176
24 188
24 191
24 213
24 216
24 221
24 225
24 227
24 228
24 229
24 230
24 231
24 232
24 233
24 240
24 263
24 267
24 268
24 269
24 270
24 272
24 273
24 274
24 275
24 276
24 286
24 289
24 291
24 292
24 293
24 294
24 295
24 296
24 297
24 298
24 299
24 302
24 303
24 304
24 305
24 306
24 307
24 308
24 309
24 310
24 311
24 312
24 313
24 314
24 315
24 317
24 318
24 319
24 320
24 321
24 322
24 323
24 352
24 363
24 370
24 372
24 373
24 374
24 375
24 376
24 377
24 378
24 379
24 380
24 391
24 403
24 404
24 405
24 406
24 409
24 410
24 411
24 412
24 414
24 427
24 428
24 429
24 430
24 431
24 432
24 434
24 435
24 436
24 437
24 438
24 439
24 441
24 442
24 447
24 449
24 453
24 454
24 455
24 458
24 461
24 473
24 476
24 478
24 482
24 485
24 487
25 26
25 27
25 28
25 29
25 56
25 66
25 98
25 106
25 118
25 131
25 133
25 135
25 136
25 137
25 138
25 139
25 142
25 151
25 152
25 153
25 154
25 155
25 156
25 157
25 158
25 159
25 160
25 162
25 163
25 164
25 165
25 166
25 167
25 168
25 169
25 170
25 171
25 173
25 174
25 175
25 176
25 188
25 191
25 213
25 216
25 221
25 225
25 227
25 228
25 229
25 230
25 231
25 232
25 233
25 240
25 263
25 267
25 268
25 269
25 270
25 271
25 273
25 274
25 275
25 276
25 286
25 289
25 290
25 291
25 292
25 293
25 294
25 295
25 297
25 298
25 299
25 302
25 303
25 304
25 305
25 306
25 307
25 308
25 309
25 310
25 311
25 312
25 313
25 314
25 315
25 316
25 318
25 319
25 320
25 321
25 322
25 323
25 352
25 363
25 370
25 371
25 372
25 373
25 374
25 375
25 376
25 378
25 379
25 380
25 391
25 403
25 404
25 405
25 406
25 409
25 410
25 411
25 412
25 414
25 427
25 428
25 429
25 430
25 431
25 432
25 433
25 434
25 436
25 437
25 438
25 439
25 441
25 442
25 447
25 449
25 453
25 454
25 455
25 458
25 461
25 473
25 476
25 478
25 482
25 485
25 487
26 27
26 28
26 29
26 56
26 66
26 98
26 106
26 118
26 131
26 133
26 134
26 135
26 136
26 137
26 139
26 142
26 151
26 152
26 154
26 155
26 156
26 157
26 159
26 160
26 161
26 162
26 163
26 164
26 165
26 166
26 167
26 168
26 169
26 170
26 171
26 172
26 174
26 175
26 176
26 184
26 185
26 186
26 187
26 188
26 189
26 190
26 191
26 192
26 193
26 194
26 195
26 196
26 197
26 198
26 199
26 200
26 201
26 202
26 203
26 204
26 205
26 206
26 207
26 208
26 209
26 210
26 211
26 212
26 214
26 215
26 216
26 217
26 218
26 219
26 221
26 225
26 226
26 227
26 228
26 229
26 231
26 232
26 233
26 240
26 263
26 267
26 268
26 269
26 270
26 271
26 272
26 274
26 275
26 276
26 286
26 289
26 290
26 291
26 292
26 293
26 294
26 295
26 296
26 298
26 299
26 302
26 303
26 304
26 305
26 306
26 307
26 308
26 309
26 310
26 311
26 312
26 313
26 314
26 315
26 316
26 317
26 318
26 319
26 320
26 322
26 323
26 352
26 363
26 370
26 371
26 372
26 373
26 374
26 375
26 376
26 377
26 379
26 380
26 391
26 402
26 403
26 404
26 405
26 406
26 407
26 408
26 410
26 411
26 412
26 414
26 427
26 428
26 429
26 430
26 431
26 432
26 433
26 434
26 435
26 437
26 438
26 439
26 440
26 441
26 442
26 443
26 444
26 445
26 446
26 447
26 448
26 449
26 450
26 451
26 452
26 454
26 455
26 456
26 457
26 458
26 461
26 473
26 476
26 478
26 482
26 485
26 487
27 28
27 29
27 56
27 66
27 98
27 106
27 118
27 131
27 133
27 135
27 136
27 137
27 138
27 139
27 142
27 151
27 152
27 153
27 154
27 155
27 156
27 157
27 158
27 159
27 160
27 161
27 163
27 164
27 165
27 166
27 167
27 168
27 169
27 170
27 171
27 172
27 173
27 175
27 176
27 188
27 191
27 213
27 216
27 221
27 225
27 226
27 227
27 228
27 229
27 230
27 232
27 233
27 240
27 263
27 267
27 268
27 269
27 270
27 271
27 272
27 273
27 275
27 276
27 286
27 289
27 291
27 292
27 293
27 294
27 295
27 296
27 297
27 298
27 299
27 302
27 303
27 304
27 305
27 306
27 307
27 308
27 309
27 310
27 311
27 312
27 313
27 314
27 315
27 316
27 317
27 318
27 319
27 320
27 321
27 323
27 352
27 363
27 370
27 371
27 372
27 373
27 374
27 375
27 376
27 377
27 378
27 380
27 391
27 402
27 403
27 404
27 405
27 406
27 407
27 408
27 409
27 411
27 412
27 414
27 427
27 428
27 429
27 430
27 431
27 432
27 433
27 434
27 435
27 436
27 438
27 439
27 440
27 441
27 442
27 443
27 444
27 445
27 446
27 447
27 448
27 449
27 450
27 451
27 452
27 453
27 455
27 456
27 457
27 458
27 461
27 473
27 476
27 478
27 482
27 485
27 487
28 29
28 47
28 48
28 49
28 50
28 51
28 52
28 53
28 54
28 55
28 57
28 58
28 59
28 60
28 61
28 62
28 63
28 64
28 65
28 98
28 106
28 115
28 116
28 117
28 118
28 119
28 120
28 121
28 122
28 123
28 124
28 125
28 126
28 127
28 128
28 129
28 130
28 133
28 134
28 135
28 136
28 137
28 138
28 141
28 143
28 144
28 145
28 146
28 147
28 148
28 149
28 150
28 152
28 153
28 154
28 155
28 156
28 157
28 158
28 159
28 160
28 161
28 162
28 164
28 165
28 166
28 167
28 168
28 169
28 170
28 171
28 172
28 173
28 174
28 176
28 184
28 185
28 186
28 187
28 188
28 189
28 190
28 191
28 192
28 193
28 194
28 195
28 196
28 197
28 198
28 199
28 200
28 201
28 202
28 203
28 204
28 205
28 206
28 207
28 208
28 209
28 210
28 211
28 212
28 213
28 214
28 215
28 217
28 218
28 219
28 221
28 225
28 226
28 227
28 228
28 229
28 230
28 231
28 233
28 240
28 263
28 267
28 268
28 269
28 270
28 271
28 272
28 273
28 274
28 276
28 280
28 281
28 282
28 283
28 284
28 285
28 289
28 290
28 291
28 292
28 293
28 294
28 295
28 296
28 297
28 299
28 302
28 306
28 308
28 310
28 312
28 314
28 316
28 317
28 321
28 322
28 323
28 352
28 363
28 370
28 371
28 372
28 373
28 374
28 375
28 376
28 377
28 378
28 379
28 391
28 402
28 403
28 404
28 405
28 406
28 407
28 408
28 409
28 410
28 412
28 414
28 427
28 428
28 429
28 430
28 431
28 432
28 433
28 434
28 435
28 436
28 437
28 439
28 440
28 441
28 442
28 443
28 444
28 445
28 446
28 447
28 448
28 449
28 450
28 451
28 452
28 453
28 454
28 456
28 457
28 458
28 459
28 460
28 461
28 462
28 463
28 464
28 465
28 466
28 467
28 468
28 469
28 470
28 471
28 472
28 474
28 475
28 477
28 482
28 485
28 487
29 56
29 66
29 98
29 106
29 118
29 131
29 133
29 135
29 136
29 137
29 138
29 139
29 142
29 151
29 152
29 153
29 154
29 155
29 156
29 157
29 158
29 159
29 160
29 161
29 162
29 163
29 165
29 166
29 167
29 168
29 169
29 170
29 171
29 172
29 173
29 174
29 175
29 188
29 191
29 213
29 216
29 221
29 225
29 226
29 227
29 228
29 229
29 230
29 231
29 232
29 240
29 263
29 267
29 268
29 269
29 270
29 271
29 272
29 273
29 274
29 275
29 286
29 289
29 290
29 291
29 292
29 293
29 294
29 295
29 296
29 297
29 298
29 302
29 303
29 304
29 305
29 306
29 307
29 308
29 309
29 310
29 311
29 312
29 313
29 314
29 315
29 316
29 317
29 318
29 319
29 320
29 321
29 322
29 352
29 363
29 370
29 372
29 373
29 374
29 375
29 376
29 377
29 378
29 379
29 380
29 391
29 402
29 403
29 404
29 405
29 406
29 407
29 408
29 409
29 410
29 411
29 414
29 427
29 428
29 429
29 430
29 431
29 432
29 433
29 434
29 435
29 436
29 437
29 438
29 440
29 441
29 442
29 443
29 444
29 445
29 446
29 447
29 448
29 449
29 450
29 451
29 452
29 453
29 454
29 455
29 456
29 457
29 461
29 473
29 476
29 478
29 482
29 485
29 487
30 31
30 32
30 33
30 34
30 35
30 36
30 38
30 46
30 68
30 69
30 70
30 72
30 73
30 74
30 75
30 76
30 77
30 79
30 80
30 81
30 82
30 83
30 84
30 85
30 87
30 88
30 89
30 90
30 91
30 92
30 93
30 94
30 95
30 96
30 98
30 99
30 100
30 101
30 102
30 103
30 104
30 105
30 116
30 117
30 118
30 119
30 120
30 121
30 122
30 123
30 124
30 125
30 126
30 127
30 128
30 129
30 130
30 131
30 178
30 179
30 180
30 181
30 182
30 183
30 184
30 186
30 187
30 188
30 189
30 190
30 191
30 192
30 193
30 194
30 195
30 196
30 197
30 198
30 199
30 200
30 201
30 202
30 203
30 204
30 205
30 206
30 207
30 208
30 209
30 210
30 211
30 212
30 213
30 214
30 215
30 216
30 217
30 218
30 219
30 257
30 258
30 259
30 260
30 261
30 262
30 331
30 332
30 333
30 334
30 335
30 336
30 338
30 339
30 341
30 343
30 349
30 350
30 357
30 396
30 397
30 398
30 399
30 400
30 401
30 446
30 460
30 461
30 462
30 463
30 464
30 465
30 466
30 467
30 468
30 469
30 470
30 471
30 472
30 473
30 474
31 32
31 33
31 34
31 35
31 36
31 37
31 45
31 67
31 71
31 73
31 74
31 75
31 76
31 77
31 78
31 86
31 97
31 98
31 100
31 101
31 102
31 103
31 104
31 105
31 115
31 177
31 179
31 180
31 181
31 182
31 183
31 185
31 256
31 258
31 259
31 260
31 261
31 262
31 330
31 331
31 332
31 333
31 334
31 335
31 337
31 339
31 340
31 341
31 342
31 343
31 344
31 345
31 346
31 347
31 348
31 349
31 350
31 351
31 357
31 395
31 397
31 398
31 399
31 400
31 401
31 446
31 459
32 33
32 34
32 35
32 36
32 37
32 45
32 67
32 71
32 72
32 74
32 75
32 76
32 77
32 78
32 86
32 97
32 98
32 99
32 101
32 102
32 103
32 104
32 105
32 115
32 177
32 178
32 179
32 180
32 181
32 182
32 185
32 256
32 257
32 259
32 260
32 261
32 262
32 330
32 332
32 333
32 334
32 335
32 336
32 337
32 338
32 340
32 341
32 342
32 343
32 344
32 345
32 346
32 347
32 348
32 349
32 350
32 351
32 357
32 395
32 396
32 398
32 399
32 400
32 401
32 446
32 459
33 34
33 35
33 36
33 37
33 45
33 67
33 71
33 72
33 73
33 75
33 76
33 77
33 78
33 86
33 97
33 99
33 100
33 101
33 103
33 104
33 115
33 177
33 178
33 180
33 181
33 182
33 183
33 185
33 256
33 257
33 258
33 260
33 261
33 262
33 330
33 331
33 333
33 334
33 335
33 336
33 337
33 338
33 339
33 340
33 342
33 343
33 344
33 345
33 346
33 347
33 348
33 349
33 350
33 351
33 352
33 353
33 354
33 355
33 356
33 358
33 359
33 360
33 361
33 362
33 395
33 396
33 397
33 399
33 400
33 401
33 440
33 441
33 442
33 443
33 444
33 445
33 447
33 448
33 449
33 450
33 451
33 452
33 453
33 454
33 455
33 456
33 457
33 458
33 459
34 35
34 36
34 37
34 45
34 67
34 71
34 72
34 73
34 74
34 76
34 77
34 78
34 86
34 97
34 98
34 99
34 100
34 102
34 103
34 104
34 105
34 115
34 177
34 178
34 179
34 181
34 182
34 183
34 185
34 256
34 257
34 258
34 259
34 260
34 261
34 330
34 331
34 332
34 334
34 335
34 336
34 337
34 338
34 339
34 340
34 341
34 342
34 344
34 345
34 346
34 347
34 348
34 349
34 350
34 351
34 357
34 395
34 396
34 397
34 398
34 400
34 401
34 446
34 459
35 36
35 37
35 45
35 67
35 71
35 72
35 73
35 74
35 75
35 76
35 78
35 86
35 97
35 98
35 99
35 100
35 101
35 102
35 104
35 105
35 115
35 177
35 178
35 179
35 180
35 182
35 183
35 185
35 256
35 257
35 258
35 259
35 261
35 262
35 330
35 331
35 332
35 333
35 335
35 336
35 337
35 338
35 339
35 340
35 341
35 342
35 343
35 344
35 345
35 346
35 347
35 348
35 350
35 351
35 357
35 395
35 396
35 397
35 398
35 399
35 401
35 446
35 459
36 37
36 45
36 67
36 71
36 72
36 73
36 74
36 75
36 77
36 78
36 86
36 97
36 98
36 99
36 100
36 101
36 102
36 103
36 105
36 115
36 177
36 178
36 179
36 180
36 181
36 183
36 185
36 256
36 257
36 258
36 259
36 260
36 262
36 330
36 331
36 332
36 333
36 334
36 336
36 337
36 338
36 339
36 340
36 341
36 342
36 343
36 344
36 345
36 346
36 347
36 348
36 349
36 351
36 357
36 395
36 396
36 397
36 398
36 399
36 400
36 446
36 459
37 38
37 44
37 46
37 51
37 61
37 68
37 69
37 70
37 72
37 73
37 74
37 75
37 76
37 77
37 79
37 80
37 81
37 82
37 83
37 84
37 85
37 87
37 88
37 89
37 90
37 91
37 92
37 93
37 94
37 95
37 96
37 98
37 99
37 100
37 101
37 102
37 103
37 104
37 105
37 110
37 116
37 117
37 118
37 119
37 120
37 121
37 122
37 123
37 124
37 125
37 126
37 127
37 128
37 129
37 130
37 131
37 146
37 158
37 178
37 179
37 180
37 181
37 182
37 183
37 184
37 186
37 187
37 188
37 189
37 190
37 191
37 192
37 193
37 194
37 195
37 196
37 197
37 198
37 199
37 200
37 201
37 202
37 203
37 204
37 205
37 206
37 207
37 208
37 209
37 210
37 211
37 212
37 213
37 214
37 215
37 216
37 217
37 218
37 219
37 238
37 248
37 254
37 257
37 258
37 259
37 260
37 261
37 262
37 265
37 287
37 301
37 313
37 328
37 331
37 332
37 333
37 334
37 335
37 336
37 342
37 358
37 366
37 386
37 396
37 397
37 398
37 399
37 400
37 401
37 417
37 425
37 448
37 460
37 461
37 462
37 463
37 464
37 465
37 466
37 467
37 468
37 469
37 470
37 471
37 472
37 473
37 474
37 479
37 493
38 39
38 40
38 41
38 42
38 43
38 45
38 47
38 48
38 49
38 50
38 52
38 53
38 54
38 55
38 56
38 57
38 58
38 59
38 60
38 62
38 63
38 64
38 65
38 66
38 67
38 68
38 70
38 71
38 78
38 79
38 80
38 81
38 82
38 83
38 85
38 86
38 87
38 88
38 89
38 91
38 92
38 93
38 94
38 95
38 96
38 97
38 106
38 107
38 108
38 109
38 111
38 112
38 115
38 116
38 117
38 118
38 119
38 120
38 121
38 123
38 124
38 125
38 126
38 127
38 128
38 129
38 130
38 131
38 143
38 144
38 145
38 147
38 148
38 149
38 150
38 151
38 152
38 153
38 154
38 155
38 156
38 157
38 159
38 160
38 161
38 162
38 163
38 164
38 177
38 185
38 234
38 235
38 236
38 237
38 239
38 244
38 245
38 246
38 247
38 249
38 250
38 251
38 252
38 253
38 255
38 256
38 264
38 266
38 288
38 300
38 302
38 303
38 304
38 305
38 306
38 307
38 308
38 309
38 310
38 311
38 312
38 314
38 315
38 316
38 317
38 318
38 319
38 320
38 321
38 322
38 323
38 324
38 325
38 326
38 327
38 329
38 330
38 337
38 338
38 339
38 340
38 341
38 343
38 344
38 345
38 346
38 347
38 348
38 349
38 350
38 351
38 352
38 353
38 354
38 355
38 356
38 357
38 359
38 360
38 361
38 362
38 363
38 364
38 365
38 367
38 368
38 369
38 381
38 382
38 383
38 384
38 385
38 387
38 388
38 389
38 390
38 395
38 413
38 414
38 415
38 416
38 418
38 419
38 420
38 421
38 422
38 423
38 424
38 426
38 440
38 441
38 442
38 443
38 444
38 445
38 446
38 447
38 449
38 450
38 451
38 452
38 453
38 454
38 455
38 456
38 457
38 458
38 459
38 460
38 461
38 462
38 463
38 464
38 465
38 467
38 468
38 469
38 470
38 471
38 472
38 473
38 474
38 492
38 494
39 40
39 41
39 42
39 43
39 44
39 51
39 61
39 69
39 79
39 80
39 81
39 82
39 84
39 90
39 110
39 115
39 117
39 118
39 119
39 120
39 121
39 122
39 123
39 124
39 125
39 126
39 127
39 128
39 129
39 130
39 131
39 146
39 158
39 184
39 185
39 187
39 188
39 189
39 190
39 191
39 192
39 193
39 194
39 195
39 196
39 197
39 198
39 199
39 200
39 201
39 202
39 203
39 204
39 205
39 206
39 207
39 208
39 209
39 210
39 211
39 212
39 213
39 214
39 215
39 216
39 217
39 218
39 219
39 235
39 236
39 237
39 238
39 239
39 245
39 246
39 247
39 248
39 249
39 251
39 252
39 253
39 254
39 255
39 265
39 287
39 301
39 313
39 325
39 326
39 327
39 328
39 329
39 338
39 339
39 340
39 341
39 342
39 343
39 344
39 345
39 346
39 347
39 348
39 349
39 350
39 351
39 358
39 366
39 386
39 417
39 425
39 448
39 466
39 479
39 493
40 41
40 42
40 43
40 44
40 51
40 61
40 69
40 78
40 80
40 81
40 82
40 83
40 84
40 85
40 90
40 110
40 116
40 122
40 146
40 158
40 184
40 185
40 186
40 187
40 188
40 190
40 191
40 192
40 193
40 194
40 195
40 196
40 197
40 198
40 199
40 200
40 201
40 202
40 203
40 204
40 205
40 206
40 207
40 208
40 209
40 210
40 211
40 212
40 213
40 214
40 215
40 216
40 217
40 218
40 219
40 234
40 236
40 237
40 238
40 239
40 244
40 246
40 247
40 248
40 249
40 250
40 251
40 252
40 253
40 254
40 265
40 287
40 301
40 313
40 324
40 326
40 327
40 328
40 329
40 337
40 342
40 358
40 366
40 386
40 417
40 425
40 448
40 466
40 479
40 493
41 42
41 43
41 44
41 51
41 61
41 69
41 78
41 79
41 81
41 82
41 83
41 84
41 85
41 90
41 110
41 116
41 122
41 146
41 158
41 184
41 185
41 186
41 187
41 188
41 189
41 190
41 191
41 193
41 194
41 195
41 196
41 197
41 198
41 199
41 200
41 201
41 202
41 203
41 204
41 205
41 206
41 207
41 208
41 209
41 210
41 211
41 212
41 213
41 214
41 215
41 216
41 217
41 218
41 219
41 234
41 235
41 237
41 238
41 239
41 244
41 245
41 246
41 247
41 248
41 250
41 252
41 253
41 254
41 255
41 265
41 287
41 301
41 313
41 324
41 325
41 327
41 328
41 329
41 337
41 342
41 358
41 366
41 386
41 417
41 425
41 448
41 466
41 479
41 493
42 43
42 44
42 51
42 61
42 69
42 78
42 79
42 80
42 82
42 83
42 84
42 85
42 90
42 110
42 116
42 122
42 146
42 158
42 184
42 185
42 186
42 187
42 188
42 189
42 190
42 191
42 192
42 194
42 195
42 196
42 197
42 198
42 199
42 200
42 201
42 202
42 203
42 204
42 205
42 206
42 207
42 208
42 209
42 210
42 211
42 212
42 213
42 214
42 215
42 216
42 217
42 218
42 219
42 234
42 235
42 236
42 238
42 239
42 244
42 245
42 247
42 248
42 249
42 250
42 251
42 253
42 254
42 255
42 265
42 287
42 301
42 313
42 324
42 325
42 326
42 327
42 328
42 337
42 342
42 358
42 366
42 386
42 417
42 425
42 448
42 466
42 479
42 493
43 44
43 51
43 61
43 69
43 78
43 79
43 80
43 81
43 83
43 84
43 85
43 90
43 110
43 116
43 122
43 146
43 158
43 184
43 185
43 186
43 187
43 188
43 189
43 190
43 191
43 192
43 193
43 195
43 196
43 197
43 198
43 199
43 200
43 201
43 202
43 203
43 204
43 205
43 206
43 207
43 208
43 209
43 210
43 211
43 212
43 213
43 214
43 215
43 216
43 217
43 218
43 219
43 234
43 235
43 236
43 237
43 238
43 244
43 245
43 246
43 248
43 249
43 250
43 251
43 252
43 254
43 255
43 265
43 287
43 301
43 313
43 324
43 325
43 326
43 328
43 329
43 337
43 342
43 358
43 366
43 386
43 417
43 425
43 448
43 466
43 479
43 493
44 47
44 48
44 49
44 50
44 52
44 53
44 54
44 55
44 56
44 57
44 58
44 59
44 60
44 62
44 63
44 64
44 65
44 66
44 67
44 68
44 70
44 78
44 79
44 80
44 81
44 82
44 83
44 85
44 86
44 87
44 88
44 89
44 91
44 92
44 93
44 94
44 95
44 96
44 106
44 107
44 108
44 109
44 111
44 112
44 115
44 116
44 117
44 118
44 119
44 120
44 121
44 123
44 124
44 125
44 126
44 127
44 128
44 129
44 130
44 131
44 143
44 144
44 145
44 147
44 148
44 149
44 150
44 151
44 152
44 153
44 154
44 155
44 156
44 157
44 159
44 160
44 161
44 162
44 163
44 164
44 186
44 189
44 192
44 193
44 194
44 234
44 235
44 236
44 237
44 239
44 244
44 245
44 246
44 247
44 249
44 250
44 251
44 252
44 253
44 255
44 264
44 266
44 288
44 300
44 302
44 303
44 304
44 305
44 306
44 307
44 308
44 309
44 310
44 311
44 312
44 314
44 315
44 316
44 317
44 318
44 319
44 320
44 321
44 322
44 323
44 324
44 325
44 326
44 327
44 329
44 337
44 338
44 339
44 340
44 341
44 343
44 344
44 345
44 346
44 347
44 348
44 349
44 350
44 351
44 352
44 353
44 354
44 355
44 356
44 357
44 359
44 360
44 361
44 362
44 363
44 364
44 365
44 367
44 368
44 369
44 381
44 382
44 383
44 384
44 385
44 387
44 388
44 389
44 390
44 413
44 414
44 415
44 416
44 418
44 419
44 420
44 421
44 422
44 423
44 424
44 426
44 440
44 441
44 442
44 443
44 444
44 445
44 446
44 447
44 449
44 450
44 451
44 452
44 453
44 454
44 455
44 456
44 457
44 458
44 459
44 460
44 461
44 462
44 463
44 464
44 465
44 467
44 468
44 469
44 470
44 471
44 472
44 473
44 474
44 492
44 494
45 46
45 68
45 69
45 70
45 72
45 73
45 74
45 75
45 76
45 77
45 79
45 80
45 81
45 82
45 83
45 84
45 85
45 87
45 88
45 89
45 90
45 91
45 92
45 93
45 94
45 95
45 96
45 98
45 99
45 100
45 101
45 102
45 103
45 104
45 105
45 116
45 117
45 118
45 119
45 120
45 121
45 122
45 123
45 124
45 125
45 126
45 127
45 128
45 129
45 130
45 131
45 178
45 179
45 180
45 181
45 182
45 183
45 184
45 186
45 187
45 188
45 189
45 190
45 191
45 192
45 193
45 194
45 195
45 196
45 197
45 198
45 199
45 200
45 201
45 202
45 203
45 204
45 205
45 206
45 207
45 208
45 209
45 210
45 211
45 212
45 213
45 214
45 215
45 216
45 217
45 218
45 219
45 257
45 258
45 259
45 260
45 261
45 262
45 331
45 332
45 333
45 334
45 335
45 336
45 345
45 396
45 397
45 398
45 399
45 400
45 401
45 460
45 461
45 462
45 463
45 464
45 465
45 466
45 467
45 468
45 469
45 470
45 471
45 472
45 473
45 474
46 67
46 71
46 78
46 86
46 97
46 115
46 116
46 117
46 118
46 119
46 120
46 121
46 122
46 123
46 124
46 126
46 127
46 128
46 129
46 130
46 131
46 177
46 184
46 185
46 186
46 187
46 188
46 189
46 190
46 191
46 192
46 193
46 194
46 195
46 196
46 197
46 198
46 199
46 200
46 201
46 202
46 204
46 205
46 206
46 207
46 208
46 209
46 210
46 211
46 212
46 213
46 214
46 215
46 216
46 217
46 218
46 219
46 256
46 330
46 337
46 338
46 339
46 340
46 341
46 342
46 343
46 344
46 346
46 347
46 348
46 349
46 350
46 351
46 395
46 459
47 48
47 49
47 50
47 51
47 52
47 53
47 54
47 55
47 56
47 58
47 59
47 60
47 61
47 62
47 63
47 64
47 65
47 66
47 68
47 69
47 83
47 84
47 88
47 89
47 90
47 91
47 92
47 93
47 110
47 113
47 115
47 116
47 118
47 119
47 120
47 121
47 122
47 123
47 124
47 125
47 126
47 127
47 128
47 129
47 130
47 131
47 132
47 139
47 142
47 143
47 144
47 145
47 146
47 147
47 148
47 149
47 151
47 158
47 163
47 175
47 184
47 185
47 186
47 188
47 189
47 190
47 191
47 192
47 193
47 194
47 195
47 196
47 197
47 198
47 199
47 200
47 201
47 202
47 203
47 204
47 205
47 206
47 207
47 208
47 209
47 210
47 211
47 212
47 213
47 214
47 215
47 216
47 217
47 218
47 219
47 232
47 238
47 242
47 248
47 254
47 265
47 275
47 277
47 278
47 279
47 281
47 282
47 283
47 284
47 285
47 286
47 287
47 298
47 300
47 301
47 302
47 304
47 305
47 306
47 307
47 308
47 309
47 310
47 311
47 312
47 313
47 314
47 315
47 316
47 317
47 318
47 319
47 320
47 321
47 322
47 323
47 328
47 340
47 342
47 344
47 347
47 354
47 358
47 359
47 360
47 366
47 380
47 386
47 407
47 411
47 414
47 415
47 416
47 417
47 418
47 419
47 420
47 421
47 422
47 424
47 425
47 434
47 438
47 448
47 450
47 451
47 455
47 459
47 461
47 462
47 463
47 464
47 465
47 466
47 467
47 468
47 469
47 470
47 471
47 472
47 473
47 474
47 476
47 478
47 479
47 482
47 483
47 484
47 485
47 486
47 487
47 488
47 489
47 490
47 491
47 492
47 493
48 49
48 50
48 51
48 52
48 53
48 54
48 55
48 56
48 57
48 59
48 60
48 61
48 62
48 63
48 64
48 65
48 66
48 68
48 69
48 83
48 84
48 88
48 89
48 90
48 91
48 92
48 93
48 110
48 113
48 117
48 121
48 122
48 124
48 126
48 127
48 131
48 132
48 139
48 142
48 144
48 145
48 146
48 147
48 148
48 149
48 150
48 151
48 158
48 163
48 175
48 187
48 195
48 199
48 202
48 205
48 206
48 216
48 232
48 238
48 242
48 248
48 254
48 265
48 275
48 277
48 278
48 279
48 280
48 281
48 282
48 283
48 284
48 286
48 287
48 298
48 300
48 301
48 302
48 303
48 304
48 305
48 306
48 307
48 308
48 310
48 311
48 312
48 313
48 314
48 315
48 316
48 317
48 318
48 319
48 320
48 321
48 322
48 323
48 328
48 340
48 342
48 344
48 347
48 354
48 358
48 359
48 360
48 366
48 380
48 386
48 407
48 411
48 413
48 414
48 416
48 417
48 418
48 419
48 420
48 421
48 422
48 424
48 425
48 434
48 438
48 448
48 450
48 451
48 455
48 459
48 460
48 461
48 463
48 464
48 465
48 466
48 467
48 468
48 469
48 470
48 471
48 472
48 473
48 474
48 476
48 478
48 479
48 481
48 482
48 484
48 485
48 486
48 487
48 488
48 489
48 490
48 491
48 492
48 493
49 50
49 51
49 52
49 53
49 54
49 55
49 56
49 57
49 58
49 60
49 61
49 62
49 63
49 64
49 65
49 66
49 67
49 69
49 70
49 78
49 79
49 80
49 81
49 82
49 84
49 85
49 86
49 87
49 89
49 90
49 91
49 92
49 93
49 94
49 95
49 96
49 110
49 113
49 117
49 121
49 122
49 124
49 126
49 127
49 131
49 132
49 139
49 142
49 143
49 145
49 146
49 147
49 148
49 149
49 150
49 151
49 158
49 163
49 175
49 184
49 185
49 186
49 187
49 188
49 189
49 190
49 191
49 192
49 193
49 194
49 196
49 197
49 198
49 199
49 200
49 201
49 202
49 203
49 204
49 205
49 206
49 207
49 208
49 209
49 210
49 211
49 212
49 213
49 214
49 215
49 216
49 217
49 218
49 219
49 232
49 238
49 242
49 248
49 254
49 265
49 275
49 277
49 278
49 279
49 280
49 281
49 282
49 283
49 284
49 286
49 287
49 298
49 301
49 302
49 303
49 304
49 305
49 306
49 307
49 308
49 309
49 310
49 312
49 313
49 314
49 315
49 316
49 317
49 318
49 319
49 320
49 321
49 322
49 323
49 328
49 337
49 338
49 339
49 341
49 342
49 343
49 344
49 345
49 346
49 347
49 348
49 349
49 350
49 351
49 352
49 353
49 355
49 356
49 357
49 358
49 359
49 360
49 361
49 362
49 366
49 380
49 386
49 407
49 411
49 413
49 414
49 415
49 417
49 418
49 419
49 420
49 421
49 422
49 423
49 425
49 426
49 434
49 438
49 448
49 450
49 451
49 455
49 459
49 460
49 461
49 462
49 463
49 465
49 466
49 467
49 468
49 469
49 470
49 471
49 472
49 473
49 474
49 476
49 478
49 479
49 481
49 483
49 486
49 488
49 489
49 490
49 493
49 494
50 51
50 52
50 53
50 54
50 55
50 56
50 57
50 58
50 59
50 61
50 62
50 63
50 64
50 65
50 66
50 68
50 69
50 83
50 84
50 86
50 87
50 88
50 90
50 91
50 92
50 93
50 94
50 95
50 96
50 110
50 113
50 115
50 116
50 117
50 118
50 119
50 120
50 122
50 123
50 124
50 125
50 126
50 127
50 128
50 129
50 130
50 131
50 132
50 139
50 142
50 143
50 144
50 146
50 147
50 148
50 149
50 150
50 151
50 158
50 163
50 175
50 184
50 185
50 186
50 187
50 188
50 189
50 190
50 191
50 192
50 193
50 194
50 195
50 196
50 197
50 198
50 200
50 201
50 202
50 203
50 204
50 205
50 206
50 207
50 208
50 209
50 210
50 211
50 212
50 213
50 214
50 215
50 216
50 217
50 218
50 219
50 232
50 238
50 242
50 248
50 254
50 265
50 275
50 277
50 278
50 279
50 280
50 282
50 283
50 284
50 285
50 286
50 287
50 298
50 300
50 301
50 303
50 309
50 311
50 313
50 318
50 319
50 328
50 340
50 342
50 344
50 347
50 354
50 358
50 359
50 360
50 366
50 380
50 386
50 407
50 411
50 413
50 415
50 416
50 417
50 418
50 419
50 420
50 421
50 424
50 425
50 434
50 438
50 448
50 450
50 451
50 455
50 459
50 460
50 461
50 462
50 463
50 464
50 466
50 467
50 468
50 469
50 470
50 471
50 472
50 473
50 474
50 476
50 478
50 479
50 481
50 482
50 483
50 484
50 485
50 487
50 488
50 489
50 490
50 491
50 492
50 493
51 52
51 53
51 54
51 55
51 56
51 57
51 58
51 59
51 60
51 62
51 63
51 64
51 65
51 66
51 67
51 68
51 70
51 78
51 79
51 80
51 81
51 82
51 83
51 85
51 86
51 87
51 88
51 89
51 91
51 92
51 93
51 94
51 95
51 96
51 106
51 107
51 108
51 109
51 111
51 112
51 113
51 115
51 116
51 117
51 118
51 119
51 120
51 121
51 123
51 124
51 125
51 126
51 127
51 128
51 129
51 130
51 131
51 132
51 139
51 142
51 143
51 144
51 145
51 147
51 148
51 149
51 150
51 151
51 152
51 153
51 154
51 155
51 156
51 157
51 159
51 160
51 161
51 162
51 163
51 164
51 175
51 187
51 195
51 199
51 202
51 205
51 206
51 216
51 232
51 234
51 235
51 236
51 237
51 239
51 242
51 244
51 245
51 246
51 247
51 249
51 250
51 251
51 252
51 253
51 255
51 264
51 266
51 275
51 277
51 278
51 279
51 280
51 281
51 282
51 283
51 284
51 286
51 288
51 298
51 300
51 302
51 303
51 304
51 305
51 306
51 307
51 308
51 309
51 310
51 311
51 312
51 314
51 315
51 316
51 317
51 318
51 319
51 320
51 321
51 322
51 323
51 324
51 325
51 326
51 327
51 329
51 337
51 338
51 339
51 340
51 341
51 343
51 344
51 345
51 346
51 347
51 348
51 349
51 350
51 351
51 352
51 353
51 354
51 355
51 356
51 357
51 359
51 360
51 361
51 362
51 363
51 364
51 365
51 367
51 368
51 369
51 380
51 381
51 382
51 383
51 384
51 385
51 387
51 388
51 389
51 390
51 407
51 411
51 413
51 414
51 415
51 416
51 418
51 419
51 420
51 421
51 422
51 423
51 424
51 426
51 434
51 438
51 440
51 441
51 442
51 443
51 444
51 445
51 446
51 447
51 449
51 450
51 451
51 452
51 453
51 454
51 455
51 456
51 457
51 458
51 459
51 460
51 461
51 462
51 463
51 464
51 465
51 467
51 468
51 469
51 470
51 471
51 472
51 473
51 474
51 476
51 478
51 481
51 483
51 486
51 488
51 489
51 490
51 492
51 494
52 53
52 54
52 55
52 56
52 57
52 58
52 59
52 60
52 61
52 63
52 64
52 65
52 66
52 68
52 69
52 83
52 84
52 88
52 89
52 90
52 91
52 92
52 93
52 110
52 114
52 115
52 116
52 117
52 118
52 119
52 120
52 121
52 122
52 123
52 125
52 126
52 127
52 128
52 129
52 130
52 131
52 132
52 139
52 142
52 143
52 144
52 145
52 146
52 147
52 148
52 149
52 151
52 158
52 163
52 175
52 184
52 185
52 186
52 187
52 188
52 189
52 190
52 191
52 192
52 193
52 194
52 195
52 196
52 197
52 198
52 199
52 200
52 201
52 203
52 204
52 205
52 206
52 207
52 208
52 209
52 210
52 211
52 212
52 213
52 214
52 215
52 216
52 217
52 218
52 219
52 232
52 238
52 242
52 248
52 254
52 265
52 275
52 278
52 279
52 280
52 281
52 282
52 283
52 284
52 286
52 287
52 298
52 300
52 301
52 303
52 309
52 311
52 313
52 318
52 319
52 328
52 337
52 338
52 339
52 340
52 341
52 342
52 343
52 345
52 346
52 347
52 348
52 349
52 350
52 351
52 352
52 353
52 354
52 355
52 356
52 357
52 358
52 360
52 361
52 362
52 366
52 380
52 386
52 407
52 411
52 413
52 414
52 415
52 416
52 417
52 419
52 420
52 421
52 422
52 424
52 425
52 434
52 438
52 448
52 450
52 451
52 455
52 459
52 460
52 461
52 462
52 463
52 464
52 465
52 466
52 468
52 469
52 470
52 471
52 472
52 473
52 474
52 476
52 478
52 479
52 481
52 482
52 483
52 484
52 485
52 486
52 487
52 489
52 490
52 491
52 492
52 493
53 54
53 55
53 56
53 57
53 58
53 59
53 60
53 61
53 62
53 64
53 65
53 66
53 68
53 69
53 83
53 84
53 86
53 87
53 88
53 89
53 90
53 92
53 93
53 94
53 95
53 96
53 110
53 113
53 117
53 121
53 122
53 124
53 126
53 127
53 131
53 132
53 139
53 142
53 143
53 144
53 145
53 146
53 148
53 149
53 150
53 151
53 158
53 163
53 175
53 187
53 195
53 199
53 202
53 205
53 206
53 216
53 232
53 238
53 242
53 248
53 254
53 265
53 275
53 277
53 279
53 280
53 281
53 283
53 284
53 285
53 286
53 287
53 298
53 300
53 301
53 303
53 309
53 311
53 313
53 318
53 319
53 328
53 340
53 342
53 344
53 347
53 354
53 358
53 359
53 360
53 366
53 380
53 386
53 402
53 403
53 404
53 405
53 406
53 408
53 409
53 410
53 411
53 412
53 413
53 414
53 415
53 416
53 417
53 418
53 420
53 421
53 422
53 424
53 425
53 427
53 428
53 429
53 430
53 431
53 432
53 433
53 435
53 436
53 437
53 438
53 439
53 440
53 441
53 442
53 443
53 444
53 445
53 446
53 447
53 448
53 449
53 451
53 452
53 453
53 454
53 455
53 456
53 457
53 458
53 459
53 460
53 461
53 462
53 463
53 464
53 465
53 466
53 467
53 469
53 470
53 471
53 472
53 473
53 474
53 476
53 478
53 479
53 481
53 483
53 486
53 488
53 489
53 490
53 492
53 493
54 55
54 56
54 57
54 58
54 59
54 60
54 61
54 62
54 63
54 64
54 66
54 68
54 69
54 83
54 84
54 86
54 87
54 88
54 89
54 90
54 91
54 93
54 94
54 95
54 96
54 110
54 113
54 115
54 116
54 117
54 118
54 119
54 120
54 121
54 122
54 123
54 124
54 125
54 127
54 128
54 129
54 130
54 131
54 132
54 139
54 142
54 143
54 144
54 145
54 146
54 147
54 149
54 150
54 151
54 158
54 163
54 175
54 184
54 185
54 186
54 187
54 188
54 189
54 190
54 191
54 192
54 193
54 194
54 195
54 196
54 197
54 198
54 199
54 200
54 201
54 202
54 203
54 204
54 206
54 207
54 208
54 209
54 210
54 211
54 212
54 213
54 214
54 215
54 216
54 217
54 218
54 219
54 232
54 238
54 242
54 248
54 254
54 265
54 275
54 277
54 278
54 279
54 280
54 281
54 282
54 284
54 285
54 286
54 287
54 298
54 300
54 301
54 302
54 303
54 304
54 305
54 306
54 307
54 308
54 309
54 310
54 311
54 312
54 313
54 314
54 315
54 316
54 317
54 319
54 320
54 321
54 322
54 323
54 328
54 340
54 342
54 344
54 347
54 354
54 358
54 359
54 360
54 366
54 380
54 386
54 407
54 411
54 413
54 414
54 415
54 416
54 417
54 418
54 419
54 421
54 422
54 424
54 425
54 434
54 438
54 448
54 450
54 451
54 455
54 459
54 460
54 461
54 462
54 463
54 464
54 465
54 466
54 467
54 468
54 469
54 471
54 472
54 473
54 474
54 476
54 478
54 479
54 481
54 482
54 483
54 484
54 485
54 486
54 487
54 488
54 490
54 491
54 492
54 493
55 56
55 57
55 58
55 59
55 60
55 61
55 62
55 63
55 65
55 66
55 68
55 69
55 83
55 84
55 86
55 87
55 88
55 89
55 90
55 91
55 92
55 94
55 95
55 96
55 110
55 113
55 115
55 116
55 117
55 118
55 119
55 120
55 121
55 122
55 123
55 124
55 125
55 126
55 128
55 129
55 130
55 131
55 139
55 142
55 143
55 144
55 145
55 146
55 147
55 148
55 150
55 151
55 158
55 163
55 175
55 184
55 185
55 186
55 187
55 188
55 189
55 190
55 191
55 192
55 193
55 194
55 195
55 196
55 197
55 198
55 199
55 200
55 201
55 202
55 203
55 204
55 205
55 207
55 208
55 209
55 210
55 211
55 212
55 213
55 214
55 215
55 216
55 217
55 218
55 219
55 232
55 238
55 240
55 241
55 248
55 254
55 265
55 275
55 277
55 278
55 280
55 281
55 282
55 283
55 285
55 286
55 287
55 298
55 300
55 301
55 302
55 303
55 304
55 305
55 306
55 307
55 308
55 309
55 310
55 311
55 312
55 313
55 314
55 315
55 316
55 317
55 318
55 320
55 321
55 322
55 323
55 328
55 337
55 338
55 339
55 340
55 341
55 342
55 343
55 344
55 345
55 346
55 348
55 349
55 350
55 351
55 352
55 353
55 354
55 355
55 356
55 357
55 358
55 359
55 361
55 362
55 366
55 380
55 386
55 407
55 411
55 413
55 414
55 415
55 416
55 417
55 418
55 419
55 420
55 422
55 424
55 425
55 434
55 438
55 440
55 441
55 442
55 443
55 444
55 445
55 446
55 447
55 448
55 449
55 450
55 452
55 453
55 454
55 455
55 456
55 457
55 458
55 460
55 462
55 464
55 465
55 466
55 467
55 468
55 470
55 473
55 476
55 478
55 479
55 481
55 482
55 483
55 484
55 485
55 486
55 487
55 488
55 489
55 491
55 492
55 493
56 57
56 58
56 59
56 60
56 61
56 62
56 63
56 64
56 65
56 68
56 69
56 83
56 84
56 88
56 89
56 90
56 91
56 92
56 93
56 110
56 113
56 115
56 116
56 117
56 118
56 119
56 120
56 121
56 122
56 123
56 124
56 125
56 126
56 127
56 128
56 129
56 130
56 132
56 133
56 134
56 135
56 136
56 137
56 138
56 141
56 143
56 144
56 145
56 146
56 147
56 148
56 149
56 150
56 152
56 153
56 154
56 155
56 156
56 157
56 158
56 159
56 160
56 161
56 162
56 164
56 165
56 166
56 167
56 168
56 169
56 170
56 171
56 172
56 173
56 174
56 176
56 184
56 185
56 186
56 187
56 188
56 189
56 190
56 191
56 192
56 193
56 194
56 195
56 196
56 197
56 198
56 199
56 200
56 201
56 202
56 203
56 204
56 205
56 206
56 207
56 208
56 209
56 210
56 211
56 212
56 213
56 214
56 215
56 217
56 218
56 219
56 225
56 226
56 227
56 228
56 229
56 230
56 231
56 233
56 238
56 242
56 248
56 254
56 265
56 267
56 268
56 269
56 270
56 271
56 272
56 273
56 274
56 276
56 277
56 278
56 279
56 280
56 281
56 282
56 283
56 284
56 285
56 287
56 289
56 290
56 291
56 292
56 293
56 294
56 295
56 296
56 297
56 299
56 300
56 301
56 303
56 309
56 311
56 313
56 318
56 319
56 328
56 340
56 342
56 344
56 347
56 354
56 358
56 359
56 360
56 366
56 370
56 371
56 372
56 373
56 374
56 375
56 376
56 377
56 378
56 379
56 386
56 402
56 403
56 404
56 405
56 406
56 407
56 408
56 409
56 410
56 412
56 413
56 415
56 416
56 417
56 418
56 419
56 420
56 421
56 424
56 425
56 427
56 428
56 429
56 430
56 431
56 432
56 433
56 434
56 435
56 436
56 437
56 439
56 440
56 441
56 442
56 443
56 444
56 445
56 446
56 447
56 448
56 449
56 450
56 451
56 452
56 453
56 454
56 456
56 457
56 458
56 459
56 460
56 461
56 462
56 463
56 464
56 465
56 466
56 467
56 468
56 469
56 470
56 471
56 472
56 474
56 475
56 477
56 479
56 481
56 483
56 486
56 488
56 489
56 490
56 492
56 493
57 58
57 59
57 60
57 61
57 62
57 63
57 64
57 65
57 66
57 68
57 69
57 83
57 84
57 88
57 89
57 90
57 91
57 93
57 94
57 110
57 113
57 115
57 116
57 118
57 119
57 120
57 121
57 122
57 123
57 124
57 125
57 126
57 127
57 128
57 129
57 130
57 131
57 132
57 139
57 142
57 143
57 144
57 145
57 146
57 147
57 149
57 150
57 151
57 158
57 163
57 175
57 184
57 185
57 186
57 188
57 189
57 190
57 191
57 192
57 193
57 194
57 195
57 196
57 197
57 198
57 199
57 200
57 201
57 202
57 203
57 204
57 205
57 206
57 207
57 208
57 209
57 210
57 211
57 212
57 213
57 214
57 215
57 216
57 217
57 218
57 219
57 232
57 238
57 242
57 248
57 254
57 265
57 275
57 277
57 278
57 279
57 281
57 282
57 283
57 284
57 285
57 286
57 287
57 298
57 300
57 301
57 302
57 304
57 305
57 306
57 307
57 308
57 309
57 310
57 311
57 312
57 313
57 314
57 315
57 316
57 317
57 318
57 319
57 320
57 321
57 322
57 323
57 328
57 340
57 342
57 344
57 347
57 354
57 358
57 359
57 360
57 366
57 380
57 386
57 407
57 411
57 414
57 415
57 416
57 417
57 418
57 419
57 420
57 421
57 422
57 424
57 425
57 434
57 438
57 448
57 450
57 451
57 455
57 459
57 461
57 462
57 463
57 464
57 465
57 466
57 467
57 468
57 469
57 470
57 471
57 472
57 473
57 474
57 476
57 478
57 479
57 482
57 483
57 484
57 485
57 486
57 487
57 488
57 489
57 490
57 491
57 492
57 493
58 59
58 60
58 61
58 62
58 63
58 64
58 65
58 66
58 68
58 69
58 83
58 84
58 88
58 89
58 90
58 91
58 93
58 94
58 110
58 113
58 117
58 121
58 122
58 124
58 127
58 128
58 131
58 132
58 139
58 142
58 144
58 145
58 146
58 147
58 148
58 149
58 150
58 151
58 158
58 163
58 175
58 187
58 195
58 199
58 202
58 206
58 207
58 216
58 232
58 238
58 242
58 248
58 254
58 265
58 275
58 277
58 278
58 279
58 280
58 281
58 282
58 284
58 285
58 286
58 287
58 298
58 300
58 301
58 302
58 303
58 304
58 305
58 306
58 307
58 308
58 310
58 311
58 312
58 313
58 314
58 315
58 316
58 317
58 318
58 319
58 320
58 321
58 322
58 323
58 328
58 340
58 342
58 344
58 347
58 354
58 358
58 359
58 360
58 366
58 380
58 386
58 407
58 411
58 413
58 414
58 416
58 417
58 418
58 419
58 420
58 421
58 422
58 424
58 425
58 434
58 438
58 448
58 450
58 451
58 455
58 459
58 460
58 461
58 463
58 464
58 465
58 466
58 467
58 468
58 469
58 470
58 471
58 472
58 473
58 474
58 476
58 478
58 479
58 481
58 482
58 484
58 485
58 486
58 487
58 488
58 489
58 490
58 491
58 492
58 493
59 60
59 61
59 62
59 63
59 64
59 65
59 66
59 67
59 69
59 70
59 78
59 79
59 80
59 81
59 82
59 84
59 85
59 86
59 87
59 89
59 90
59 91
59 92
59 93
59 94
59 95
59 96
59 110
59 113
59 117
59 121
59 122
59 124
59 127
59 128
59 131
59 132
59 139
59 142
59 143
59 145
59 146
59 147
59 148
59 149
59 150
59 151
59 158
59 163
59 175
59 184
59 185
59 186
59 187
59 188
59 189
59 190
59 191
59 192
59 193
59 194
59 196
59 197
59 198
59 199
59 200
59 201
59 202
59 203
59 204
59 205
59 206
59 207
59 208
59 209
59 210
59 211
59 212
59 213
59 214
59 215
59 216
59 217
59 218
59 219
59 232
59 238
59 242
59 248
59 254
59 265
59 275
59 277
59 278
59 279
59 280
59 281
59 282
59 284
59 285
59 286
59 287
59 298
59 301
59 302
59 303
59 304
59 305
59 306
59 307
59 308
59 309
59 310
59 312
59 313
59 314
59 315
59 316
59 317
59 318
59 319
59 320
59 321
59 322
59 323
59 328
59 337
59 338
59 339
59 341
59 342
59 343
59 344
59 345
59 346
59 347
59 348
59 349
59 350
59 351
59 352
59 353
59 355
59 356
59 357
59 358
59 359
59 360
59 361
59 362
59 366
59 380
59 386
59 407
59 411
59 413
59 414
59 415
59 417
59 418
59 419
59 420
59 421
59 422
59 423
59 425
59 426
59 434
59 438
59 448
59 450
59 451
59 455
59 459
59 460
59 461
59 462
59 463
59 465
59 466
59 467
59 468
59 469
59 470
59 471
59 472
59 473
59 474
59 476
59 478
59 479
59 481
59 483
59 486
59 488
59 490
59 491
59 493
59 494
60 61
60 62
60 63
60 64
60 65
60 66
60 68
60 69
60 83
60 84
60 86
60 87
60 88
60 90
60 91
60 92
60 93
60 94
60 95
60 96
60 110
60 113
60 115
60 116
60 117
60 118
60 119
60 120
60 122
60 123
60 124
60 125
60 126
60 127
60 128
60 129
60 130
60 131
60 132
60 139
60 142
60 143
60 144
60 146
60 147
60 148
60 149
60 150
60 151
60 158
60 163
60 175
60 184
60 185
60 186
60 187
60 188
60 189
60 190
60 191
60 192
60 193
60 194
60 195
60 196
60 197
60 198
60 200
60 201
60 202
60 203
60 204
60 205
60 206
60 207
60 208
60 209
60 210
60 211
60 212
60 213
60 214
60 215
60 216
60 217
60 218
60 219
60 232
60 238
60 242
60 248
60 254
60 265
60 275
60 277
60 278
60 279
60 280
60 282
60 283
60 284
60 285
60 286
60 287
60 298
60 300
60 301
60 303
60 309
60 311
60 313
60 319
60 320
60 328
60 340
60 342
60 344
60 347
60 354
60 358
60 359
60 360
60 366
60 380
60 386
60 407
60 411
60 413
60 415
60 416
60 417
60 418
60 419
60 421
60 422
60 424
60 425
60 434
60 438
60 448
60 450
60 451
60 455
60 459
60 460
60 461
60 462
60 463
60 464
60 466
60 467
60 468
60 469
60 470
60 471
60 472
60 473
60 474
60 476
60 478
60 479
60 481
60 482
60 483
60 484
60 485
60 487
60 488
60 489
60 490
60 491
60 492
60 493
61 62
61 63
61 64
61 65
61 66
61 67
61 68
61 70
61 78
61 79
61 80
61 81
61 82
61 83
61 85
61 86
61 87
61 88
61 89
61 91
61 92
61 93
61 94
61 95
61 96
61 106
61 107
61 108
61 109
61 111
61 112
61 113
61 115
61 116
61 117
61 118
61 119
61 120
61 121
61 123
61 124
61 125
61 126
61 127
61 128
61 129
61 130
61 131
61 132
61 139
61 142
61 143
61 144
61 145
61 147
61 148
61 149
61 150
61 151
61 152
61 153
61 154
61 155
61 156
61 157
61 159
61 160
61 161
61 162
61 163
61 164
61 175
61 187
61 195
61 199
61 202
61 206
61 207
61 216
61 232
61 234
61 235
61 236
61 237
61 239
61 242
61 244
61 245
61 246
61 247
61 249
61 250
61 251
61 252
61 253
61 255
61 264
61 266
61 275
61 277
61 278
61 279
61 280
61 281
61 282
61 284
61 285
61 286
61 288
61 298
61 300
61 302
61 303
61 304
61 305
61 306
61 307
61 308
61 309
61 310
61 311
61 312
61 314
61 315
61 316
61 317
61 318
61 319
61 320
61 321
61 322
61 323
61 324
61 325
61 326
61 327
61 329
61 337
61 338
61 339
61 340
61 341
61 343
61 344
61 345
61 346
61 347
61 348
61 349
61 350
61 351
61 352
61 353
61 354
61 355
61 356
61 357
61 359
61 360
61 361
61 362
61 363
61 364
61 365
61 367
61 368
61 369
61 380
61 381
61 382
61 383
61 384
61 385
61 387
61 388
61 389
61 390
61 407
61 411
61 413
61 414
61 415
61 416
61 418
61 419
61 420
61 421
61 422
61 423
61 424
61 426
61 434
61 438
61 440
61 441
61 442
61 443
61 444
61 445
61 446
61 447
61 449
61 450
61 451
61 452
61 453
61 454
61 455
61 456
61 457
61 458
61 459
61 460
61 461
61 462
61 463
61 464
61 465
61 467
61 468
61 469
61 470
61 471
61 472
61 473
61 474
61 476
61 478
61 481
61 483
61 486
61 488
61 490
61 491
61 492
61 494
62 63
62 64
62 65
62 66
62 68
62 69
62 83
62 84
62 88
62 89
62 90
62 91
62 93
62 94
62 110
62 114
62 115
62 116
62 117
62 118
62 119
62 120
62 121
62 122
62 123
62 125
62 126
62 127
62 128
62 129
62 130
62 131
62 132
62 139
62 142
62 143
62 144
62 145
62 146
62 147
62 149
62 150
62 151
62 158
62 163
62 175
62 184
62 185
62 186
62 187
62 188
62 189
62 190
62 191
62 192
62 193
62 194
62 195
62 196
62 197
62 198
62 199
62 200
62 201
62 203
62 204
62 205
62 206
62 207
62 208
62 209
62 210
62 211
62 212
62 213
62 214
62 215
62 216
62 217
62 218
62 219
62 232
62 238
62 242
62 248
62 254
62 265
62 275
62 278
62 279
62 280
62 281
62 282
62 284
62 285
62 286
62 287
62 298
62 300
62 301
62 303
62 309
62 311
62 313
62 319
62 320
62 328
62 337
62 338
62 339
62 340
62 341
62 342
62 343
62 345
62 346
62 347
62 348
62 349
62 350
62 351
62 352
62 353
62 354
62 355
62 356
62 357
62 358
62 360
62 361
62 362
62 366
62 380
62 386
62 407
62 411
62 413
62 414
62 415
62 416
62 417
62 419
62 420
62 421
62 422
62 424
62 425
62 434
62 438
62 448
62 450
62 451
62 455
62 459
62 460
62 461
62 462
62 463
62 464
62 465
62 466
62 468
62 469
62 470
62 471
62 472
62 473
62 474
62 476
62 478
62 479
62 481
62 482
62 483
62 484
62 485
62 486
62 487
62 489
62 490
62 491
62 492
62 493
63 64
63 65
63 66
63 68
63 69
63 83
63 84
63 86
63 87
63 88
63 89
63 90
63 92
63 93
63 94
63 95
63 96
63 110
63 113
63 117
63 121
63 122
63 124
63 127
63 128
63 131
63 132
63 139
63 142
63 143
63 144
63 145
63 146
63 148
63 149
63 150
63 151
63 158
63 163
63 175
63 187
63 195
63 199
63 202
63 206
63 207
63 216
63 232
63 238
63 242
63 248
63 254
63 265
63 275
63 277
63 279
63 280
63 281
63 283
63 284
63 285
63 286
63 287
63 298
63 300
63 301
63 303
63 309
63 311
63 313
63 319
63 320
63 328
63 340
63 342
63 344
63 347
63 354
63 358
63 359
63 360
63 366
63 380
63 386
63 402
63 403
63 404
63 405
63 406
63 408
63 409
63 410
63 411
63 412
63 413
63 414
63 415
63 416
63 417
63 418
63 420
63 421
63 422
63 424
63 425
63 427
63 428
63 429
63 430
63 431
63 432
63 433
63 435
63 436
63 437
63 438
63 439
63 440
63 441
63 442
63 443
63 444
63 445
63 446
63 447
63 448
63 449
63 451
63 452
63 453
63 454
63 455
63 456
63 457
63 458
63 459
63 460
63 461
63 462
63 463
63 464
63 465
63 466
63 467
63 469
63 470
63 471
63 472
63 473
63 474
63 476
63 478
63 479
63 481
63 483
63 486
63 488
63 490
63 491
63 492
63 493
64 65
64 66
64 68
64 69
64 83
64 84
64 86
64 87
64 88
64 89
64 90
64 91
64 92
64 94
64 95
64 96
64 110
64 113
64 115
64 116
64 117
64 118
64 119
64 120
64 121
64 122
64 123
64 124
64 125
64 126
64 128
64 129
64 130
64 131
64 139
64 142
64 143
64 144
64 145
64 146
64 147
64 148
64 150
64 151
64 158
64 163
64 175
64 184
64 185
64 186
64 187
64 188
64 189
64 190
64 191
64 192
64 193
64 194
64 195
64 196
64 197
64 198
64 199
64 200
64 201
64 202
64 203
64 204
64 205
64 207
64 208
64 209
64 210
64 211
64 212
64 213
64 214
64 215
64 216
64 217
64 218
64 219
64 232
64 238
64 240
64 241
64 248
64 254
64 265
64 275
64 277
64 278
64 280
64 281
64 282
64 283
64 285
64 286
64 287
64 298
64 300
64 301
64 302
64 303
64 304
64 305
64 306
64 307
64 308
64 309
64 310
64 311
64 312
64 313
64 314
64 315
64 316
64 317
64 318
64 320
64 321
64 322
64 323
64 328
64 337
64 338
64 339
64 340
64 341
64 342
64 343
64 344
64 345
64 346
64 348
64 349
64 350
64 351
64 352
64 353
64 354
64 355
64 356
64 357
64 358
64 359
64 361
64 362
64 366
64 380
64 386
64 407
64 411
64 413
64 414
64 415
64 416
64 417
64 418
64 419
64 420
64 422
64 424
64 425
64 434
64 438
64 440
64 441
64 442
64 443
64 444
64 445
64 446
64 447
64 448
64 449
64 450
64 452
64 453
64 454
64 455
64 456
64 457
64 458
64 460
64 462
64 464
64 465
64 466
64 467
64 468
64 471
64 473
64 476
64 478
64 479
64 481
64 482
64 483
64 484
64 485
64 486
64 487
64 488
64 489
64 491
64 492
64 493
65 66
65 68
65 69
65 83
65 84
65 86
65 87
65 88
65 89
65 90
65 91
65 92
65 93
65 95
65 96
65 110
65 113
65 115
65 116
65 117
65 118
65 119
65 120
65 121
65 122
65 123
65 124
65 125
65 126
65 127
65 129
65 130
65 131
65 132
65 139
65 142
65 143
65 144
65 145
65 146
65 147
65 148
65 149
65 151
65 158
65 163
65 175
65 184
65 185
65 186
65 187
65 188
65 189
65 190
65 191
65 192
65 193
65 194
65 195
65 196
65 197
65 198
65 199
65 200
65 201
65 202
65 203
65 204
65 205
65 206
65 208
65 209
65 210
65 211
65 212
65 213
65 214
65 215
65 216
65 217
65 218
65 219
65 232
65 238
65 242
65 248
65 254
65 265
65 275
65 277
65 278
65 279
65 280
65 281
65 282
65 283
65 284
65 286
65 287
65 298
65 300
65 301
65 302
65 303
65 304
65 305
65 306
65 307
65 308
65 309
65 310
65 311
65 312
65 313
65 314
65 315
65 316
65 317
65 318
65 319
65 321
65 322
65 323
65 328
65 340
65 342
65 344
65 347
65 354
65 358
65 359
65 360
65 366
65 380
65 386
65 407
65 411
65 413
65 414
65 415
65 416
65 417
65 418
65 419
65 420
65 421
65 424
65 425
65 434
65 438
65 448
65 450
65 451
65 455
65 459
65 460
65 461
65 462
65 463
65 464
65 465
65 466
65 467
65 468
65 469
65 470
65 472
65 473
65 474
65 476
65 478
65 479
65 481
65 482
65 483
65 484
65 485
65 486
65 487
65 488
65 489
65 490
65 492
65 493
66 68
66 69
66 83
66 84
66 88
66 89
66 90
66 91
66 93
66 94
66 110
66 113
66 115
66 116
66 117
66 118
66 119
66 120
66 121
66 122
66 123
66 124
66 125
66 126
66 127
66 128
66 129
66 130
66 132
66 133
66 134
66 135
66 136
66 137
66 138
66 141
66 143
66 144
66 145
66 146
66 147
66 148
66 149
66 150
66 152
66 153
66 154
66 155
66 156
66 157
66 158
66 159
66 160
66 161
66 162
66 164
66 165
66 166
66 167
66 168
66 169
66 170
66 171
66 172
66 173
66 174
66 176
66 184
66 185
66 186
66 187
66 188
66 189
66 190
66 191
66 192
66 193
66 194
66 195
66 196
66 197
66 198
66 199
66 200
66 201
66 202
66 203
66 204
66 205
66 206
66 207
66 208
66 209
66 210
66 211
66 212
66 213
66 214
66 215
66 217
66 218
66 219
66 225
66 226
66 227
66 228
66 229
66 230
66 231
66 233
66 238
66 242
66 248
66 254
66 265
66 267
66 268
66 269
66 270
66 271
66 272
66 273
66 274
66 276
66 277
66 278
66 279
66 280
66 281
66 282
66 283
66 284
66 285
66 287
66 289
66 290
66 291
66 292
66 293
66 294
66 295
66 296
66 297
66 299
66 300
66 301
66 303
66 309
66 311
66 313
66 319
66 320
66 328
66 340
66 342
66 344
66 347
66 354
66 358
66 359
66 360
66 366
66 370
66 371
66 372
66 373
66 374
66 375
66 376
66 377
66 378
66 379
66 386
66 402
66 403
66 404
66 405
66 406
66 407
66 408
66 409
66 410
66 412
66 413
66 415
66 416
66 417
66 418
66 419
66 421
66 422
66 424
66 425
66 427
66 428
66 429
66 430
66 431
66 432
66 433
66 434
66 435
66 436
66 437
66 439
66 440
66 441
66 442
66 443
66 444
66 445
66 446
66 447
66 448
66 449
66 450
66 451
66 452
66 453
66 454
66 456
66 457
66 458
66 459
66 460
66 461
66 462
66 463
66 464
66 465
66 466
66 467
66 468
66 469
66 470
66 471
66 472
66 474
66 475
66 477
66 479
66 481
66 483
66 486
66 488
66 490
66 491
66 492
66 493
67 68
67 69
67 70
67 72
67 73
67 74
67 75
67 76
67 77
67 79
67 80
67 81
67 82
67 83
67 84
67 85
67 87
67 88
67 89
67 90
67 91
67 92
67 93
67 94
67 95
67 96
67 98
67 99
67 100
67 101
67 102
67 103
67 104
67 105
67 110
67 116
67 117
67 118
67 119
67 120
67 121
67 122
67 123
67 124
67 125
67 126
67 127
67 128
67 129
67 130
67 131
67 144
67 146
67 158
67 178
67 179
67 180
67 181
67 182
67 183
67 184
67 186
67 187
67 188
67 189
67 190
67 191
67 192
67 193
67 194
67 195
67 196
67 197
67 198
67 199
67 200
67 201
67 202
67 203
67 204
67 205
67 206
67 207
67 208
67 209
67 210
67 211
67 212
67 213
67 214
67 215
67 216
67 217
67 218
67 219
67 238
67 248
67 254
67 257
67 258
67 259
67 260
67 261
67 262
67 265
67 287
67 300
67 301
67 311
67 313
67 328
67 331
67 332
67 333
67 334
67 335
67 336
67 340
67 342
67 346
67 354
67 358
67 366
67 386
67 396
67 397
67 398
67 399
67 400
67 401
67 416
67 417
67 424
67 425
67 448
67 460
67 461
67 462
67 463
67 464
67 465
67 466
67 467
67 468
67 469
67 470
67 471
67 472
67 473
67 474
67 479
67 492
67 493
68 69
68 70
68 71
68 78
68 79
68 80
68 81
68 82
68 84
68 85
68 86
68 87
68 89
68 90
68 91
68 92
68 93
68 94
68 95
68 96
68 97
68 110
68 115
68 122
68 143
68 145
68 146
68 147
68 148
68 149
68 150
68 151
68 158
68 177
68 184
68 185
68 186
68 187
68 188
68 189
68 190
68 191
68 192
68 193
68 194
68 196
68 197
68 198
68 199
68 200
68 201
68 202
68 203
68 204
68 205
68 206
68 207
68 208
68 209
68 210
68 211
68 212
68 213
68 214
68 215
68 216
68 217
68 218
68 219
68 238
68 248
68 254
68 256
68 265
68 287
68 301
68 302
68 303
68 304
68 305
68 306
68 307
68 308
68 309
68 310
68 312
68 313
68 314
68 315
68 316
68 317
68 318
68 319
68 320
68 321
68 322
68 323
68 328
68 330
68 337
68 338
68 339
68 341
68 342
68 343
68 344
68 345
68 346
68 347
68 348
68 349
68 350
68 351
68 352
68 353
68 355
68 356
68 357
68 358
68 359
68 360
68 361
68 362
68 366
68 386
68 395
68 413
68 414
68 415
68 417
68 418
68 419
68 420
68 421
68 422
68 423
68 425
68 426
68 448
68 459
68 460
68 461
68 462
68 463
68 465
68 466
68 467
68 468
68 469
68 470
68 471
68 472
68 473
68 474
68 479
68 493
68 494
69 70
69 71
69 78
69 79
69 80
69 81
69 82
69 83
69 85
69 86
69 87
69 88
69 89
69 91
69 92
69 93
69 94
69 95
69 96
69 97
69 106
69 107
69 108
69 109
69 111
69 112
69 115
69 116
69 117
69 118
69 119
69 120
69 121
69 123
69 124
69 125
69 126
69 127
69 128
69 129
69 130
69 131
69 143
69 144
69 145
69 147
69 148
69 149
69 150
69 151
69 152
69 153
69 154
69 155
69 156
69 157
69 159
69 160
69 161
69 162
69 163
69 164
69 177
69 185
69 195
69 234
69 235
69 236
69 237
69 239
69 244
69 245
69 246
69 247
69 249
69 250
69 251
69 252
69 253
69 255
69 256
69 264
69 266
69 288
69 300
69 302
69 303
69 304
69 305
69 306
69 307
69 308
69 309
69 310
69 311
69 312
69 314
69 315
69 316
69 317
69 318
69 319
69 320
69 321
69 322
69 323
69 324
69 325
69 326
69 327
69 329
69 330
69 337
69 338
69 339
69 340
69 341
69 343
69 344
69 345
69 346
69 347
69 348
69 349
69 350
69 351
69 352
69 353
69 354
69 355
69 356
69 357
69 359
69 360
69 361
69 362
69 363
69 364
69 365
69 367
69 368
69 369
69 381
69 382
69 383
69 384
69 385
69 387
69 388
69 389
69 390
69 395
69 413
69 414
69 415
69 416
69 418
69 419
69 420
69 421
69 422
69 423
69 424
69 426
69 440
69 441
69 442
69 443
69 444
69 445
69 446
69 447
69 449
69 450
69 451
69 452
69 453
69 454
69 455
69 456
69 457
69 458
69 459
69 460
69 461
69 462
69 463
69 464
69 465
69 467
69 468
69 469
69 470
69 471
69 472
69 473
69 474
69 492
69 494
70 71
70 78
70 83
70 84
70 86
70 88
70 90
70 97
70 110
70 115
70 122
70 144
70 146
70 158
70 177
70 185
70 195
70 238
70 248
70 254
70 256
70 265
70 287
70 300
70 301
70 311
70 313
70 328
70 330
70 337
70 338
70 339
70 340
70 341
70 342
70 343
70 344
70 345
70 347
70 348
70 349
70 350
70 351
70 354
70 358
70 366
70 386
70 395
70 416
70 417
70 424
70 425
70 448
70 459
70 464
70 466
70 479
70 492
70 493
71 72
71 73
71 74
71 75
71 76
71 77
71 79
71 80
71 81
71 82
71 83
71 84
71 85
71 87
71 88
71 89
71 90
71 91
71 92
71 93
71 94
71 95
71 96
71 98
71 99
71 100
71 101
71 102
71 103
71 104
71 105
71 116
71 117
71 118
71 119
71 120
71 121
71 122
71 123
71 124
71 125
71 126
71 127
71 128
71 129
71 130
71 131
71 178
71 179
71 180
71 181
71 182
71 183
71 184
71 186
71 187
71 188
71 189
71 190
71 191
71 192
71 193
71 194
71 195
71 196
71 197
71 198
71 199
71 200
71 201
71 202
71 203
71 204
71 205
71 206
71 207
71 208
71 209
71 210
71 211
71 212
71 213
71 214
71 215
71 216
71 217
71 218
71 219
71 257
71 258
71 259
71 260
71 261
71 262
71 331
71 332
71 333
71 334
71 335
71 336
71 338
71 339
71 341
71 343
71 350
71 351
71 357
71 396
71 397
71 398
71 399
71 400
71 401
71 446
71 460
71 461
71 462
71 463
71 464
71 465
71 466
71 467
71 468
71 469
71 470
71 471
71 472
71 473
71 474
72 73
72 74
72 75
72 76
72 77
72 78
72 86
72 97
72 98
72 100
72 101
72 102
72 103
72 104
72 105
72 115
72 177
72 179
72 180
72 181
72 182
72 183
72 185
72 256
72 258
72 259
72 260
72 261
72 262
72 330
72 331
72 332
72 333
72 335
72 336
72 337
72 339
72 340
72 341
72 342
72 343
72 344
72 345
72 346
72 347
72 348
72 349
72 350
72 351
72 357
72 395
72 397
72 398
72 399
72 400
72 401
72 446
72 459
73 74
73 75
73 76
73 77
73 78
73 86
73 97
73 98
73 99
73 101
73 102
73 103
73 104
73 105
73 115
73 177
73 178
73 179
73 180
73 182
73 183
73 185
73 256
73 257
73 259
73 260
73 261
73 262
73 330
73 332
73 333
73 334
73 335
73 336
73 337
73 338
73 340
73 341
73 342
73 343
73 344
73 345
73 346
73 347
73 348
73 349
73 350
73 351
73 357
73 395
73 396
73 398
73 399
73 400
73 401
73 446
73 459
74 75
74 76
74 77
74 78
74 86
74 97
74 99
74 100
74 101
74 104
74 105
74 115
74 177
74 178
74 180
74 181
74 182
74 183
74 185
74 256
74 257
74 258
74 260
74 261
74 262
74 330
74 331
74 333
74 334
74 335
74 336
74 337
74 338
74 339
74 340
74 342
74 343
74 344
74 345
74 346
74 347
74 348
74 349
74 350
74 351
74 352
74 353
74 354
74 355
74 356
74 358
74 359
74 360
74 361
74 362
74 395
74 396
74 397
74 399
74 400
74 401
74 440
74 441
74 442
74 443
74 444
74 445
74 447
74 448
74 449
74 450
74 451
74 452
74 453
74 454
74 455
74 456
74 457
74 458
74 459
75 76
75 77
75 78
75 86
75 97
75 98
75 99
75 100
75 102
75 103
75 104
75 105
75 115
75 177
75 178
75 179
75 181
75 182
75 183
75 185
75 256
75 257
75 258
75 259
75 261
75 262
75 330
75 331
75 332
75 334
75 335
75 336
75 337
75 338
75 339
75 340
75 341
75 342
75 344
75 345
75 346
75 347
75 348
75 349
75 350
75 351
75 357
75 395
75 396
75 397
75 398
75 400
75 401
75 446
75 459
76 77
76 78
76 86
76 97
76 98
76 99
76 100
76 101
76 102
76 103
76 105
76 115
76 177
76 178
76 179
76 180
76 181
76 183
76 185
76 256
76 257
76 258
76 259
76 260
76 262
76 330
76 331
76 332
76 333
76 334
76 336
76 337
76 338
76 339
76 340
76 341
76 342
76 343
76 344
76 345
76 346
76 347
76 348
76 349
76 351
76 357
76 395
76 396
76 397
76 398
76 399
76 401
76 446
76 459
77 78
77 86
77 97
77 98
77 99
77 100
77 101
77 102
77 103
77 104
77 115
77 177
77 178
77 179
77 180
77 181
77 182
77 185
77 256
77 257
77 258
77 259
77 260
77 261
77 330
77 331
77 332
77 333
77 334
77 335
77 337
77 338
77 339
77 340
77 341
77 342
77 343
77 344
77 345
77 346
77 347
77 348
77 349
77 350
77 357
77 395
77 396
77 397
77 398
77 399
77 400
77 446
77 459
78 79
78 80
78 81
78 82
78 83
78 84
78 85
78 87
78 88
78 89
78 90
78 91
78 92
78 93
78 94
78 95
78 96
78 98
78 99
78 100
78 101
78 102
78 103
78 104
78 105
78 110
78 116
78 117
78 118
78 119
78 120
78 121
78 122
78 123
78 124
78 125
78 126
78 127
78 128
78 129
78 130
78 131
78 144
78 146
78 158
78 178
78 179
78 180
78 181
78 182
78 183
78 184
78 186
78 187
78 188
78 189
78 190
78 191
78 192
78 193
78 194
78 195
78 196
78 197
78 198
78 199
78 200
78 201
78 202
78 203
78 204
78 205
78 206
78 207
78 208
78 209
78 210
78 211
78 212
78 213
78 214
78 215
78 216
78 217
78 218
78 219
78 235
78 236
78 237
78 238
78 239
78 245
78 246
78 247
78 248
78 249
78 251
78 252
78 253
78 254
78 255
78 257
78 258
78 259
78 260
78 261
78 262
78 265
78 287
78 300
78 301
78 311
78 313
78 325
78 326
78 327
78 328
78 329
78 331
78 332
78 333
78 334
78 335
78 336
78 340
78 342
78 354
78 358
78 366
78 386
78 396
78 397
78 398
78 399
78 400
78 401
78 416
78 417
78 424
78 425
78 448
78 460
78 461
78 462
78 463
78 464
78 465
78 466
78 467
78 468
78 469
78 470
78 471
78 472
78 473
78 474
78 479
78 492
78 493
79 80
79 81
79 82
79 83
79 84
79 85
79 86
79 88
79 90
79 97
79 110
79 115
79 122
79 144
79 146
79 158
79 177
79 184
79 185
79 186
79 187
79 188
79 190
79 191
79 192
79 193
79 194
79 195
79 196
79 197
79 198
79 199
79 200
79 201
79 202
79 203
79 204
79 205
79 206
79 207
79 208
79 209
79 210
79 211
79 212
79 213
79 214
79 215
79 216
79 217
79 218
79 219
79 234
79 236
79 237
79 238
79 239
79 244
79 246
79 247
79 248
79 249
79 251
79 252
79 253
79 254
79 255
79 256
79 265
79 287
79 300
79 301
79 311
79 313
79 324
79 326
79 327
79 328
79 329
79 330
79 340
79 342
79 354
79 358
79 366
79 386
79 395
79 416
79 417
79 424
79 425
79 448
79 459
79 464
79 466
79 479
79 492
79 493
80 81
80 82
80 83
80 84
80 85
80 86
80 88
80 90
80 97
80 110
80 115
80 122
80 144
80 146
80 158
80 177
80 184
80 185
80 186
80 187
80 188
80 189
80 190
80 191
80 193
80 194
80 195
80 196
80 197
80 198
80 199
80 200
80 201
80 202
80 203
80 204
80 205
80 206
80 207
80 208
80 209
80 210
80 211
80 212
80 213
80 214
80 215
80 216
80 217
80 218
80 219
80 234
80 235
80 237
80 238
80 239
80 245
80 246
80 247
80 248
80 249
80 250
80 252
80 253
80 254
80 255
80 256
80 265
80 287
80 300
80 301
80 311
80 313
80 324
80 325
80 327
80 328
80 329
80 330
80 340
80 342
80 354
80 358
80 366
80 386
80 395
80 416
80 417
80 424
80 425
80 448
80 459
80 464
80 466
80 479
80 492
80 493
81 82
81 83
81 84
81 85
81 86
81 88
81 90
81 97
81 110
81 115
81 122
81 144
81 146
81 158
81 177
81 184
81 185
81 186
81 187
81 188
81 189
81 190
81 191
81 192
81 194
81 195
81 196
81 197
81 198
81 199
81 200
81 201
81 202
81 203
81 204
81 205
81 206
81 207
81 208
81 209
81 210
81 211
81 212
81 213
81 214
81 215
81 216
81 217
81 218
81 219
81 234
81 235
81 236
81 238
81 239
81 244
81 245
81 247
81 248
81 249
81 250
81 251
81 253
81 254
81 255
81 256
81 265
81 287
81 300
81 301
81 311
81 313
81 325
81 326
81 327
81 328
81 329
81 330
81 340
81 342
81 354
81 358
81 366
81 386
81 395
81 416
81 417
81 424
81 425
81 448
81 459
81 464
81 466
81 479
81 492
81 493
82 83
82 84
82 85
82 86
82 88
82 90
82 97
82 110
82 115
82 122
82 144
82 146
82 158
82 177
82 184
82 185
82 186
82 187
82 188
82 189
82 190
82 191
82 192
82 193
82 195
82 196
82 197
82 198
82 199
82 200
82 201
82 202
82 203
82 204
82 205
82 206
82 207
82 208
82 209
82 210
82 211
82 212
82 213
82 214
82 215
82 216
82 217
82 218
82 219
82 235
82 236
82 237
82 238
82 239
82 244
82 245
82 246
82 248
82 249
82 250
82 251
82 252
82 254
82 255
82 256
82 265
82 287
82 300
82 301
82 311
82 313
82 324
82 325
82 326
82 328
82 329
82 330
82 340
82 342
82 354
82 358
82 366
82 386
82 395
82 416
82 417
82 424
82 425
82 448
82 459
82 464
82 466
82 479
82 492
82 493
83 84
83 85
83 86
83 87
83 89
83 90
83 91
83 92
83 93
83 94
83 95
83 96
83 97
83 110
83 115
83 122
83 143
83 145
83 146
83 147
83 148
83 149
83 150
83 151
83 158
83 177
83 184
83 185
83 186
83 187
83 188
83 189
83 190
83 191
83 192
83 193
83 194
83 196
83 197
83 198
83 199
83 200
83 201
83 202
83 203
83 204
83 205
83 206
83 207
83 208
83 209
83 210
83 211
83 212
83 213
83 214
83 215
83 216
83 217
83 218
83 219
83 235
83 236
83 237
83 238
83 239
83 245
83 246
83 247
83 248
83 249
83 251
83 252
83 253
83 254
83 255
83 256
83 265
83 287
83 301
83 302
83 303
83 304
83 305
83 306
83 307
83 308
83 309
83 310
83 312
83 313
83 314
83 315
83 316
83 317
83 318
83 319
83 320
83 321
83 322
83 323
83 325
83 326
83 327
83 328
83 329
83 330
83 337
83 338
83 339
83 341
83 342
83 343
83 344
83 345
83 346
83 347
83 348
83 349
83 350
83 351
83 352
83 353
83 355
83 356
83 357
83 358
83 359
83 360
83 361
83 362
83 366
83 386
83 395
83 413
83 414
83 415
83 417
83 418
83 419
83 420
83 421
83 422
83 423
83 425
83 426
83 448
83 459
83 460
83 461
83 462
83 463
83 465
83 466
83 467
83 468
83 469
83 470
83 471
83 472
83 473
83 474
83 479
83 493
83 494
84 85
84 86
84 87
84 88
84 89
84 91
84 92
84 93
84 94
84 95
84 96
84 97
84 106
84 107
84 108
84 109
84 111
84 112
84 115
84 116
84 117
84 118
84 119
84 120
84 121
84 123
84 124
84 125
84 126
84 127
84 128
84 129
84 130
84 131
84 143
84 144
84 145
84 147
84 148
84 149
84 150
84 151
84 152
84 153
84 154
84 155
84 156
84 157
84 159
84 160
84 161
84 162
84 163
84 164
84 177
84 185
84 189
84 192
84 193
84 194
84 195
84 200
84 234
84 235
84 236
84 237
84 239
84 244
84 245
84 246
84 247
84 249
84 250
84 251
84 252
84 253
84 255
84 256
84 264
84 266
84 288
84 300
84 302
84 303
84 304
84 305
84 306
84 307
84 308
84 309
84 310
84 311
84 312
84 314
84 315
84 316
84 317
84 318
84 319
84 320
84 321
84 322
84 323
84 324
84 325
84 326
84 327
84 329
84 330
84 337
84 338
84 339
84 340
84 341
84 343
84 344
84 345
84 346
84 347
84 348
84 349
84 350
84 351
84 352
84 353
84 354
84 355
84 356
84 357
84 359
84 360
84 361
84 362
84 363
84 364
84 365
84 367
84 368
84 369
84 381
84 382
84 383
84 384
84 385
84 387
84 388
84 389
84 390
84 395
84 413
84 414
84 415
84 416
84 418
84 419
84 420
84 421
84 422
84 423
84 424
84 426
84 440
84 441
84 442
84 443
84 444
84 445
84 446
84 447
84 449
84 450
84 451
84 452
84 453
84 454
84 455
84 456
84 457
84 458
84 459
84 460
84 461
84 462
84 463
84 464
84 465
84 467
84 468
84 469
84 470
84 471
84 472
84 473
84 474
84 492
84 494
85 86
85 88
85 90
85 97
85 110
85 115
85 122
85 144
85 146
85 158
85 177
85 184
85 185
85 186
85 187
85 188
85 189
85 190
85 191
85 192
85 193
85 194
85 195
85 196
85 197
85 198
85 199
85 201
85 202
85 203
85 204
85 205
85 206
85 207
85 208
85 209
85 210
85 211
85 212
85 213
85 214
85 215
85 216
85 217
85 218
85 219
85 234
85 235
85 236
85 237
85 238
85 244
85 245
85 246
85 247
85 248
85 250
85 251
85 252
85 253
85 254
85 256
85 265
85 287
85 300
85 301
85 311
85 313
85 324
85 325
85 326
85 327
85 328
85 330
85 340
85 342
85 354
85 358
85 366
85 386
85 395
85 416
85 417
85 424
85 425
85 448
85 459
85 464
85 466
85 479
85 492
85 493
86 87
86 88
86 89
86 90
86 91
86 92
86 93
86 94
86 95
86 96
86 98
86 99
86 100
86 101
86 102
86 103
86 104
86 105
86 110
86 111
86 112
86 116
86 117
86 118
86 119
86 120
86 121
86 122
86 123
86 124
86 125
86 126
86 127
86 128
86 129
86 130
86 131
86 132
86 144
86 145
86 146
86 147
86 148
86 149
86 150
86 158
86 178
86 179
86 180
86 181
86 182
86 183
86 184
86 186
86 187
86 188
86 189
86 190
86 191
86 192
86 193
86 194
86 195
86 196
86 197
86 198
86 199
86 200
86 201
86 202
86 203
86 204
86 205
86 206
86 207
86 208
86 209
86 210
86 211
86 212
86 213
86 214
86 215
86 216
86 217
86 218
86 219
86 238
86 242
86 248
86 254
86 257
86 258
86 259
86 260
86 261
86 262
86 265
86 278
86 279
86 281
86 282
86 283
86 284
86 285
86 287
86 300
86 301
86 311
86 313
86 318
86 319
86 320
86 328
86 331
86 332
86 333
86 334
86 335
86 336
86 340
86 342
86 347
86 354
86 358
86 360
86 366
86 368
86 386
86 393
86 396
86 397
86 398
86 399
86 400
86 401
86 407
86 416
86 417
86 419
86 420
86 421
86 422
86 424
86 425
86 434
86 448
86 450
86 451
86 452
86 460
86 461
86 462
86 463
86 464
86 465
86 466
86 467
86 468
86 469
86 470
86 471
86 472
86 473
86 474
86 479
86 484
86 486
86 489
86 490
86 491
86 492
86 493
86 494
87 88
87 89
87 90
87 91
87 92
87 93
87 94
87 95
87 96
87 97
87 102
87 110
87 111
87 112
87 115
87 121
87 122
87 126
87 127
87 128
87 129
87 132
87 144
87 145
87 146
87 147
87 148
87 149
87 150
87 158
87 177
87 185
87 195
87 199
87 205
87 206
87 207
87 208
87 238
87 242
87 248
87 254
87 256
87 265
87 278
87 279
87 281
87 282
87 283
87 284
87 285
87 287
87 300
87 301
87 311
87 313
87 318
87 319
87 320
87 328
87 330
87 340
87 342
87 347
87 354
87 358
87 360
87 366
87 368
87 386
87 393
87 395
87 407
87 416
87 417
87 419
87 420
87 421
87 422
87 424
87 425
87 434
87 448
87 450
87 451
87 452
87 459
87 460
87 461
87 462
87 464
87 465
87 466
87 467
87 468
87 469
87 470
87 471
87 472
87 473
87 474
87 479
87 481
87 482
87 483
87 485
87 486
87 487
87 488
87 489
87 490
87 491
87 492
87 493
87 494
88 89
88 90
88 91
88 92
88 93
88 94
88 95
88 96
88 97
88 102
88 110
88 111
88 112
88 115
88 121
88 122
88 126
88 127
88 128
88 129
88 132
88 143
88 145
88 146
88 147
88 148
88 149
88 150
88 151
88 158
88 177
88 184
88 185
88 186
88 187
88 188
88 189
88 190
88 191
88 192
88 193
88 194
88 196
88 197
88 198
88 199
88 200
88 201
88 202
88 203
88 204
88 205
88 206
88 207
88 208
88 209
88 210
88 211
88 212
88 213
88 214
88 215
88 216
88 217
88 218
88 219
88 238
88 242
88 248
88 254
88 256
88 265
88 278
88 279
88 281
88 282
88 283
88 284
88 285
88 287
88 301
88 302
88 303
88 304
88 305
88 306
88 307
88 308
88 309
88 310
88 312
88 313
88 314
88 315
88 316
88 317
88 318
88 319
88 320
88 321
88 322
88 323
88 328
88 330
88 337
88 338
88 339
88 341
88 342
88 343
88 344
88 345
88 346
88 347
88 348
88 349
88 350
88 351
88 352
88 353
88 355
88 356
88 357
88 358
88 359
88 360
88 361
88 362
88 366
88 368
88 386
88 393
88 395
88 407
88 413
88 414
88 415
88 417
88 418
88 419
88 420
88 421
88 422
88 423
88 425
88 426
88 434
88 448
88 450
88 451
88 452
88 459
88 460
88 461
88 462
88 463
88 465
88 466
88 467
88 468
88 469
88 470
88 471
88 472
88 473
88 474
88 479
88 484
88 486
88 489
88 490
88 491
88 493
88 494
89 90
89 91
89 92
89 93
89 94
89 95
89 96
89 97
89 102
89 110
89 111
89 112
89 115
89 116
89 117
89 118
89 119
89 120
89 122
89 123
89 124
89 125
89 126
89 127
89 128
89 129
89 130
89 131
89 132
89 143
89 144
89 146
89 147
89 148
89 149
89 150
89 151
89 158
89 177
89 184
89 185
89 186
89 187
89 188
89 189
89 190
89 191
89 192
89 193
89 194
89 195
89 196
89 197
89 198
89 200
89 201
89 202
89 203
89 204
89 205
89 206
89 207
89 208
89 209
89 210
89 211
89 212
89 213
89 214
89 215
89 216
89 217
89 218
89 219
89 238
89 242
89 248
89 254
89 256
89 265
89 278
89 279
89 280
89 282
89 283
89 284
89 285
89 286
89 287
89 300
89 301
89 311
89 313
89 318
89 319
89 320
89 328
89 330
89 340
89 342
89 347
89 354
89 358
89 360
89 366
89 368
89 386
89 393
89 395
89 407
89 416
89 417
89 419
89 420
89 421
89 422
89 424
89 425
89 434
89 448
89 450
89 451
89 452
89 459
89 460
89 461
89 462
89 463
89 464
89 466
89 467
89 468
89 469
89 470
89 471
89 472
89 473
89 474
89 479
89 481
89 482
89 483
89 484
89 485
89 487
89 488
89 489
89 490
89 491
89 492
89 493
89 494
90 91
90 92
90 93
90 94
90 95
90 96
90 97
90 102
90 106
90 107
90 108
90 109
90 111
90 112
90 115
90 116
90 117
90 118
90 119
90 120
90 121
90 123
90 124
90 125
90 126
90 127
90 128
90 129
90 130
90 131
90 132
90 143
90 144
90 145
90 147
90 148
90 149
90 150
90 151
90 152
90 153
90 154
90 155
90 156
90 157
90 159
90 160
90 161
90 162
90 163
90 164
90 177
90 185
90 195
90 199
90 205
90 206
90 207
90 208
90 234
90 235
90 236
90 237
90 239
90 242
90 244
90 245
90 246
90 247
90 249
90 250
90 251
90 252
90 253
90 255
90 256
90 264
90 266
90 278
90 279
90 281
90 282
90 283
90 284
90 285
90 288
90 300
90 302
90 303
90 304
90 305
90 306
90 307
90 308
90 309
90 310
90 311
90 312
90 314
90 315
90 316
90 317
90 318
90 319
90 320
90 321
90 322
90 323
90 324
90 325
90 326
90 327
90 329
90 330
90 337
90 338
90 339
90 340
90 341
90 343
90 344
90 345
90 346
90 347
90 348
90 349
90 350
90 351
90 352
90 353
90 354
90 355
90 356
90 357
90 359
90 360
90 361
90 362
90 363
90 364
90 365
90 367
90 368
90 369
90 381
90 382
90 383
90 384
90 385
90 387
90 388
90 389
90 390
90 393
90 395
90 407
90 413
90 414
90 415
90 416
90 418
90 419
90 420
90 421
90 422
90 423
90 424
90 426
90 434
90 440
90 441
90 442
90 443
90 444
90 445
90 446
90 447
90 449
90 450
90 451
90 452
90 453
90 454
90 455
90 456
90 457
90 458
90 459
90 460
90 461
90 462
90 463
90 464
90 465
90 467
90 468
90 469
90 470
90 471
90 472
90 473
90 474
90 484
90 486
90 489
90 490
90 491
90 492
90 494
91 92
91 93
91 94
91 95
91 96
91 97
91 102
91 110
91 111
91 112
91 115
91 121
91 122
91 126
91 127
91 128
91 129
91 132
91 143
91 144
91 145
91 146
91 148
91 149
91 150
91 151
91 158
91 177
91 185
91 195
91 199
91 205
91 206
91 207
91 208
91 238
91 242
91 248
91 254
91 256
91 265
91 277
91 279
91 280
91 281
91 283
91 284
91 285
91 286
91 287
91 300
91 301
91 311
91 313
91 318
91 319
91 320
91 328
91 330
91 340
91 342
91 347
91 354
91 358
91 360
91 366
91 368
91 386
91 393
91 395
91 402
91 403
91 404
91 405
91 406
91 408
91 409
91 410
91 411
91 412
91 413
91 414
91 415
91 416
91 417
91 418
91 420
91 421
91 422
91 424
91 425
91 427
91 428
91 429
91 430
91 431
91 432
91 433
91 435
91 436
91 437
91 438
91 439
91 440
91 441
91 442
91 443
91 444
91 445
91 446
91 447
91 448
91 449
91 451
91 452
91 453
91 454
91 455
91 456
91 457
91 458
91 459
91 460
91 461
91 462
91 463
91 464
91 465
91 466
91 467
91 469
91 470
91 471
91 472
91 473
91 474
91 479
91 484
91 486
91 489
91 490
91 491
91 492
91 493
91 494
92 93
92 94
92 95
92 96
92 97
92 102
92 110
92 111
92 112
92 115
92 116
92 117
92 118
92 119
92 120
92 121
92 122
92 123
92 124
92 125
92 127
92 128
92 129
92 130
92 131
92 132
92 143
92 144
92 145
92 146
92 147
92 149
92 150
92 151
92 158
92 177
92 184
92 185
92 186
92 187
92 188
92 189
92 190
92 191
92 192
92 193
92 194
92 195
92 196
92 197
92 198
92 199
92 200
92 201
92 202
92 203
92 204
92 206
92 207
92 208
92 209
92 210
92 211
92 212
92 213
92 214
92 215
92 216
92 217
92 218
92 219
92 238
92 242
92 248
92 254
92 256
92 265
92 278
92 279
92 280
92 281
92 282
92 284
92 285
92 286
92 287
92 300
92 301
92 302
92 303
92 304
92 305
92 306
92 307
92 308
92 309
92 310
92 311
92 312
92 313
92 314
92 315
92 316
92 317
92 319
92 320
92 321
92 322
92 323
92 328
92 330
92 340
92 342
92 347
92 354
92 358
92 360
92 366
92 368
92 386
92 393
92 395
92 407
92 413
92 414
92 415
92 416
92 417
92 418
92 419
92 421
92 422
92 424
92 425
92 434
92 448
92 450
92 451
92 452
92 459
92 460
92 461
92 462
92 463
92 464
92 465
92 466
92 467
92 468
92 469
92 471
92 472
92 473
92 474
92 479
92 481
92 482
92 483
92 484
92 485
92 486
92 487
92 488
92 490
92 491
92 492
92 493
92 494
93 94
93 95
93 96
93 97
93 102
93 110
93 111
93 112
93 115
93 116
93 117
93 118
93 119
93 120
93 121
93 122
93 123
93 124
93 125
93 126
93 128
93 129
93 130
93 131
93 143
93 144
93 145
93 146
93 147
93 148
93 150
93 151
93 158
93 177
93 184
93 185
93 186
93 187
93 188
93 189
93 190
93 191
93 192
93 193
93 194
93 195
93 196
93 197
93 198
93 199
93 200
93 201
93 202
93 203
93 204
93 205
93 207
93 208
93 209
93 210
93 211
93 212
93 213
93 214
93 215
93 216
93 217
93 218
93 219
93 238
93 240
93 241
93 248
93 254
93 256
93 265
93 277
93 278
93 280
93 281
93 282
93 283
93 285
93 286
93 287
93 300
93 301
93 302
93 303
93 304
93 305
93 306
93 307
93 308
93 309
93 310
93 311
93 312
93 313
93 314
93 315
93 316
93 317
93 318
93 320
93 321
93 322
93 323
93 328
93 330
93 337
93 338
93 339
93 340
93 341
93 342
93 343
93 344
93 345
93 346
93 348
93 349
93 350
93 351
93 352
93 353
93 354
93 355
93 356
93 357
93 358
93 359
93 361
93 362
93 366
93 368
93 386
93 393
93 395
93 407
93 413
93 414
93 415
93 416
93 417
93 418
93 419
93 420
93 422
93 424
93 425
93 434
93 440
93 441
93 442
93 443
93 444
93 445
93 446
93 447
93 448
93 449
93 450
93 452
93 453
93 454
93 455
93 456
93 457
93 458
93 459
93 463
93 464
93 465
93 466
93 468
93 470
93 471
93 472
93 479
93 481
93 482
93 483
93 484
93 485
93 486
93 487
93 488
93 489
93 491
93 492
93 493
93 494
94 95
94 96
94 97
94 102
94 110
94 111
94 112
94 115
94 116
94 117
94 118
94 119
94 120
94 121
94 122
94 123
94 124
94 125
94 126
94 127
94 129
94 130
94 131
94 132
94 143
94 144
94 145
94 146
94 147
94 148
94 149
94 151
94 158
94 177
94 184
94 185
94 186
94 187
94 188
94 189
94 190
94 191
94 192
94 193
94 194
94 195
94 196
94 197
94 198
94 199
94 200
94 201
94 202
94 203
94 204
94 205
94 206
94 208
94 209
94 210
94 211
94 212
94 213
94 214
94 215
94 216
94 217
94 218
94 219
94 238
94 242
94 248
94 254
94 256
94 265
94 278
94 279
94 280
94 281
94 282
94 283
94 284
94 286
94 287
94 300
94 301
94 302
94 303
94 304
94 305
94 306
94 307
94 308
94 309
94 310
94 311
94 312
94 313
94 314
94 315
94 316
94 317
94 318
94 319
94 321
94 322
94 323
94 328
94 330
94 340
94 342
94 347
94 354
94 358
94 360
94 366
94 368
94 386
94 393
94 395
94 407
94 413
94 414
94 415
94 416
94 417
94 418
94 419
94 420
94 421
94 424
94 425
94 434
94 448
94 450
94 451
94 452
94 459
94 460
94 461
94 462
94 463
94 464
94 465
94 466
94 467
94 468
94 469
94 470
94 472
94 473
94 474
94 479
94 481
94 482
94 483
94 484
94 485
94 486
94 487
94 488
94 489
94 490
94 492
94 493
94 494
95 96
95 97
95 98
95 99
95 100
95 101
95 103
95 104
95 105
95 106
95 107
95 108
95 109
95 110
95 112
95 115
95 116
95 117
95 118
95 119
95 120
95 121
95 122
95 123
95 124
95 125
95 126
95 127
95 128
95 130
95 131
95 132
95 144
95 145
95 146
95 147
95 148
95 149
95 150
95 158
95 177
95 184
95 185
95 186
95 187
95 188
95 189
95 190
95 191
95 192
95 193
95 194
95 195
95 196
95 197
95 198
95 199
95 200
95 201
95 202
95 203
95 204
95 205
95 206
95 207
95 209
95 210
95 211
95 212
95 213
95 214
95 215
95 216
95 217
95 218
95 219
95 238
95 242
95 248
95 254
95 256
95 265
95 278
95 279
95 281
95 282
95 283
95 284
95 285
95 287
95 300
95 301
95 311
95 313
95 318
95 319
95 320
95 328
95 330
95 340
95 342
95 347
95 354
95 358
95 360
95 363
95 364
95 365
95 366
95 367
95 369
95 386
95 391
95 392
95 394
95 395
95 407
95 416
95 417
95 419
95 420
95 421
95 422
95 424
95 425
95 434
95 440
95 441
95 442
95 443
95 444
95 445
95 446
95 447
95 448
95 449
95 450
95 451
95 453
95 454
95 455
95 456
95 457
95 458
95 459
95 460
95 461
95 462
95 463
95 464
95 465
95 466
95 467
95 468
95 469
95 470
95 471
95 473
95 474
95 479
95 484
95 486
95 489
95 490
95 491
95 492
95 493
96 97
96 102
96 106
96 107
96 108
96 109
96 110
96 111
96 115
96 121
96 122
96 126
96 127
96 128
96 129
96 132
96 144
96 145
96 146
96 147
96 148
96 149
96 150
96 158
96 177
96 185
96 195
96 199
96 205
96 206
96 207
96 208
96 238
96 242
96 248
96 254
96 256
96 265
96 278
96 279
96 281
96 282
96 283
96 284
96 285
96 287
96 300
96 301
96 311
96 313
96 318
96 319
96 320
96 328
96 330
96 340
96 342
96 347
96 354
96 358
96 360
96 366
96 368
96 386
96 393
96 395
96 407
96 416
96 417
96 419
96 420
96 421
96 422
96 424
96 425
96 434
96 448
96 450
96 451
96 452
96 459
96 463
96 464
96 465
96 466
96 468
96 470
96 471
96 472
96 479
96 484
96 486
96 489
96 490
96 491
96 492
96 493
96 494
97 98
97 99
97 100
97 101
97 102
97 103
97 104
97 105
97 106
97 111
97 116
97 117
97 118
97 119
97 120
97 121
97 122
97 123
97 124
97 125
97 126
97 127
97 128
97 129
97 130
97 131
97 155
97 168
97 178
97 179
97 180
97 181
97 182
97 183
97 184
97 186
97 187
97 188
97 189
97 190
97 191
97 192
97 193
97 194
97 195
97 196
97 197
97 198
97 199
97 200
97 201
97 202
97 203
97 204
97 205
97 206
97 207
97 208
97 209
97 210
97 211
97 212
97 213
97 214
97 215
97 216
97 217
97 218
97 219
97 221
97 240
97 257
97 258
97 259
97 260
97 261
97 262
97 292
97 308
97 331
97 332
97 333
97 334
97 335
97 336
97 338
97 339
97 343
97 349
97 350
97 351
97 352
97 363
97 368
97 373
97 391
97 393
97 396
97 397
97 398
97 399
97 400
97 401
97 404
97 430
97 452
97 460
97 461
97 462
97 463
97 464
97 465
97 466
97 467
97 468
97 469
97 470
97 471
97 472
97 473
97 474
97 482
97 494
98 99
98 100
98 101
98 102
98 103
98 104
98 105
98 107
98 108
98 109
98 110
98 111
98 112
98 115
98 129
98 152
98 153
98 154
98 156
98 157
98 158
98 159
98 160
98 161
98 162
98 163
98 164
98 165
98 166
98 167
98 169
98 170
98 171
98 172
98 173
98 174
98 175
98 176
98 177
98 178
98 180
98 181
98 182
98 183
98 184
98 185
98 186
98 187
98 188
98 189
98 190
98 192
98 193
98 194
98 195
98 196
98 197
98 198
98 199
98 200
98 201
98 202
98 203
98 204
98 205
98 206
98 207
98 208
98 209
98 210
98 211
98 212
98 213
98 214
98 215
98 216
98 217
98 218
98 219
98 222
98 241
98 242
98 256
98 257
98 258
98 260
98 261
98 262
98 289
98 290
98 291
98 293
98 294
98 295
98 296
98 297
98 298
98 299
98 302
98 303
98 304
98 305
98 306
98 307
98 309
98 310
98 311
98 312
98 313
98 314
98 315
98 316
98 317
98 318
98 319
98 320
98 321
98 322
98 323
98 330
98 331
98 333
98 334
98 335
98 336
98 338
98 339
98 343
98 349
98 350
98 351
98 353
98 354
98 355
98 356
98 357
98 358
98 359
98 360
98 361
98 362
98 364
98 365
98 366
98 367
98 368
98 369
98 370
98 371
98 372
98 374
98 375
98 376
98 377
98 378
98 379
98 380
98 392
98 393
98 394
98 395
98 396
98 397
98 399
98 400
98 401
98 402
98 403
98 405
98 406
98 407
98 408
98 409
98 410
98 411
98 412
98 427
98 428
98 429
98 431
98 432
98 433
98 434
98 435
98 436
98 437
98 438
98 439
98 452
98 459
98 460
98 462
98 463
98 464
98 465
98 466
98 467
98 468
98 469
98 470
98 471
98 472
98 473
98 474
98 481
98 483
98 484
98 485
98 486
98 487
98 488
98 489
98 490
98 491
98 494
99 100
99 101
99 102
99 103
99 104
99 105
99 106
99 111
99 115
99 129
99 155
99 168
99 177
99 179
99 180
99 181
99 182
99 183
99 185
99 191
99 208
99 221
99 240
99 256
99 258
99 259
99 260
99 261
99 262
99 292
99 308
99 330
99 331
99 333
99 334
99 335
99 336
99 337
99 339
99 340
99 341
99 342
99 343
99 344
99 345
99 346
99 347
99 348
99 349
99 350
99 351
99 352
99 363
99 368
99 373
99 391
99 393
99 395
99 397
99 398
99 399
99 400
99 401
99 404
99 430
99 452
99 459
99 461
99 472
99 482
99 494
100 101
100 102
100 103
100 104
100 105
100 106
100 111
100 115
100 129
100 155
100 168
100 177
100 178
100 180
100 181
100 182
100 183
100 185
100 191
100 208
100 221
100 240
100 256
100 257
100 259
100 260
100 261
100 262
100 292
100 308
100 330
100 332
100 333
100 334
100 335
100 336
100 337
100 338
100 340
100 341
100 342
100 343
100 344
100 345
100 346
100 347
100 348
100 349
100 350
100 351
100 352
100 363
100 368
100 373
100 391
100 393
100 395
100 396
100 398
100 399
100 400
100 401
100 404
100 430
100 452
100 459
100 461
100 472
100 482
100 494
101 102
101 103
101 104
101 105
101 106
101 111
101 115
101 129
101 155
101 168
101 177
101 178
101 179
101 181
101 182
101 183
101 185
101 191
101 208
101 221
101 240
101 256
101 257
101 258
101 260
101 261
101 262
101 292
101 308
101 330
101 331
101 332
101 334
101 335
101 336
101 337
101 338
101 339
101 340
101 341
101 342
101 344
101 345
101 346
101 347
101 348
101 349
101 350
101 351
101 352
101 363
101 368
101 373
101 391
101 393
101 395
101 396
101 397
101 398
101 400
101 401
101 404
101 430
101 452
101 459
101 461
101 472
101 482
101 494
102 103
102 104
102 105
102 106
102 107
102 108
102 109
102 110
102 112
102 115
102 116
102 117
102 118
102 119
102 120
102 121
102 122
102 123
102 124
102 125
102 126
102 127
102 128
102 130
102 131
102 155
102 168
102 177
102 178
102 180
102 181
102 182
102 183
102 184
102 185
102 186
102 187
102 188
102 189
102 190
102 191
102 192
102 193
102 194
102 195
102 196
102 197
102 198
102 199
102 200
102 201
102 202
102 203
102 204
102 205
102 206
102 207
102 209
102 210
102 211
102 212
102 213
102 214
102 215
102 216
102 217
102 218
102 219
102 221
102 240
102 256
102 257
102 258
102 260
102 261
102 262
102 292
102 308
102 330
102 331
102 333
102 334
102 335
102 336
102 338
102 339
102 343
102 349
102 350
102 351
102 352
102 363
102 364
102 365
102 366
102 367
102 369
102 373
102 391
102 392
102 394
102 395
102 396
102 397
102 399
102 400
102 401
102 404
102 430
102 440
102 441
102 442
102 443
102 444
102 445
102 446
102 447
102 448
102 449
102 450
102 451
102 453
102 454
102 455
102 456
102 457
102 458
102 459
102 460
102 461
102 462
102 463
102 464
102 465
102 466
102 467
102 468
102 469
102 470
102 471
102 473
102 474
102 482
102 492
102 493
103 104
103 105
103 106
103 111
103 115
103 129
103 155
103 168
103 177
103 178
103 179
103 180
103 182
103 183
103 185
103 191
103 208
103 221
103 240
103 256
103 257
103 258
103 259
103 261
103 262
103 292
103 308
103 330
103 331
103 332
103 333
103 335
103 336
103 337
103 338
103 339
103 340
103 341
103 342
103 343
103 344
103 345
103 346
103 347
103 348
103 350
103 351
103 352
103 363
103 368
103 373
103 391
103 393
103 395
103 396
103 397
103 398
103 399
103 401
103 404
103 430
103 452
103 459
103 461
103 472
103 482
103 494
104 105
104 106
104 111
104 115
104 129
104 155
104 168
104 177
104 178
104 179
104 180
104 181
104 183
104 185
104 191
104 208
104 221
104 240
104 256
104 257
104 258
104 259
104 260
104 262
104 292
104 308
104 330
104 331
104 332
104 333
104 334
104 336
104 337
104 338
104 339
104 340
104 341
104 342
104 343
104 344
104 345
104 346
104 347
104 348
104 349
104 351
104 352
104 363
104 368
104 373
104 391
104 393
104 395
104 396
104 397
104 399
104 400
104 401
104 404
104 430
104 452
104 459
104 461
104 472
104 482
104 494
105 106
105 111
105 115
105 129
105 155
105 168
105 177
105 178
105 179
105 180
105 181
105 182
105 185
105 191
105 208
105 221
105 240
105 256
105 257
105 258
105 259
105 260
105 261
105 292
105 308
105 330
105 331
105 332
105 333
105 334
105 335
105 337
105 338
105 339
105 340
105 341
105 342
105 343
105 344
105 345
105 346
105 347
105 348
105 349
105 350
105 352
105 363
105 368
105 373
105 391
105 393
105 395
105 396
105 397
105 398
105 399
105 400
105 404
105 430
105 452
105 459
105 461
105 472
105 482
105 494
106 107
106 108
106 109
106 110
106 111
106 112
106 122
106 129
106 146
106 152
106 153
106 154
106 156
106 157
106 158
106 159
106 160
106 161
106 162
106 163
106 164
106 165
106 166
106 167
106 169
106 170
106 171
106 172
106 173
106 174
106 175
106 176
106 184
106 185
106 186
106 187
106 188
106 189
106 190
106 192
106 193
106 194
106 195
106 196
106 197
106 198
106 199
106 200
106 201
106 202
106 203
106 204
106 205
106 206
106 207
106 208
106 209
106 210
106 211
106 212
106 213
106 214
106 215
106 216
106 217
106 218
106 219
106 222
106 223
106 238
106 241
106 242
106 243
106 248
106 254
106 265
106 287
106 289
106 290
106 291
106 293
106 294
106 295
106 296
106 297
106 298
106 299
106 301
106 302
106 303
106 304
106 305
106 306
106 307
106 309
106 310
106 311
106 312
106 313
106 314
106 315
106 316
106 317
106 318
106 319
106 320
106 321
106 322
106 323
106 328
106 342
106 353
106 354
106 355
106 356
106 357
106 358
106 359
106 360
106 361
106 362
106 364
106 365
106 366
106 367
106 368
106 369
106 370
106 371
106 372
106 374
106 375
106 376
106 377
106 378
106 379
106 380
106 386
106 392
106 393
106 394
106 402
106 403
106 405
106 406
106 407
106 408
106 409
106 410
106 411
106 412
106 417
106 425
106 427
106 428
106 429
106 431
106 432
106 433
106 434
106 435
106 436
106 437
106 438
106 439
106 443
106 444
106 445
106 448
106 452
106 459
106 460
106 462
106 463
106 464
106 465
106 466
106 467
106 468
106 469
106 470
106 471
106 472
106 473
106 474
106 479
106 481
106 483
106 484
106 485
106 486
106 487
106 488
106 489
106 490
106 491
106 493
106 494
107 108
107 109
107 110
107 111
107 112
107 122
107 129
107 146
107 155
107 158
107 168
107 191
107 196
107 208
107 221
107 223
107 238
107 240
107 243
107 248
107 254
107 265
107 287
107 292
107 301
107 308
107 313
107 328
107 342
107 352
107 353
107 355
107 358
107 363
107 364
107 366
107 368
107 373
107 386
107 391
107 392
107 393
107 404
107 417
107 425
107 430
107 440
107 441
107 442
107 444
107 445
107 446
107 447
107 448
107 449
107 450
107 451
107 452
107 453
107 454
107 455
107 456
107 457
107 458
107 461
107 466
107 472
107 479
107 482
107 493
107 494
108 109
108 110
108 111
108 112
108 122
108 129
108 146
108 155
108 158
108 168
108 191
108 196
108 208
108 221
108 223
108 238
108 240
108 243
108 248
108 254
108 265
108 287
108 292
108 301
108 308
108 313
108 328
108 342
108 352
108 354
108 355
108 356
108 357
108 358
108 359
108 360
108 361
108 362
108 363
108 365
108 366
108 367
108 368
108 369
108 373
108 386
108 391
108 392
108 393
108 404
108 417
108 425
108 430
108 440
108 441
108 442
108 443
108 445
108 446
108 447
108 448
108 449
108 450
108 451
108 452
108 453
108 454
108 455
108 456
108 457
108 458
108 461
108 466
108 472
108 479
108 482
108 493
108 494
109 110
109 111
109 112
109 122
109 129
109 146
109 155
109 158
109 168
109 184
109 185
109 186
109 187
109 188
109 189
109 190
109 191
109 192
109 193
109 194
109 195
109 197
109 198
109 199
109 200
109 201
109 202
109 203
109 204
109 205
109 206
109 207
109 208
109 209
109 210
109 211
109 212
109 213
109 214
109 215
109 216
109 217
109 218
109 219
109 221
109 224
109 238
109 240
109 248
109 254
109 265
109 287
109 292
109 301
109 308
109 313
109 328
109 342
109 352
109 353
109 354
109 356
109 357
109 358
109 359
109 360
109 361
109 362
109 363
109 364
109 366
109 368
109 373
109 386
109 391
109 393
109 394
109 404
109 417
109 425
109 430
109 440
109 441
109 442
109 443
109 444
109 446
109 447
109 448
109 449
109 450
109 451
109 452
109 453
109 454
109 455
109 456
109 457
109 458
109 461
109 466
109 472
109 479
109 482
109 493
109 494
110 111
110 112
110 115
110 116
110 117
110 118
110 119
110 120
110 121
110 123
110 124
110 125
110 126
110 127
110 128
110 129
110 130
110 131
110 143
110 144
110 145
110 147
110 148
110 149
110 150
110 151
110 152
110 153
110 154
110 155
110 156
110 157
110 159
110 160
110 161
110 162
110 163
110 164
110 168
110 191
110 196
110 208
110 221
110 223
110 234
110 235
110 236
110 237
110 239
110 240
110 243
110 244
110 245
110 246
110 247
110 249
110 250
110 251
110 252
110 253
110 255
110 264
110 266
110 288
110 292
110 300
110 302
110 303
110 304
110 305
110 306
110 307
110 308
110 309
110 310
110 311
110 312
110 314
110 315
110 316
110 317
110 318
110 319
110 320
110 321
110 322
110 323
110 324
110 325
110 326
110 327
110 329
110 337
110 338
110 339
110 340
110 341
110 343
110 344
110 345
110 346
110 347
110 348
110 349
110 350
110 351
110 352
110 353
110 354
110 355
110 356
110 357
110 359
110 360
110 361
110 362
110 363
110 364
110 365
110 367
110 368
110 369
110 373
110 381
110 382
110 383
110 384
110 385
110 387
110 388
110 389
110 390
110 391
110 392
110 393
110 404
110 413
110 414
110 415
110 416
110 418
110 419
110 420
110 421
110 422
110 423
110 424
110 426
110 430
110 440
110 441
110 442
110 443
110 444
110 445
110 446
110 447
110 449
110 450
110 451
110 452
110 453
110 454
110 455
110 456
110 457
110 458
110 459
110 460
110 461
110 462
110 463
110 464
110 465
110 467
110 468
110 469
110 470
110 471
110 472
110 473
110 474
110 482
110 492
110 494
111 112
111 115
111 116
111 117
111 118
111 119
111 120
111 121
111 122
111 123
111 124
111 125
111 126
111 127
111 128
111 130
111 131
111 146
111 155
111 158
111 168
111 184
111 185
111 186
111 187
111 188
111 189
111 190
111 191
111 192
111 193
111 194
111 195
111 196
111 197
111 198
111 199
111 200
111 201
111 202
111 203
111 204
111 205
111 206
111 207
111 209
111 210
111 211
111 212
111 213
111 214
111 215
111 216
111 217
111 218
111 219
111 221
111 223
111 238
111 240
111 243
111 248
111 254
111 265
111 287
111 292
111 301
111 308
111 313
111 328
111 342
111 352
111 353
111 355
111 358
111 363
111 364
111 365
111 366
111 367
111 369
111 373
111 386
111 391
111 392
111 394
111 404
111 417
111 425
111 430
111 440
111 441
111 442
111 443
111 444
111 445
111 446
111 447
111 448
111 449
111 450
111 451
111 453
111 454
111 455
111 456
111 457
111 458
111 459
111 460
111 461
111 462
111 463
111 464
111 465
111 466
111 467
111 468
111 469
111 470
111 471
111 473
111 474
111 479
111 482
111 492
111 493
112 122
112 129
112 146
112 155
112 158
112 168
112 191
112 196
112 208
112 221
112 223
112 238
112 240
112 243
112 248
112 254
112 265
112 287
112 292
112 301
112 308
112 313
112 328
112 342
112 352
112 353
112 355
112 358
112 363
112 364
112 366
112 368
112 373
112 386
112 391
112 392
112 393
112 404
112 417
112 425
112 430
112 443
112 444
112 445
112 448
112 452
112 461
112 466
112 472
112 479
112 482
112 493
112 494
113 114
113 115
113 116
113 117
113 118
113 119
113 120
113 121
113 122
113 123
113 125
113 126
113 127
113 128
113 129
113 130
113 131
113 184
113 185
113 186
113 187
113 188
113 189
113 190
113 191
113 192
113 193
113 194
113 195
113 196
113 197
113 198
113 199
113 200
113 201
113 203
113 204
113 205
113 206
113 207
113 208
113 209
113 210
113 211
113 212
113 213
113 214
113 215
113 216
113 217
113 218
113 219
113 222
113 278
113 279
113 337
113 338
113 339
113 340
113 341
113 342
113 343
113 345
113 346
113 347
113 348
113 349
113 350
113 351
113 352
113 353
113 354
113 355
113 356
113 357
113 358
113 360
113 361
113 362
113 369
113 394
113 413
113 414
113 415
113 416
113 417
113 419
113 420
113 421
113 422
113 457
113 459
113 460
113 461
113 462
113 463
113 464
113 465
113 466
113 468
113 469
113 470
113 471
113 472
113 473
113 474
113 481
113 482
113 483
113 484
113 485
113 486
113 487
113 489
113 490
113 491
114 124
114 184
114 185
114 186
114 187
114 188
114 189
114 190
114 191
114 192
114 193
114 194
114 195
114 196
114 197
114 198
114 199
114 200
114 201
114 202
114 203
114 204
114 205
114 206
114 207
114 208
114 209
114 210
114 211
114 212
114 213
114 214
114 215
114 216
114 217
114 219
114 221
114 277
114 344
114 352
114 353
114 354
114 355
114 356
114 357
114 358
114 359
114 360
114 361
114 363
114 364
114 365
114 366
114 367
114 368
114 391
114 392
114 393
114 418
114 440
114 441
114 442
114 443
114 444
114 445
114 446
114 447
114 448
114 449
114 450
114 451
114 452
114 453
114 454
114 455
114 456
114 458
114 467
114 488
115 116
115 117
115 118
115 119
115 120
115 121
115 122
115 123
115 124
115 125
115 126
115 127
115 128
115 129
115 130
115 131
115 132
115 135
115 139
115 142
115 145
115 146
115 148
115 149
115 150
115 151
115 154
115 158
115 163
115 167
115 175
115 178
115 179
115 180
115 181
115 182
115 183
115 184
115 186
115 187
115 188
115 189
115 190
115 191
115 192
115 193
115 194
115 195
115 196
115 197
115 198
115 199
115 200
115 201
115 202
115 203
115 204
115 205
115 206
115 207
115 208
115 209
115 210
115 211
115 212
115 213
115 214
115 215
115 216
115 217
115 218
115 219
115 227
115 232
115 234
115 238
115 242
115 244
115 248
115 250
115 254
115 257
115 258
115 259
115 260
115 261
115 262
115 265
115 268
115 275
115 277
115 279
115 280
115 281
115 283
115 284
115 285
115 286
115 287
115 288
115 291
115 298
115 301
115 303
115 306
115 313
115 318
115 319
115 320
115 324
115 328
115 331
115 332
115 333
115 334
115 335
115 336
115 337
115 342
115 344
115 345
115 347
115 356
115 358
115 359
115 360
115 361
115 366
115 368
115 372
115 380
115 386
115 393
115 396
115 397
115 398
115 399
115 400
115 401
115 403
115 411
115 413
115 414
115 417
115 418
115 420
115 421
115 422
115 425
115 429
115 438
115 441
115 448
115 451
115 452
115 455
115 460
115 461
115 462
115 463
115 464
115 465
115 466
115 467
115 468
115 469
115 470
115 471
115 472
115 473
115 474
115 476
115 478
115 479
115 480
115 481
115 486
115 488
115 489
115 490
115 491
115 493
115 494
116 117
116 118
116 119
116 120
116 121
116 122
116 123
116 124
116 125
116 126
116 127
116 128
116 129
116 130
116 131
116 132
116 135
116 139
116 142
116 145
116 146
116 148
116 149
116 150
116 151
116 154
116 158
116 163
116 167
116 175
116 177
116 184
116 185
116 187
116 188
116 189
116 190
116 191
116 192
116 193
116 194
116 195
116 196
116 197
116 198
116 199
116 200
116 201
116 202
116 203
116 204
116 205
116 206
116 207
116 208
116 209
116 210
116 211
116 212
116 213
116 214
116 215
116 216
116 217
116 218
116 219
116 227
116 232
116 235
116 236
116 237
116 238
116 239
116 242
116 245
116 246
116 247
116 248
116 249
116 251
116 252
116 253
116 254
116 255
116 256
116 265
116 268
116 275
116 277
116 279
116 280
116 281
116 283
116 284
116 285
116 286
116 287
116 288
116 291
116 298
116 301
116 303
116 306
116 313
116 318
116 319
116 320
116 325
116 326
116 327
116 328
116 329
116 330
116 338
116 339
116 340
116 341
116 342
116 343
116 344
116 345
116 346
116 347
116 348
116 349
116 350
116 351
116 356
116 358
116 359
116 360
116 361
116 366
116 368
116 372
116 380
116 386
116 393
116 395
116 403
116 411
116 413
116 414
116 417
116 418
116 420
116 421
116 422
116 425
116 429
116 438
116 441
116 448
116 451
116 452
116 455
116 459
116 460
116 465
116 466
116 467
116 470
116 471
116 472
116 473
116 476
116 478
116 479
116 480
116 481
116 486
116 488
116 489
116 490
116 491
116 493
116 494
117 118
117 119
117 120
117 121
117 122
117 123
117 124
117 125
117 126
117 127
117 128
117 129
117 130
117 131
117 132
117 135
117 139
117 142
117 145
117 146
117 148
117 149
117 150
117 151
117 154
117 158
117 163
117 167
117 175
117 177
117 184
117 185
117 186
117 188
117 189
117 190
117 191
117 192
117 193
117 194
117 195
117 196
117 197
117 198
117 199
117 200
117 201
117 202
117 203
117 204
117 205
117 206
117 207
117 208
117 209
117 210
117 211
117 212
117 213
117 214
117 215
117 216
117 217
117 218
117 219
117 227
117 232
117 234
117 238
117 242
117 244
117 248
117 250
117 254
117 256
117 265
117 268
117 275
117 277
117 279
117 281
117 282
117 283
117 284
117 285
117 286
117 287
117 288
117 291
117 298
117 301
117 302
117 304
117 305
117 306
117 307
117 308
117 309
117 310
117 311
117 312
117 313
117 314
117 315
117 316
117 317
117 318
117 319
117 320
117 321
117 322
117 323
117 324
117 328
117 330
117 337
117 342
117 344
117 345
117 347
117 356
117 358
117 359
117 360
117 361
117 366
117 368
117 372
117 380
117 386
117 393
117 395
117 403
117 411
117 414
117 415
117 416
117 417
117 418
117 419
117 420
117 421
117 422
117 425
117 429
117 438
117 441
117 448
117 451
117 452
117 455
117 459
117 461
117 462
117 463
117 464
117 465
117 466
117 467
117 468
117 469
117 470
117 471
117 472
117 473
117 474
117 476
117 478
117 479
117 480
117 482
117 483
117 484
117 485
117 486
117 487
117 488
117 489
117 490
117 491
117 493
117 494
118 119
118 120
118 121
118 122
118 123
118 124
118 125
118 126
118 127
118 128
118 129
118 130
118 131
118 132
118 133
118 134
118 136
118 137
118 138
118 139
118 142
118 145
118 146
118 148
118 149
118 150
118 151
118 152
118 153
118 155
118 156
118 157
118 158
118 159
118 160
118 161
118 162
118 163
118 164
118 165
118 166
118 168
118 169
118 170
118 171
118 172
118 173
118 174
118 175
118 176
118 177
118 184
118 185
118 186
118 187
118 189
118 190
118 191
118 192
118 193
118 194
118 195
118 196
118 197
118 198
118 199
118 200
118 201
118 202
118 203
118 204
118 205
118 206
118 207
118 208
118 209
118 210
118 211
118 212
118 213
118 214
118 215
118 216
118 217
118 218
118 219
118 225
118 226
118 228
118 229
118 230
118 231
118 232
118 233
118 234
118 238
118 242
118 244
118 248
118 250
118 254
118 256
118 265
118 267
118 269
118 270
118 271
118 272
118 273
118 274
118 275
118 276
118 277
118 279
118 280
118 281
118 283
118 284
118 285
118 286
118 287
118 288
118 289
118 290
118 292
118 293
118 294
118 295
118 296
118 297
118 298
118 299
118 301
118 302
118 303
118 304
118 305
118 307
118 308
118 309
118 310
118 311
118 312
118 313
118 314
118 315
118 316
118 317
118 318
118 319
118 320
118 321
118 322
118 323
118 324
118 328
118 330
118 337
118 342
118 344
118 345
118 347
118 356
118 358
118 359
118 360
118 361
118 366
118 368
118 370
118 371
118 373
118 374
118 375
118 376
118 377
118 378
118 379
118 380
118 386
118 393
118 395
118 402
118 404
118 405
118 406
118 407
118 408
118 409
118 410
118 411
118 412
118 413
118 415
118 416
118 417
118 418
118 419
118 420
118 421
118 422
118 425
118 427
118 428
118 430
118 431
118 432
118 433
118 434
118 435
118 436
118 437
118 438
118 439
118 440
118 442
118 443
118 444
118 445
118 446
118 447
118 448
118 449
118 450
118 451
118 452
118 453
118 454
118 455
118 456
118 457
118 458
118 459
118 460
118 465
118 466
118 467
118 470
118 471
118 472
118 473
118 476
118 478
118 479
118 480
118 481
118 486
118 488
118 489
118 490
118 491
118 493
118 494
119 120
119 121
119 122
119 123
119 124
119 125
119 126
119 127
119 128
119 129
119 130
119 131
119 132
119 135
119 139
119 142
119 145
119 146
119 148
119 149
119 150
119 151
119 154
119 158
119 163
119 167
119 175
119 177
119 184
119 185
119 186
119 187
119 188
119 189
119 190
119 191
119 192
119 193
119 194
119 195
119 196
119 198
119 199
119 200
119 201
119 202
119 203
119 204
119 205
119 206
119 207
119 208
119 209
119 210
119 211
119 212
119 213
119 214
119 215
119 216
119 217
119 218
119 219
119 227
119 232
119 234
119 238
119 242
119 244
119 248
119 250
119 254
119 256
119 265
119 268
119 275
119 277
119 279
119 280
119 281
119 283
119 284
119 285
119 286
119 287
119 288
119 291
119 298
119 301
119 303
119 306
119 313
119 318
119 319
119 320
119 324
119 328
119 330
119 337
119 342
119 344
119 345
119 347
119 352
119 353
119 354
119 355
119 357
119 358
119 359
119 360
119 361
119 362
119 366
119 368
119 372
119 380
119 386
119 393
119 395
119 403
119 411
119 413
119 414
119 417
119 418
119 420
119 421
119 422
119 425
119 429
119 438
119 441
119 448
119 451
119 452
119 455
119 459
119 460
119 465
119 466
119 467
119 470
119 471
119 472
119 473
119 476
119 478
119 479
119 480
119 481
119 486
119 488
119 489
119 490
119 491
119 493
119 494
120 121
120 122
120 123
120 124
120 125
120 126
120 127
120 128
120 129
120 130
120 131
120 132
120 135
120 139
120 142
120 145
120 146
120 148
120 149
120 150
120 151
120 154
120 158
120 163
120 167
120 175
120 177
120 184
120 185
120 186
120 187
120 188
120 189
120 190
120 191
120 192
120 193
120 194
120 195
120 196
120 197
120 199
120 200
120 201
120 202
120 203
120 204
120 205
120 206
120 207
120 208
120 209
120 210
120 211
120 212
120 213
120 214
120 215
120 216
120 217
120 218
120 219
120 227
120 232
120 234
120 238
120 242
120 244
120 248
120 250
120 254
120 256
120 265
120 268
120 275
120 277
120 279
120 280
120 281
120 283
120 284
120 285
120 286
120 287
120 288
120 291
120 298
120 301
120 303
120 306
120 313
120 318
120 319
120 320
120 324
120 328
120 330
120 337
120 342
120 344
120 345
120 347
120 356
120 358
120 359
120 360
120 361
120 366
120 368
120 372
120 380
120 386
120 393
120 395
120 403
120 411
120 413
120 414
120 417
120 418
120 420
120 421
120 422
120 425
120 429
120 438
120 441
120 448
120 451
120 452
120 455
120 459
120 460
120 465
120 466
120 467
120 470
120 471
120 472
120 473
120 476
120 478
120 479
120 480
120 481
120 486
120 488
120 489
120 490
120 491
120 493
120 494
121 122
121 123
121 124
121 125
121 126
121 127
121 128
121 129
121 130
121 131
121 132
121 135
121 139
121 142
121 143
121 144
121 146
121 147
121 148
121 149
121 150
121 151
121 154
121 158
121 163
121 167
121 175
121 177
121 184
121 185
121 186
121 187
121 188
121 189
121 190
121 191
121 192
121 193
121 194
121 195
121 196
121 197
121 198
121 200
121 201
121 202
121 203
121 204
121 205
121 206
121 207
121 208
121 209
121 210
121 211
121 212
121 213
121 214
121 215
121 216
121 217
121 218
121 219
121 227
121 232
121 234
121 238
121 242
121 244
121 248
121 250
121 254
121 256
121 265
121 268
121 275
121 277
121 279
121 280
121 282
121 283
121 284
121 285
121 286
121 287
121 288
121 291
121 298
121 301
121 303
121 306
121 313
121 318
121 319
121 320
121 324
121 328
121 330
121 337
121 342
121 344
121 345
121 347
121 356
121 358
121 359
121 360
121 361
121 366
121 368
121 372
121 380
121 386
121 393
121 395
121 403
121 411
121 413
121 414
121 417
121 418
121 420
121 421
121 422
121 425
121 429
121 438
121 441
121 448
121 451
121 452
121 455
121 459
121 460
121 461
121 462
121 463
121 464
121 466
121 467
121 468
121 469
121 470
121 471
121 472
121 473
121 474
121 476
121 478
121 479
121 480
121 481
121 482
121 483
121 484
121 485
121 487
121 488
121 489
121 490
121 491
121 493
121 494
122 123
122 124
122 125
122 126
122 127
122 128
122 129
122 130
122 131
122 132
122 135
122 139
122 142
122 143
122 144
122 145
122 147
122 148
122 149
122 150
122 151
122 152
122 153
122 154
122 155
122 156
122 157
122 159
122 160
122 161
122 162
122 163
122 164
122 167
122 175
122 177
122 185
122 186
122 187
122 188
122 197
122 198
122 199
122 201
122 202
122 203
122 205
122 206
122 207
122 208
122 212
122 216
122 227
122 232
122 234
122 235
122 236
122 237
122 239
122 242
122 244
122 245
122 246
122 247
122 249
122 250
122 251
122 252
122 253
122 255
122 256
122 264
122 266
122 268
122 275
122 277
122 279
122 280
122 281
122 283
122 284
122 285
122 286
122 288
122 291
122 298
122 300
122 302
122 303
122 304
122 305
122 306
122 307
122 308
122 309
122 310
122 311
122 312
122 314
122 315
122 316
122 317
122 318
122 319
122 320
122 321
122 322
122 323
122 324
122 325
122 326
122 327
122 329
122 330
122 337
122 338
122 339
122 340
122 341
122 343
122 344
122 345
122 346
122 347
122 348
122 349
122 350
122 351
122 352
122 353
122 354
122 355
122 356
122 357
122 359
122 360
122 361
122 362
122 363
122 364
122 365
122 367
122 368
122 369
122 372
122 380
122 381
122 382
122 383
122 384
122 385
122 387
122 388
122 389
122 390
122 393
122 395
122 403
122 411
122 413
122 414
122 415
122 416
122 418
122 419
122 420
122 421
122 422
122 423
122 424
122 426
122 429
122 438
122 440
122 441
122 442
122 443
122 444
122 445
122 446
122 447
122 449
122 450
122 451
122 452
122 453
122 454
122 455
122 456
122 457
122 458
122 459
122 460
122 461
122 462
122 463
122 464
122 465
122 467
122 468
122 469
122 470
122 471
122 472
122 473
122 474
122 476
122 478
122 480
122 481
122 486
122 488
122 489
122 490
122 491
122 492
122 494
123 124
123 125
123 126
123 127
123 128
123 129
123 130
123 131
123 132
123 135
123 139
123 142
123 145
123 146
123 148
123 149
123 150
123 151
123 154
123 158
123 163
123 167
123 175
123 177
123 184
123 185
123 186
123 187
123 188
123 189
123 190
123 191
123 192
123 193
123 194
123 195
123 196
123 197
123 198
123 199
123 200
123 202
123 203
123 204
123 205
123 206
123 207
123 208
123 209
123 210
123 211
123 212
123 213
123 214
123 215
123 216
123 217
123 218
123 219
123 227
123 232
123 234
123 238
123 242
123 244
123 248
123 250
123 254
123 256
123 265
123 268
123 275
123 277
123 279
123 280
123 281
123 283
123 284
123 285
123 286
123 287
123 291
123 298
123 301
123 303
123 306
123 313
123 318
123 319
123 320
123 324
123 328
123 330
123 337
123 342
123 344
123 345
123 347
123 356
123 358
123 359
123 360
123 361
123 366
123 368
123 372
123 380
123 386
123 393
123 395
123 403
123 411
123 413
123 414
123 417
123 418
123 420
123 421
123 422
123 425
123 429
123 438
123 441
123 448
123 451
123 452
123 455
123 459
123 460
123 465
123 466
123 467
123 470
123 471
123 472
123 473
123 476
123 478
123 479
123 481
123 486
123 488
123 489
123 490
123 491
123 493
123 494
124 125
124 126
124 127
124 128
124 129
124 130
124 131
124 132
124 135
124 139
124 142
124 145
124 146
124 148
124 149
124 150
124 151
124 154
124 158
124 163
124 167
124 175
124 177
124 184
124 185
124 186
124 187
124 188
124 189
124 190
124 191
124 192
124 193
124 194
124 195
124 196
124 197
124 198
124 199
124 200
124 201
124 203
124 204
124 205
124 206
124 207
124 208
124 209
124 210
124 211
124 212
124 213
124 214
124 215
124 216
124 217
124 218
124 219
124 227
124 232
124 234
124 238
124 242
124 244
124 248
124 250
124 254
124 256
124 265
124 268
124 275
124 278
124 279
124 280
124 281
124 283
124 284
124 285
124 286
124 287
124 288
124 291
124 298
124 301
124 303
124 306
124 313
124 318
124 319
124 320
124 324
124 328
124 330
124 337
124 338
124 339
124 340
124 341
124 342
124 343
124 345
124 346
124 347
124 348
124 349
124 350
124 351
124 352
124 353
124 354
124 355
124 356
124 357
124 358
124 360
124 361
124 362
124 366
124 368
124 372
124 380
124 386
124 393
124 395
124 403
124 411
124 413
124 414
124 415
124 416
124 417
124 419
124 420
124 421
124 422
124 425
124 429
124 438
124 441
124 448
124 451
124 452
124 455
124 459
124 460
124 461
124 462
124 463
124 464
124 465
124 466
124 468
124 469
124 470
124 471
124 472
124 473
124 474
124 476
124 478
124 479
124 480
124 481
124 482
124 483
124 484
124 485
124 486
124 487
124 489
124 490
124 491
124 493
124 494
125 126
125 127
125 128
125 129
125 130
125 131
125 132
125 135
125 139
125 142
125 145
125 146
125 148
125 149
125 150
125 151
125 154
125 158
125 163
125 167
125 175
125 177
125 184
125 185
125 186
125 187
125 188
125 189
125 190
125 191
125 192
125 193
125 194
125 195
125 196
125 197
125 198
125 199
125 200
125 201
125 202
125 204
125 205
125 206
125 207
125 208
125 209
125 210
125 211
125 212
125 213
125 214
125 215
125 216
125 217
125 218
125 219
125 227
125 232
125 234
125 238
125 242
125 244
125 248
125 250
125 254
125 256
125 265
125 268
125 275
125 277
125 279
125 280
125 281
125 283
125 284
125 285
125 286
125 287
125 288
125 291
125 298
125 301
125 303
125 306
125 313
125 318
125 319
125 320
125 324
125 328
125 330
125 337
125 338
125 339
125 340
125 341
125 342
125 343
125 344
125 346
125 347
125 348
125 349
125 350
125 351
125 356
125 358
125 359
125 360
125 361
125 366
125 368
125 372
125 380
125 386
125 393
125 395
125 403
125 411
125 413
125 414
125 417
125 418
125 420
125 421
125 422
125 425
125 429
125 438
125 441
125 448
125 451
125 452
125 455
125 459
125 460
125 465
125 466
125 467
125 470
125 471
125 472
125 473
125 476
125 478
125 479
125 480
125 481
125 486
125 488
125 489
125 490
125 491
125 493
125 494
126 127
126 128
126 129
126 130
126 131
126 132
126 135
126 139
126 142
126 143
126 144
126 145
126 146
126 147
126 149
126 150
126 151
126 154
126 158
126 163
126 167
126 175
126 177
126 184
126 185
126 186
126 187
126 188
126 189
126 190
126 191
126 192
126 193
126 194
126 195
126 196
126 197
126 198
126 199
126 200
126 201
126 202
126 203
126 204
126 206
126 207
126 208
126 209
126 210
126 211
126 212
126 213
126 214
126 215
126 216
126 217
126 218
126 219
126 227
126 232
126 234
126 238
126 242
126 244
126 248
126 250
126 254
126 256
126 265
126 268
126 275
126 277
126 279
126 280
126 281
126 282
126 284
126 285
126 286
126 287
126 288
126 291
126 298
126 301
126 302
126 303
126 304
126 305
126 306
126 307
126 308
126 309
126 310
126 311
126 312
126 313
126 314
126 315
126 316
126 317
126 319
126 320
126 321
126 322
126 323
126 324
126 328
126 330
126 337
126 342
126 344
126 345
126 347
126 356
126 358
126 359
126 360
126 361
126 366
126 368
126 372
126 380
126 386
126 393
126 395
126 403
126 411
126 413
126 414
126 415
126 416
126 417
126 418
126 419
126 421
126 422
126 425
126 429
126 438
126 441
126 448
126 451
126 452
126 455
126 459
126 460
126 461
126 462
126 463
126 464
126 465
126 466
126 467
126 468
126 469
126 471
126 472
126 473
126 474
126 476
126 478
126 479
126 480
126 481
126 482
126 483
126 484
126 485
126 486
126 487
126 488
126 490
126 491
126 493
126 494
127 128
127 129
127 130
127 131
127 135
127 139
127 142
127 143
127 144
127 145
127 146
127 147
127 148
127 150
127 151
127 154
127 158
127 163
127 167
127 175
127 177
127 184
127 185
127 186
127 187
127 188
127 189
127 190
127 191
127 192
127 193
127 194
127 195
127 196
127 197
127 198
127 199
127 200
127 201
127 202
127 203
127 204
127 205
127 207
127 208
127 209
127 210
127 211
127 212
127 213
127 214
127 215
127 216
127 217
127 218
127 219
127 227
127 232
127 234
127 238
127 240
127 241
127 244
127 248
127 250
127 254
127 256
127 265
127 268
127 275
127 277
127 278
127 280
127 281
127 282
127 283
127 285
127 286
127 287
127 288
127 291
127 298
127 301
127 302
127 303
127 304
127 305
127 306
127 307
127 308
127 309
127 310
127 311
127 312
127 313
127 314
127 315
127 316
127 317
127 318
127 320
127 321
127 322
127 323
127 324
127 328
127 330
127 337
127 338
127 339
127 340
127 341
127 342
127 343
127 344
127 345
127 346
127 348
127 349
127 350
127 351
127 352
127 353
127 354
127 355
127 356
127 357
127 358
127 359
127 361
127 362
127 366
127 368
127 372
127 380
127 386
127 393
127 395
127 403
127 411
127 413
127 414
127 415
127 416
127 417
127 418
127 419
127 420
127 422
127 425
127 429
127 438
127 440
127 441
127 442
127 443
127 444
127 445
127 446
127 447
127 448
127 449
127 450
127 452
127 453
127 454
127 455
127 456
127 457
127 458
127 459
127 460
127 465
127 466
127 467
127 470
127 471
127 472
127 473
127 476
127 478
127 479
127 480
127 481
127 482
127 483
127 484
127 485
127 486
127 487
127 488
127 489
127 491
127 493
127 494
128 129
128 130
128 131
128 132
128 135
128 139
128 142
128 143
128 144
128 145
128 146
128 147
128 148
128 149
128 151
128 154
128 158
128 163
128 167
128 175
128 177
128 184
128 185
128 186
128 187
128 188
128 189
128 190
128 191
128 192
128 193
128 194
128 195
128 196
128 197
128 198
128 199
128 200
128 201
128 202
128 203
128 204
128 205
128 206
128 208
128 209
128 210
128 211
128 212
128 213
128 214
128 215
128 216
128 217
128 218
128 219
128 227
128 232
128 234
128 238
128 242
128 244
128 248
128 250
128 254
128 256
128 265
128 268
128 275
128 277
128 279
128 280
128 281
128 282
128 283
128 284
128 286
128 287
128 288
128 291
128 298
128 301
128 302
128 303
128 304
128 305
128 306
128 307
128 308
128 309
128 310
128 311
128 312
128 313
128 314
128 315
128 316
128 317
128 318
128 319
128 321
128 322
128 323
128 324
128 328
128 330
128 337
128 342
128 344
128 345
128 347
128 356
128 358
128 359
128 360
128 361
128 366
128 368
128 372
128 380
128 386
128 393
128 395
128 403
128 411
128 413
128 414
128 415
128 416
128 417
128 418
128 419
128 420
128 421
128 425
128 429
128 438
128 441
128 448
128 451
128 452
128 455
128 459
128 460
128 461
128 462
128 463
128 464
128 465
128 466
128 467
128 468
128 469
128 470
128 472
128 473
128 474
128 476
128 478
128 479
128 480
128 481
128 482
128 483
128 484
128 485
128 486
128 487
128 488
128 489
128 490
128 493
128 494
129 130
129 131
129 132
129 135
129 139
129 142
129 145
129 146
129 148
129 149
129 150
129 151
129 154
129 158
129 163
129 167
129 175
129 177
129 184
129 185
129 186
129 187
129 188
129 189
129 190
129 191
129 192
129 193
129 194
129 195
129 196
129 197
129 198
129 199
129 200
129 201
129 202
129 203
129 204
129 205
129 206
129 207
129 209
129 210
129 211
129 212
129 213
129 214
129 215
129 216
129 217
129 218
129 219
129 227
129 232
129 234
129 238
129 242
129 244
129 248
129 250
129 254
129 256
129 265
129 268
129 275
129 277
129 279
129 280
129 281
129 283
129 284
129 285
129 286
129 287
129 288
129 291
129 298
129 301
129 303
129 306
129 313
129 318
129 319
129 320
129 324
129 328
129 330
129 337
129 342
129 344
129 345
129 347
129 356
129 358
129 359
129 360
129 361
129 363
129 364
129 365
129 366
129 367
129 369
129 372
129 380
129 386
129 391
129 392
129 394
129 395
129 403
129 411
129 413
129 414
129 417
129 418
129 420
129 421
129 422
129 425
129 429
129 438
129 440
129 441
129 442
129 443
129 444
129 445
129 446
129 447
129 448
129 449
129 450
129 451
129 453
129 454
129 455
129 456
129 457
129 458
129 459
129 460
129 461
129 462
129 463
129 464
129 465
129 466
129 467
129 468
129 469
129 470
129 471
129 473
129 474
129 476
129 478
129 479
129 480
129 481
129 486
129 488
129 489
129 490
129 491
129 492
129 493
130 131
130 132
130 135
130 139
130 142
130 145
130 146
130 148
130 149
130 150
130 151
130 154
130 158
130 163
130 167
130 175
130 177
130 184
130 185
130 186
130 187
130 188
130 189
130 190
130 191
130 192
130 193
130 194
130 195
130 196
130 197
130 198
130 199
130 200
130 201
130 202
130 203
130 204
130 205
130 206
130 207
130 208
130 209
130 210
130 211
130 213
130 214
130 215
130 216
130 217
130 218
130 219
130 227
130 232
130 234
130 238
130 242
130 244
130 248
130 250
130 254
130 256
130 265
130 268
130 275
130 277
130 279
130 280
130 281
130 283
130 284
130 285
130 286
130 287
130 288
130 291
130 298
130 301
130 303
130 306
130 313
130 318
130 319
130 320
130 324
130 328
130 330
130 337
130 342
130 344
130 345
130 347
130 352
130 353
130 354
130 355
130 356
130 357
130 358
130 359
130 360
130 362
130 366
130 368
130 372
130 380
130 386
130 393
130 395
130 403
130 411
130 413
130 414
130 417
130 418
130 420
130 421
130 422
130 425
130 429
130 438
130 441
130 448
130 451
130 452
130 455
130 459
130 460
130 465
130 466
130 467
130 470
130 471
130 472
130 473
130 476
130 478
130 479
130 480
130 481
130 486
130 488
130 489
130 490
130 491
130 493
130 494
131 132
131 133
131 134
131 135
131 136
131 137
131 138
131 141
131 143
131 144
131 145
131 146
131 147
131 148
131 149
131 150
131 152
131 153
131 154
131 155
131 156
131 157
131 158
131 159
131 160
131 161
131 162
131 164
131 165
131 166
131 167
131 168
131 169
131 170
131 171
131 172
131 173
131 174
131 176
131 177
131 184
131 185
131 186
131 187
131 188
131 189
131 190
131 191
131 192
131 193
131 194
131 195
131 196
131 197
131 198
131 199
131 200
131 201
131 202
131 203
131 204
131 205
131 206
131 207
131 208
131 209
131 210
131 211
131 212
131 213
131 214
131 215
131 217
131 218
131 219
131 225
131 226
131 227
131 228
131 229
131 230
131 231
131 233
131 234
131 238
131 242
131 244
131 248
131 250
131 254
131 256
131 265
131 267
131 268
131 269
131 270
131 271
131 272
131 273
131 274
131 276
131 277
131 279
131 280
131 281
131 282
131 283
131 284
131 285
131 287
131 288
131 289
131 290
131 291
131 292
131 293
131 294
131 295
131 296
131 297
131 299
131 301
131 303
131 306
131 313
131 318
131 319
131 320
131 324
131 328
131 330
131 337
131 342
131 344
131 345
131 347
131 356
131 358
131 359
131 360
131 361
131 366
131 368
131 370
131 371
131 372
131 373
131 374
131 375
131 376
131 377
131 378
131 379
131 386
131 393
131 395
131 402
131 403
131 404
131 405
131 406
131 407
131 408
131 409
131 410
131 412
131 413
131 414
131 417
131 418
131 420
131 421
131 422
131 425
131 427
131 428
131 429
131 430
131 431
131 432
131 433
131 434
131 435
131 436
131 437
131 439
131 440
131 441
131 442
131 443
131 444
131 445
131 446
131 447
131 448
131 449
131 450
131 451
131 452
131 453
131 454
131 456
131 457
131 458
131 459
131 460
131 461
131 462
131 463
131 464
131 465
131 466
131 467
131 468
131 469
131 470
131 471
131 472
131 474
131 475
131 477
131 479
131 480
131 481
131 486
131 488
131 489
131 490
131 491
131 493
131 494
132 143
132 144
132 145
132 146
132 147
132 148
132 150
132 151
132 184
132 185
132 186
132 187
132 188
132 189
132 190
132 191
132 192
132 193
132 194
132 195
132 196
132 197
132 198
132 199
132 200
132 201
132 202
132 203
132 204
132 205
132 207
132 208
132 209
132 210
132 211
132 212
132 213
132 214
132 215
132 216
132 217
132 218
132 219
132 240
132 241
132 277
132 278
132 280
132 281
132 282
132 283
132 285
132 286
132 302
132 303
132 304
132 305
132 306
132 307
132 308
132 309
132 310
132 311
132 312
132 313
132 314
132 315
132 316
132 317
132 318
132 320
132 321
132 322
132 323
132 337
132 338
132 339
132 340
132 341
132 342
132 343
132 344
132 345
132 346
132 348
132 349
132 350
132 351
132 352
132 353
132 354
132 355
132 356
132 357
132 358
132 359
132 361
132 362
132 413
132 414
132 415
132 416
132 417
132 418
132 419
132 420
132 422
132 440
132 441
132 442
132 443
132 444
132 445
132 446
132 447
132 448
132 449
132 450
132 452
132 453
132 454
132 455
132 456
132 457
132 458
132 481
132 482
132 483
132 484
132 485
132 486
132 487
132 488
132 489
132 491
133 134
133 135
133 136
133 137
133 138
133 139
133 142
133 151
133 153
133 154
133 155
133 156
133 157
133 158
133 159
133 160
133 161
133 162
133 163
133 164
133 166
133 167
133 168
133 169
133 170
133 171
133 172
133 173
133 174
133 175
133 176
133 188
133 213
133 216
133 226
133 227
133 228
133 229
133 230
133 231
133 232
133 233
133 267
133 268
133 269
133 270
133 273
133 275
133 286
133 290
133 291
133 292
133 293
133 294
133 295
133 296
133 297
133 298
133 299
133 303
133 304
133 305
133 306
133 307
133 308
133 309
133 310
133 311
133 312
133 313
133 314
133 315
133 316
133 317
133 318
133 319
133 320
133 321
133 322
133 323
133 371
133 372
133 373
133 374
133 375
133 376
133 377
133 378
133 379
133 380
133 402
133 403
133 405
133 406
133 409
133 411
133 414
133 428
133 429
133 430
133 431
133 432
133 433
133 434
133 435
133 436
133 437
133 438
133 439
133 440
133 441
133 442
133 447
133 453
133 455
133 473
133 476
133 478
133 485
134 135
134 136
134 137
134 138
134 139
134 142
134 151
134 152
134 154
134 155
134 156
134 157
134 158
134 159
134 160
134 161
134 162
134 163
134 164
134 165
134 167
134 168
134 169
134 170
134 171
134 172
134 173
134 174
134 175
134 176
134 188
134 213
134 216
134 225
134 227
134 228
134 229
134 230
134 231
134 232
134 233
134 268
134 269
134 270
134 271
134 272
134 273
134 274
134 275
134 276
134 286
134 289
134 291
134 292
134 293
134 294
134 295
134 296
134 297
134 298
134 299
134 302
134 303
134 305
134 306
134 307
134 308
134 309
134 310
134 311
134 312
134 313
134 314
134 315
134 316
134 317
134 318
134 319
134 320
134 321
134 322
134 323
134 370
134 372
134 373
134 374
134 375
134 376
134 377
134 378
134 379
134 380
134 403
134 404
134 405
134 406
134 407
134 408
134 409
134 410
134 411
134 412
134 414
134 427
134 429
134 430
134 431
134 432
134 433
134 434
134 435
134 436
134 437
134 438
134 439
134 441
134 442
134 443
134 444
134 445
134 446
134 447
134 448
134 449
134 450
134 451
134 452
134 453
134 454
134 455
134 456
134 457
134 458
134 473
134 476
134 478
134 485
135 136
135 137
135 138
135 139
135 142
135 151
135 152
135 153
135 155
135 156
135 157
135 158
135 159
135 160
135 161
135 162
135 163
135 164
135 165
135 166
135 168
135 169
135 170
135 171
135 172
135 173
135 174
135 175
135 176
135 184
135 185
135 186
135 187
135 189
135 190
135 191
135 192
135 193
135 194
135 195
135 196
135 197
135 198
135 199
135 200
135 201
135 202
135 203
135 204
135 205
135 206
135 207
135 208
135 209
135 210
135 211
135 212
135 213
135 214
135 215
135 216
135 217
135 218
135 219
135 225
135 226
135 228
135 229
135 230
135 231
135 232
135 233
135 267
135 269
135 270
135 271
135 272
135 273
135 274
135 275
135 276
135 286
135 289
135 290
135 292
135 293
135 294
135 295
135 296
135 297
135 298
135 299
135 302
135 303
135 304
135 305
135 307
135 308
135 309
135 310
135 311
135 312
135 313
135 314
135 315
135 316
135 317
135 318
135 319
135 320
135 321
135 322
135 323
135 370
135 371
135 373
135 374
135 375
135 376
135 377
135 378
135 379
135 380
135 402
135 404
135 405
135 406
135 407
135 408
135 409
135 410
135 411
135 412
135 413
135 415
135 416
135 417
135 418
135 419
135 420
135 421
135 422
135 427
135 428
135 430
135 431
135 432
135 433
135 434
135 435
135 436
135 437
135 438
135 439
135 440
135 442
135 443
135 444
135 445
135 446
135 447
135 448
135 449
135 450
135 451
135 452
135 453
135 454
135 455
135 456
135 457
135 458
135 473
135 476
135 478
135 485
136 137
136 138
136 139
136 142
136 151
136 152
136 153
136 154
136 155
136 157
136 158
136 159
136 160
136 161
136 162
136 163
136 164
136 165
136 166
136 167
136 169
136 173
136 175
136 188
136 213
136 216
136 225
136 226
136 227
136 229
136 230
136 231
136 232
136 233
136 267
136 268
136 270
136 271
136 272
136 273
136 274
136 275
136 276
136 286
136 289
136 290
136 291
136 292
136 294
136 295
136 296
136 297
136 298
136 299
136 302
136 303
136 304
136 305
136 306
136 307
136 308
136 309
136 311
136 312
136 313
136 314
136 315
136 316
136 317
136 318
136 319
136 320
136 321
136 322
136 323
136 370
136 371
136 372
136 373
136 375
136 376
136 377
136 378
136 379
136 380
136 402
136 403
136 404
136 406
136 407
136 408
136 409
136 410
136 411
136 412
136 414
136 427
136 428
136 429
136 430
136 432
136 433
136 434
136 435
136 436
136 437
136 438
136 439
136 440
136 441
136 443
136 444
136 445
136 446
136 447
136 448
136 449
136 450
136 451
136 452
136 453
136 454
136 455
136 456
136 457
136 458
136 473
136 476
136 478
136 485
137 138
137 139
137 142
137 151
137 152
137 153
137 154
137 155
137 156
137 158
137 159
137 160
137 161
137 162
137 163
137 164
137 165
137 166
137 167
137 168
137 170
137 171
137 172
137 173
137 174
137 175
137 176
137 188
137 213
137 216
137 225
137 226
137 227
137 228
137 230
137 231
137 232
137 233
137 267
137 268
137 269
137 271
137 272
137 273
137 274
137 275
137 276
137 286
137 289
137 290
137 291
137 292
137 293
137 295
137 296
137 297
137 298
137 299
137 302
137 303
137 304
137 305
137 306
137 307
137 308
137 309
137 310
137 311
137 313
137 314
137 315
137 316
137 317
137 318
137 319
137 320
137 321
137 322
137 323
137 370
137 371
137 372
137 373
137 374
137 376
137 377
137 378
137 379
137 380
137 402
137 403
137 404
137 405
137 407
137 408
137 409
137 410
137 411
137 412
137 414
137 427
137 428
137 429
137 431
137 436
137 438
137 440
137 441
137 442
137 443
137 444
137 445
137 446
137 448
137 449
137 450
137 451
137 452
137 453
137 454
137 455
137 456
137 457
137 458
137 473
137 476
137 478
137 481
137 482
137 483
137 484
137 486
137 487
137 488
137 489
137 490
137 491
138 139
138 142
138 151
138 152
138 153
138 154
138 156
138 157
138 163
138 165
138 166
138 167
138 168
138 169
138 170
138 171
138 172
138 174
138 175
138 176
138 184
138 185
138 186
138 187
138 188
138 189
138 190
138 191
138 192
138 193
138 194
138 195
138 196
138 197
138 198
138 199
138 200
138 201
138 202
138 203
138 204
138 205
138 206
138 207
138 208
138 209
138 210
138 211
138 212
138 214
138 215
138 216
138 217
138 218
138 219
138 225
138 226
138 227
138 228
138 229
138 231
138 232
138 233
138 267
138 268
138 269
138 270
138 271
138 272
138 274
138 275
138 276
138 286
138 289
138 290
138 291
138 292
138 293
138 294
138 295
138 296
138 298
138 299
138 302
138 303
138 304
138 305
138 306
138 307
138 308
138 309
138 310
138 311
138 312
138 313
138 314
138 315
138 316
138 317
138 318
138 319
138 320
138 322
138 323
138 370
138 371
138 372
138 373
138 374
138 375
138 376
138 377
138 379
138 380
138 402
138 403
138 404
138 405
138 406
138 407
138 408
138 410
138 411
138 412
138 414
138 427
138 428
138 429
138 430
138 431
138 432
138 433
138 434
138 435
138 437
138 438
138 439
138 440
138 441
138 442
138 443
138 444
138 445
138 446
138 447
138 448
138 449
138 450
138 451
138 452
138 454
138 455
138 456
138 457
138 458
138 473
138 476
138 478
138 485
139 141
139 143
139 144
139 145
139 146
139 147
139 148
139 149
139 150
139 152
139 153
139 154
139 155
139 156
139 157
139 158
139 159
139 160
139 161
139 162
139 164
139 165
139 166
139 167
139 168
139 169
139 170
139 171
139 172
139 173
139 174
139 176
139 184
139 185
139 186
139 187
139 188
139 189
139 190
139 191
139 192
139 193
139 194
139 195
139 196
139 197
139 198
139 199
139 200
139 201
139 202
139 203
139 204
139 205
139 206
139 207
139 208
139 209
139 210
139 211
139 212
139 213
139 214
139 215
139 217
139 218
139 219
139 225
139 226
139 227
139 228
139 229
139 230
139 231
139 233
139 267
139 268
139 269
139 270
139 271
139 272
139 273
139 274
139 276
139 280
139 281
139 282
139 283
139 284
139 285
139 289
139 290
139 291
139 292
139 293
139 294
139 295
139 296
139 297
139 299
139 302
139 304
139 306
139 310
139 312
139 321
139 370
139 371
139 372
139 373
139 374
139 375
139 376
139 377
139 378
139 379
139 402
139 403
139 404
139 405
139 406
139 407
139 408
139 409
139 410
139 412
139 414
139 427
139 428
139 429
139 430
139 431
139 432
139 433
139 434
139 435
139 436
139 437
139 439
139 440
139 441
139 442
139 443
139 444
139 445
139 446
139 447
139 448
139 449
139 450
139 451
139 452
139 453
139 454
139 456
139 457
139 458
139 459
139 460
139 461
139 462
139 463
139 464
139 465
139 466
139 467
139 468
139 469
139 470
139 471
139 472
139 474
139 475
139 477
139 485
140 302
140 303
140 304
140 306
140 307
140 308
140 309
140 310
140 311
140 312
140 313
140 314
140 315
140 316
140 317
140 318
140 319
140 320
140 321
140 322
140 323
141 142
141 151
141 163
141 175
141 216
141 232
141 275
141 286
141 298
141 380
141 411
141 438
141 455
141 473
141 476
141 478
142 143
142 144
142 145
142 146
142 147
142 148
142 149
142 150
142 152
142 153
142 154
142 155
142 156
142 157
142 158
142 159
142 160
142 161
142 162
142 164
142 165
142 166
142 167
142 168
142 169
142 170
142 171
142 172
142 173
142 174
142 176
142 184
142 185
142 186
142 187
142 188
142 189
142 190
142 191
142 192
142 193
142 194
142 195
142 196
142 197
142 198
142 199
142 200
142 201
142 202
142 203
142 204
142 205
142 206
142 207
142 208
142 209
142 210
142 211
142 212
142 213
142 214
142 215
142 217
142 218
142 219
142 225
142 226
142 227
142 228
142 229
142 230
142 231
142 233
142 267
142 268
142 269
142 270
142 271
142 272
142 273
142 274
142 276
142 280
142 281
142 282
142 283
142 284
142 285
142 289
142 290
142 291
142 292
142 293
142 294
142 295
142 296
142 297
142 299
142 370
142 371
142 372
142 373
142 374
142 375
142 376
142 377
142 378
142 379
142 402
142 403
142 404
142 405
142 406
142 407
142 408
142 409
142 410
142 412
142 427
142 428
142 429
142 430
142 431
142 432
142 433
142 434
142 435
142 436
142 437
142 439
142 440
142 441
142 442
142 443
142 444
142 445
142 446
142 447
142 448
142 449
142 450
142 451
142 452
142 453
142 454
142 456
142 457
142 458
142 459
142 460
142 461
142 462
142 463
142 464
142 465
142 466
142 467
142 468
142 469
142 470
142 471
142 472
142 474
142 475
142 477
143 144
143 145
143 146
143 147
143 148
143 149
143 150
143 151
143 158
143 163
143 175
143 195
143 199
143 205
143 206
143 207
143 216
143 232
143 238
143 242
143 248
143 254
143 265
143 275
143 278
143 279
143 281
143 282
143 283
143 284
143 285
143 286
143 287
143 298
143 300
143 301
143 302
143 303
143 304
143 305
143 306
143 307
143 308
143 310
143 311
143 312
143 313
143 314
143 315
143 316
143 317
143 318
143 319
143 320
143 321
143 322
143 323
143 328
143 340
143 342
143 347
143 354
143 358
143 360
143 366
143 380
143 386
143 407
143 411
143 413
143 414
143 416
143 417
143 418
143 419
143 420
143 421
143 422
143 424
143 425
143 434
143 438
143 448
143 450
143 451
143 455
143 459
143 460
143 461
143 463
143 464
143 465
143 466
143 467
143 468
143 469
143 470
143 471
143 472
143 473
143 474
143 476
143 478
143 479
143 481
143 482
143 484
143 485
143 486
143 487
143 488
143 489
143 490
143 491
143 492
143 493
144 145
144 146
144 147
144 148
144 149
144 150
144 151
144 158
144 163
144 175
144 184
144 185
144 186
144 187
144 188
144 189
144 190
144 191
144 192
144 193
144 194
144 196
144 197
144 198
144 199
144 200
144 201
144 202
144 203
144 204
144 205
144 206
144 207
144 208
144 209
144 210
144 211
144 212
144 213
144 214
144 215
144 216
144 217
144 218
144 219
144 232
144 238
144 242
144 248
144 254
144 265
144 275
144 278
144 279
144 281
144 282
144 283
144 284
144 285
144 286
144 287
144 298
144 301
144 302
144 303
144 304
144 305
144 306
144 307
144 308
144 309
144 310
144 312
144 313
144 314
144 315
144 316
144 317
144 318
144 319
144 320
144 321
144 322
144 323
144 328
144 337
144 338
144 339
144 341
144 342
144 343
144 344
144 345
144 346
144 347
144 348
144 349
144 350
144 351
144 352
144 353
144 355
144 356
144 357
144 358
144 359
144 360
144 361
144 362
144 366
144 380
144 386
144 407
144 411
144 413
144 414
144 415
144 417
144 418
144 419
144 420
144 421
144 422
144 423
144 425
144 426
144 434
144 438
144 448
144 450
144 451
144 455
144 459
144 460
144 461
144 462
144 463
144 465
144 466
144 467
144 468
144 469
144 470
144 471
144 472
144 473
144 474
144 476
144 478
144 479
144 483
144 486
144 489
144 490
144 491
144 493
144 494
145 146
145 147
145 148
145 149
145 150
145 151
145 158
145 163
145 175
145 184
145 185
145 186
145 187
145 188
145 189
145 190
145 191
145 192
145 193
145 194
145 195
145 196
145 197
145 198
145 200
145 201
145 202
145 203
145 204
145 205
145 206
145 207
145 208
145 209
145 210
145 211
145 212
145 213
145 214
145 215
145 216
145 217
145 218
145 219
145 232
145 238
145 242
145 248
145 254
145 265
145 275
145 278
145 279
145 280
145 282
145 283
145 284
145 285
145 286
145 287
145 298
145 300
145 301
145 309
145 311
145 313
145 318
145 319
145 320
145 328
145 340
145 342
145 347
145 354
145 358
145 360
145 366
145 380
145 386
145 407
145 411
145 415
145 416
145 417
145 419
145 420
145 421
145 422
145 424
145 425
145 434
145 438
145 448
145 450
145 451
145 455
145 459
145 460
145 461
145 462
145 463
145 464
145 466
145 467
145 468
145 469
145 470
145 471
145 472
145 473
145 474
145 476
145 478
145 479
145 481
145 482
145 483
145 484
145 485
145 487
145 488
145 489
145 490
145 491
145 492
145 493
146 147
146 148
146 149
146 150
146 151
146 152
146 153
146 154
146 155
146 156
146 157
146 159
146 160
146 161
146 162
146 163
146 164
146 175
146 195
146 199
146 205
146 206
146 207
146 216
146 232
146 234
146 235
146 236
146 237
146 239
146 242
146 244
146 245
146 246
146 247
146 249
146 250
146 251
146 252
146 253
146 255
146 264
146 266
146 275
146 278
146 279
146 281
146 282
146 283
146 284
146 285
146 286
146 288
146 298
146 300
146 302
146 303
146 304
146 305
146 306
146 307
146 308
146 309
146 310
146 311
146 312
146 314
146 315
146 316
146 317
146 318
146 319
146 320
146 321
146 322
146 323
146 324
146 325
146 326
146 327
146 329
146 337
146 338
146 339
146 340
146 341
146 343
146 344
146 345
146 346
146 347
146 348
146 349
146 350
146 351
146 352
146 353
146 354
146 355
146 356
146 357
146 359
146 360
146 361
146 362
146 363
146 364
146 365
146 367
146 368
146 369
146 380
146 381
146 382
146 383
146 384
146 385
146 387
146 388
146 389
146 390
146 407
146 411
146 413
146 414
146 415
146 416
146 418
146 419
146 420
146 421
146 422
146 423
146 424
146 426
146 434
146 438
146 440
146 441
146 442
146 443
146 444
146 445
146 446
146 447
146 449
146 450
146 451
146 452
146 453
146 454
146 455
146 456
146 457
146 458
146 459
146 460
146 461
146 462
146 463
146 464
146 465
146 467
146 468
146 469
146 470
146 471
146 472
146 473
146 474
146 476
146 478
146 483
146 486
146 489
146 490
146 491
146 492
146 494
147 148
147 149
147 150
147 151
147 158
147 163
147 175
147 195
147 199
147 205
147 206
147 207
147 216
147 232
147 238
147 242
147 248
147 254
147 265
147 275
147 277
147 279
147 280
147 281
147 283
147 284
147 285
147 286
147 287
147 298
147 300
147 301
147 309
147 311
147 313
147 318
147 319
147 320
147 328
147 340
147 342
147 347
147 354
147 358
147 360
147 366
147 380
147 386
147 402
147 403
147 404
147 405
147 406
147 408
147 409
147 410
147 411
147 412
147 413
147 414
147 415
147 416
147 417
147 418
147 420
147 421
147 422
147 424
147 425
147 427
147 428
147 429
147 430
147 431
147 432
147 433
147 435
147 436
147 437
147 438
147 439
147 440
147 441
147 442
147 443
147 444
147 445
147 446
147 447
147 448
147 449
147 451
147 452
147 453
147 454
147 455
147 456
147 457
147 458
147 459
147 460
147 461
147 462
147 463
147 464
147 465
147 466
147 467
147 469
147 470
147 471
147 472
147 473
147 474
147 476
147 478
147 479
147 483
147 486
147 489
147 490
147 491
147 492
147 493
148 149
148 150
148 151
148 158
148 163
148 175
148 184
148 185
148 186
148 187
148 188
148 189
148 190
148 191
148 192
148 193
148 194
148 195
148 196
148 197
148 198
148 199
148 200
148 201
148 202
148 203
148 204
148 206
148 207
148 208
148 209
148 210
148 211
148 212
148 213
148 214
148 215
148 216
148 217
148 218
148 219
148 232
148 238
148 242
148 248
148 254
148 265
148 275
148 278
148 279
148 280
148 281
148 282
148 284
148 285
148 286
148 287
148 298
148 300
148 301
148 302
148 303
148 304
148 305
148 306
148 307
148 308
148 309
148 310
148 311
148 312
148 313
148 314
148 315
148 316
148 317
148 319
148 320
148 321
148 322
148 323
148 328
148 340
148 342
148 347
148 354
148 358
148 360
148 366
148 380
148 386
148 407
148 411
148 413
148 414
148 415
148 416
148 417
148 418
148 419
148 421
148 422
148 424
148 425
148 434
148 438
148 448
148 450
148 451
148 455
148 459
148 460
148 461
148 462
148 463
148 464
148 465
148 466
148 467
148 468
148 469
148 471
148 472
148 473
148 474
148 476
148 478
148 479
148 481
148 482
148 483
148 484
148 485
148 486
148 487
148 488
148 490
148 491
148 492
148 493
149 150
149 151
149 158
149 163
149 175
149 184
149 185
149 186
149 187
149 188
149 189
149 190
149 191
149 192
149 193
149 194
149 195
149 196
149 197
149 198
149 199
149 200
149 201
149 202
149 203
149 204
149 205
149 207
149 208
149 209
149 210
149 211
149 212
149 213
149 214
149 215
149 216
149 217
149 218
149 219
149 232
149 238
149 240
149 241
149 248
149 254
149 265
149 275
149 277
149 278
149 280
149 281
149 282
149 283
149 285
149 286
149 287
149 298
149 300
149 301
149 302
149 303
149 304
149 305
149 306
149 307
149 308
149 309
149 310
149 311
149 312
149 313
149 314
149 315
149 316
149 317
149 318
149 320
149 321
149 322
149 323
149 328
149 337
149 338
149 339
149 340
149 341
149 342
149 343
149 344
149 345
149 346
149 348
149 349
149 350
149 351
149 352
149 353
149 354
149 355
149 356
149 357
149 358
149 359
149 361
149 362
149 366
149 380
149 386
149 407
149 411
149 413
149 414
149 415
149 416
149 417
149 418
149 419
149 420
149 422
149 424
149 425
149 434
149 438
149 440
149 441
149 442
149 443
149 444
149 445
149 446
149 447
149 448
149 449
149 450
149 452
149 453
149 454
149 455
149 456
149 457
149 458
149 462
149 464
149 465
149 466
149 468
149 470
149 471
149 473
149 476
149 478
149 479
149 481
149 482
149 483
149 484
149 485
149 486
149 487
149 488
149 489
149 491
149 492
149 493
150 151
150 158
150 163
150 175
150 184
150 185
150 186
150 187
150 188
150 189
150 190
150 191
150 192
150 193
150 194
150 195
150 196
150 197
150 198
150 199
150 200
150 201
150 202
150 203
150 204
150 205
150 206
150 208
150 209
150 210
150 211
150 212
150 213
150 214
150 215
150 216
150 217
150 218
150 219
150 232
150 238
150 242
150 248
150 254
150 265
150 275
150 278
150 279
150 280
150 281
150 282
150 283
150 284
150 286
150 287
150 298
150 300
150 301
150 302
150 303
150 304
150 305
150 306
150 307
150 308
150 309
150 310
150 311
150 312
150 313
150 314
150 315
150 316
150 317
150 318
150 319
150 321
150 322
150 323
150 328
150 340
150 342
150 347
150 354
150 358
150 360
150 366
150 380
150 386
150 407
150 411
150 413
150 414
150 415
150 416
150 417
150 418
150 419
150 420
150 421
150 424
150 425
150 434
150 438
150 448
150 450
150 451
150 455
150 459
150 460
150 461
150 462
150 463
150 464
150 465
150 466
150 467
150 468
150 469
150 470
150 472
150 473
150 474
150 476
150 478
150 479
150 481
150 482
150 483
150 484
150 485
150 486
150 487
150 488
150 489
150 490
150 492
150 493
151 152
151 153
151 154
151 155
151 156
151 157
151 158
151 159
151 160
151 161
151 162
151 164
151 165
151 166
151 167
151 168
151 169
151 170
151 171
151 172
151 173
151 174
151 176
151 184
151 185
151 186
151 187
151 188
151 189
151 190
151 191
151 192
151 193
151 194
151 195
151 196
151 197
151 198
151 199
151 200
151 201
151 202
151 203
151 204
151 205
151 206
151 207
151 208
151 209
151 210
151 211
151 212
151 213
151 214
151 215
151 217
151 218
151 219
151 225
151 226
151 227
151 228
151 229
151 230
151 231
151 233
151 238
151 242
151 248
151 254
151 265
151 267
151 268
151 269
151 270
151 271
151 272
151 273
151 274
151 276
151 278
151 279
151 280
151 281
151 282
151 283
151 284
151 285
151 287
151 289
151 290
151 291
151 292
151 293
151 294
151 295
151 296
151 297
151 299
151 300
151 301
151 309
151 311
151 313
151 318
151 319
151 320
151 328
151 340
151 342
151 347
151 354
151 358
151 360
151 366
151 370
151 371
151 372
151 373
151 374
151 375
151 376
151 377
151 378
151 379
151 386
151 402
151 403
151 404
151 405
151 406
151 407
151 408
151 409
151 410
151 412
151 415
151 416
151 417
151 419
151 420
151 421
151 422
151 424
151 425
151 427
151 428
151 429
151 430
151 431
151 432
151 433
151 434
151 435
151 436
151 437
151 439
151 440
151 441
151 442
151 443
151 444
151 445
151 446
151 447
151 448
151 449
151 450
151 451
151 452
151 453
151 454
151 456
151 457
151 458
151 459
151 460
151 461
151 462
151 463
151 464
151 465
151 466
151 467
151 468
151 469
151 470
151 471
151 472
151 474
151 475
151 477
151 479
151 483
151 486
151 489
151 490
151 491
151 492
151 493
152 153
152 154
152 155
152 156
152 157
152 158
152 159
152 160
152 161
152 162
152 163
152 164
152 166
152 167
152 168
152 169
152 170
152 171
152 172
152 173
152 174
152 175
152 176
152 188
152 191
152 216
152 221
152 226
152 227
152 228
152 229
152 230
152 231
152 232
152 233
152 238
152 240
152 248
152 254
152 263
152 265
152 267
152 268
152 269
152 270
152 271
152 272
152 274
152 275
152 276
152 286
152 287
152 290
152 291
152 292
152 293
152 294
152 295
152 296
152 297
152 298
152 299
152 301
152 303
152 304
152 305
152 306
152 307
152 308
152 309
152 310
152 311
152 312
152 313
152 314
152 315
152 316
152 317
152 318
152 319
152 320
152 321
152 322
152 323
152 328
152 342
152 352
152 358
152 363
152 366
152 371
152 372
152 373
152 374
152 375
152 376
152 377
152 378
152 379
152 380
152 386
152 391
152 402
152 403
152 404
152 405
152 406
152 410
152 411
152 412
152 414
152 417
152 425
152 428
152 429
152 430
152 431
152 432
152 433
152 434
152 435
152 436
152 437
152 438
152 439
152 440
152 441
152 442
152 447
152 448
152 449
152 454
152 455
152 458
152 461
152 466
152 473
152 476
152 478
152 479
152 482
152 485
152 487
152 493
153 154
153 155
153 156
153 157
153 158
153 159
153 160
153 161
153 162
153 163
153 164
153 165
153 167
153 168
153 169
153 170
153 171
153 172
153 173
153 174
153 175
153 176
153 188
153 191
153 216
153 221
153 225
153 227
153 228
153 229
153 230
153 231
153 232
153 233
153 238
153 240
153 248
153 254
153 263
153 265
153 268
153 269
153 270
153 271
153 272
153 273
153 274
153 275
153 276
153 286
153 287
153 289
153 291
153 292
153 293
153 294
153 295
153 296
153 297
153 298
153 299
153 301
153 302
153 303
153 305
153 306
153 307
153 308
153 309
153 310
153 311
153 312
153 313
153 314
153 315
153 316
153 317
153 318
153 319
153 320
153 321
153 322
153 323
153 328
153 342
153 352
153 358
153 363
153 366
153 370
153 372
153 373
153 374
153 375
153 376
153 377
153 378
153 379
153 380
153 386
153 391
153 403
153 404
153 405
153 406
153 407
153 408
153 409
153 410
153 411
153 412
153 414
153 417
153 425
153 427
153 429
153 430
153 431
153 432
153 433
153 434
153 435
153 436
153 437
153 438
153 439
153 441
153 442
153 443
153 444
153 445
153 446
153 447
153 448
153 449
153 450
153 451
153 452
153 453
153 454
153 455
153 456
153 457
153 458
153 461
153 466
153 473
153 476
153 478
153 479
153 482
153 485
153 487
153 493
154 155
154 156
154 157
154 158
154 159
154 160
154 161
154 162
154 163
154 164
154 165
154 166
154 168
154 169
154 170
154 171
154 172
154 173
154 174
154 175
154 176
154 184
154 185
154 186
154 187
154 189
154 190
154 191
154 192
154 193
154 194
154 195
154 196
154 197
154 198
154 199
154 200
154 201
154 202
154 203
154 204
154 205
154 206
154 207
154 208
154 209
154 210
154 211
154 212
154 213
154 214
154 215
154 216
154 217
154 218
154 219
154 221
154 225
154 226
154 228
154 229
154 230
154 231
154 232
154 233
154 238
154 240
154 248
154 254
154 263
154 265
154 267
154 269
154 270
154 271
154 272
154 273
154 274
154 275
154 276
154 286
154 287
154 289
154 290
154 292
154 293
154 294
154 295
154 296
154 297
154 298
154 299
154 301
154 302
154 303
154 304
154 305
154 307
154 308
154 309
154 310
154 311
154 312
154 313
154 314
154 315
154 316
154 317
154 318
154 319
154 320
154 321
154 322
154 323
154 328
154 342
154 352
154 358
154 363
154 366
154 370
154 371
154 373
154 374
154 375
154 376
154 377
154 378
154 379
154 380
154 386
154 391
154 402
154 404
154 405
154 406
154 407
154 408
154 409
154 410
154 411
154 412
154 413
154 415
154 416
154 417
154 418
154 419
154 420
154 421
154 422
154 425
154 427
154 428
154 430
154 431
154 432
154 433
154 434
154 435
154 436
154 437
154 438
154 439
154 440
154 442
154 443
154 444
154 445
154 446
154 447
154 448
154 449
154 450
154 451
154 452
154 453
154 454
154 455
154 456
154 457
154 458
154 461
154 466
154 473
154 476
154 478
154 479
154 482
154 485
154 487
154 493
155 156
155 157
155 158
155 159
155 160
155 161
155 162
155 163
155 164
155 165
155 166
155 167
155 169
155 170
155 171
155 172
155 173
155 174
155 175
155 176
155 184
155 185
155 186
155 187
155 188
155 189
155 190
155 192
155 193
155 194
155 195
155 196
155 197
155 198
155 199
155 200
155 201
155 202
155 203
155 204
155 205
155 206
155 207
155 208
155 209
155 210
155 211
155 212
155 213
155 214
155 215
155 216
155 217
155 218
155 219
155 222
155 225
155 226
155 227
155 228
155 229
155 231
155 232
155 233
155 238
155 241
155 242
155 248
155 254
155 263
155 265
155 267
155 268
155 269
155 270
155 271
155 272
155 274
155 275
155 276
155 286
155 287
155 289
155 290
155 291
155 293
155 294
155 295
155 296
155 297
155 298
155 299
155 301
155 302
155 303
155 304
155 305
155 306
155 307
155 309
155 310
155 311
155 312
155 313
155 314
155 315
155 316
155 317
155 318
155 319
155 320
155 321
155 322
155 323
155 328
155 342
155 353
155 354
155 355
155 356
155 357
155 358
155 359
155 360
155 361
155 362
155 364
155 365
155 366
155 367
155 368
155 369
155 370
155 371
155 372
155 374
155 375
155 376
155 377
155 378
155 379
155 380
155 386
155 392
155 393
155 394
155 402
155 403
155 405
155 406
155 407
155 408
155 409
155 410
155 411
155 412
155 414
155 417
155 425
155 427
155 428
155 429
155 431
155 432
155 433
155 434
155 435
155 436
155 437
155 438
155 439
155 440
155 441
155 442
155 447
155 448
155 449
155 454
155 455
155 458
155 459
155 460
155 462
155 463
155 464
155 465
155 466
155 467
155 468
155 469
155 470
155 471
155 472
155 473
155 474
155 476
155 478
155 479
155 481
155 483
155 484
155 485
155 486
155 487
155 488
155 489
155 490
155 491
155 493
156 157
156 158
156 159
156 160
156 161
156 162
156 163
156 164
156 165
156 166
156 167
156 168
156 169
156 170
156 171
156 172
156 174
156 175
156 176
156 188
156 191
156 216
156 221
156 225
156 226
156 227
156 229
156 230
156 231
156 232
156 233
156 238
156 240
156 248
156 254
156 263
156 265
156 267
156 268
156 270
156 271
156 272
156 273
156 274
156 275
156 276
156 286
156 287
156 289
156 290
156 291
156 292
156 294
156 295
156 296
156 297
156 298
156 299
156 301
156 302
156 303
156 304
156 305
156 306
156 307
156 308
156 309
156 311
156 312
156 313
156 314
156 315
156 316
156 317
156 318
156 319
156 320
156 321
156 322
156 323
156 328
156 342
156 352
156 358
156 363
156 366
156 370
156 371
156 372
156 373
156 375
156 376
156 377
156 378
156 379
156 380
156 386
156 391
156 402
156 403
156 404
156 406
156 407
156 408
156 409
156 410
156 411
156 412
156 414
156 417
156 425
156 427
156 428
156 429
156 430
156 432
156 433
156 434
156 435
156 436
156 437
156 438
156 439
156 440
156 441
156 443
156 444
156 445
156 446
156 447
156 448
156 449
156 450
156 451
156 452
156 453
156 454
156 455
156 456
156 457
156 458
156 461
156 466
156 473
156 476
156 478
156 479
156 482
156 485
156 487
156 493
157 158
157 159
157 160
157 161
157 162
157 163
157 164
157 165
157 166
157 167
157 168
157 170
157 171
157 172
157 173
157 174
157 175
157 176
157 188
157 191
157 216
157 221
157 225
157 226
157 227
157 228
157 230
157 231
157 232
157 233
157 238
157 240
157 248
157 254
157 263
157 265
157 267
157 268
157 269
157 271
157 272
157 273
157 274
157 275
157 276
157 286
157 287
157 289
157 290
157 291
157 292
157 293
157 295
157 296
157 297
157 298
157 299
157 301
157 302
157 303
157 304
157 305
157 306
157 307
157 308
157 309
157 310
157 311
157 313
157 314
157 315
157 316
157 317
157 318
157 319
157 320
157 321
157 322
157 323
157 328
157 342
157 352
157 358
157 363
157 366
157 370
157 371
157 372
157 373
157 374
157 376
157 377
157 378
157 379
157 380
157 386
157 391
157 402
157 403
157 404
157 405
157 407
157 408
157 409
157 410
157 411
157 412
157 414
157 417
157 425
157 427
157 428
157 429
157 430
157 431
157 432
157 433
157 435
157 437
157 438
157 439
157 440
157 441
157 442
157 443
157 444
157 445
157 446
157 448
157 449
157 450
157 451
157 452
157 453
157 454
157 455
157 456
157 457
157 458
157 461
157 466
157 473
157 476
157 478
157 479
157 481
157 482
157 483
157 484
157 486
157 487
157 488
157 489
157 490
157 491
157 493
158 159
158 160
158 161
158 162
158 163
158 164
158 165
158 166
158 167
158 168
158 169
158 170
158 171
158 172
158 174
158 175
158 176
158 188
158 191
158 216
158 221
158 225
158 226
158 227
158 228
158 229
158 231
158 232
158 233
158 234
158 235
158 236
158 237
158 239
158 240
158 244
158 245
158 246
158 247
158 249
158 250
158 251
158 252
158 253
158 255
158 263
158 264
158 266
158 267
158 268
158 269
158 270
158 271
158 272
158 274
158 275
158 276
158 286
158 288
158 289
158 290
158 291
158 292
158 293
158 294
158 295
158 296
158 298
158 299
158 300
158 302
158 303
158 304
158 305
158 306
158 307
158 308
158 309
158 310
158 311
158 312
158 314
158 315
158 316
158 317
158 318
158 319
158 320
158 321
158 322
158 323
158 324
158 325
158 326
158 327
158 329
158 337
158 338
158 339
158 340
158 341
158 343
158 344
158 345
158 346
158 347
158 348
158 349
158 350
158 351
158 352
158 353
158 354
158 355
158 356
158 357
158 359
158 360
158 361
158 362
158 363
158 364
158 365
158 367
158 368
158 369
158 370
158 371
158 372
158 373
158 374
158 375
158 376
158 377
158 379
158 380
158 381
158 382
158 383
158 384
158 385
158 387
158 388
158 389
158 390
158 391
158 402
158 403
158 404
158 405
158 406
158 410
158 411
158 412
158 413
158 414
158 415
158 416
158 418
158 419
158 420
158 421
158 422
158 423
158 424
158 426
158 427
158 428
158 429
158 430
158 431
158 432
158 433
158 435
158 437
158 438
158 439
158 440
158 441
158 442
158 443
158 444
158 445
158 446
158 447
158 449
158 450
158 451
158 452
158 453
158 454
158 455
158 456
158 457
158 458
158 459
158 460
158 461
158 462
158 463
158 464
158 465
158 467
158 468
158 469
158 470
158 471
158 472
158 473
158 474
158 476
158 478
158 482
158 485
158 487
158 492
158 494
159 160
159 161
159 162
159 163
159 164
159 165
159 166
159 167
159 168
159 169
159 171
159 172
159 173
159 174
159 175
159 176
159 188
159 191
159 216
159 221
159 225
159 226
159 227
159 228
159 229
159 231
159 232
159 233
159 238
159 240
159 248
159 254
159 265
159 267
159 268
159 269
159 270
159 271
159 272
159 274
159 275
159 276
159 286
159 287
159 289
159 290
159 291
159 292
159 293
159 294
159 296
159 297
159 298
159 299
159 301
159 302
159 303
159 304
159 305
159 306
159 307
159 308
159 309
159 310
159 311
159 312
159 313
159 315
159 316
159 317
159 318
159 319
159 320
159 321
159 322
159 323
159 328
159 342
159 352
159 358
159 363
159 366
159 370
159 371
159 372
159 373
159 374
159 375
159 377
159 378
159 379
159 380
159 386
159 391
159 402
159 403
159 404
159 405
159 406
159 410
159 411
159 412
159 414
159 417
159 425
159 427
159 428
159 429
159 430
159 431
159 433
159 434
159 435
159 436
159 437
159 438
159 439
159 440
159 441
159 442
159 443
159 444
159 445
159 446
159 447
159 448
159 450
159 451
159 452
159 453
159 454
159 455
159 456
159 457
159 458
159 461
159 466
159 473
159 476
159 478
159 479
159 481
159 482
159 483
159 484
159 485
159 486
159 488
159 489
159 490
159 491
159 493
160 161
160 162
160 163
160 164
160 165
160 166
160 167
160 168
160 169
160 170
160 172
160 173
160 174
160 175
160 176
160 188
160 191
160 216
160 221
160 225
160 226
160 227
160 228
160 229
160 231
160 232
160 233
160 238
160 240
160 248
160 254
160 263
160 265
160 267
160 268
160 269
160 270
160 272
160 273
160 274
160 275
160 276
160 286
160 287
160 289
160 290
160 291
160 292
160 293
160 294
160 295
160 296
160 298
160 299
160 301
160 302
160 303
160 304
160 305
160 306
160 307
160 308
160 309
160 310
160 311
160 312
160 313
160 314
160 315
160 317
160 318
160 319
160 320
160 321
160 322
160 323
160 328
160 342
160 352
160 358
160 363
160 366
160 370
160 371
160 372
160 373
160 374
160 375
160 376
160 377
160 379
160 380
160 386
160 391
160 402
160 403
160 404
160 405
160 406
160 410
160 411
160 412
160 414
160 417
160 425
160 427
160 428
160 429
160 430
160 431
160 432
160 434
160 435
160 436
160 437
160 438
160 439
160 440
160 441
160 442
160 447
160 448
160 449
160 454
160 455
160 458
160 461
160 466
160 473
160 476
160 478
160 479
160 482
160 485
160 487
160 493
161 162
161 163
161 164
161 165
161 166
161 167
161 168
161 169
161 170
161 171
161 173
161 174
161 175
161 176
161 188
161 191
161 216
161 221
161 225
161 226
161 227
161 228
161 229
161 231
161 232
161 233
161 238
161 240
161 248
161 254
161 263
161 265
161 267
161 268
161 269
161 270
161 271
161 273
161 274
161 275
161 276
161 286
161 287
161 289
161 290
161 291
161 292
161 293
161 294
161 295
161 297
161 298
161 299
161 301
161 302
161 303
161 304
161 305
161 306
161 307
161 308
161 309
161 310
161 311
161 312
161 313
161 314
161 315
161 316
161 318
161 319
161 320
161 321
161 322
161 323
161 328
161 342
161 352
161 358
161 363
161 366
161 370
161 371
161 372
161 373
161 374
161 375
161 376
161 378
161 379
161 380
161 386
161 391
161 402
161 403
161 404
161 405
161 406
161 410
161 411
161 412
161 414
161 417
161 425
161 427
161 428
161 429
161 430
161 431
161 432
161 433
161 434
161 436
161 437
161 438
161 439
161 440
161 441
161 442
161 447
161 448
161 449
161 454
161 455
161 458
161 461
161 466
161 473
161 476
161 478
161 479
161 482
161 485
161 487
161 493
162 163
162 164
162 165
162 166
162 167
162 168
162 169
162 170
162 171
162 172
162 173
162 175
162 176
162 188
162 191
162 216
162 221
162 225
162 226
162 227
162 228
162 229
162 230
162 232
162 233
162 238
162 240
162 248
162 254
162 263
162 265
162 267
162 268
162 269
162 270
162 271
162 272
162 273
162 275
162 276
162 286
162 287
162 289
162 290
162 291
162 292
162 293
162 294
162 295
162 296
162 298
162 299
162 301
162 302
162 303
162 304
162 305
162 306
162 307
162 308
162 309
162 310
162 311
162 312
162 313
162 314
162 315
162 316
162 317
162 318
162 319
162 320
162 321
162 323
162 328
162 342
162 352
162 358
162 363
162 366
162 370
162 371
162 372
162 373
162 374
162 375
162 376
162 377
162 378
162 380
162 386
162 391
162 402
162 403
162 404
162 405
162 406
162 407
162 408
162 409
162 411
162 412
162 414
162 417
162 425
162 427
162 428
162 429
162 430
162 431
162 432
162 433
162 434
162 435
162 436
162 438
162 439
162 440
162 441
162 442
162 443
162 444
162 445
162 446
162 447
162 448
162 449
162 450
162 451
162 452
162 453
162 455
162 456
162 457
162 458
162 461
162 466
162 473
162 476
162 478
162 479
162 482
162 485
162 487
162 493
163 164
163 165
163 166
163 167
163 168
163 169
163 170
163 171
163 172
163 173
163 174
163 176
163 184
163 185
163 186
163 187
163 188
163 189
163 190
163 191
163 192
163 193
163 194
163 195
163 196
163 197
163 198
163 199
163 200
163 201
163 202
163 203
163 204
163 205
163 206
163 207
163 208
163 209
163 210
163 211
163 212
163 213
163 214
163 215
163 217
163 218
163 219
163 221
163 225
163 226
163 227
163 228
163 229
163 230
163 231
163 233
163 238
163 240
163 248
163 254
163 263
163 265
163 267
163 268
163 269
163 270
163 271
163 272
163 273
163 274
163 276
163 280
163 281
163 282
163 283
163 284
163 285
163 287
163 289
163 290
163 291
163 292
163 293
163 294
163 295
163 296
163 297
163 299
163 301
163 302
163 304
163 306
163 308
163 310
163 312
163 313
163 314
163 316
163 317
163 322
163 323
163 328
163 342
163 352
163 358
163 363
163 366
163 370
163 371
163 372
163 373
163 374
163 375
163 376
163 377
163 378
163 379
163 386
163 391
163 402
163 403
163 404
163 405
163 406
163 407
163 408
163 409
163 410
163 412
163 414
163 417
163 425
163 427
163 428
163 429
163 430
163 431
163 432
163 433
163 434
163 435
163 436
163 437
163 439
163 440
163 441
163 442
163 443
163 444
163 445
163 446
163 447
163 448
163 449
163 450
163 451
163 452
163 453
163 454
163 456
163 457
163 458
163 459
163 460
163 461
163 462
163 463
163 464
163 465
163 466
163 467
163 468
163 469
163 470
163 471
163 472
163 474
163 475
163 477
163 479
163 482
163 485
163 487
163 493
164 165
164 166
164 167
164 168
164 169
164 170
164 171
164 172
164 173
164 174
164 175
164 188
164 191
164 216
164 221
164 225
164 226
164 227
164 228
164 229
164 230
164 231
164 232
164 238
164 240
164 248
164 254
164 263
164 265
164 267
164 268
164 269
164 270
164 271
164 272
164 273
164 274
164 275
164 286
164 287
164 289
164 290
164 291
164 292
164 293
164 294
164 295
164 296
164 297
164 298
164 301
164 302
164 303
164 304
164 305
164 306
164 307
164 308
164 309
164 310
164 311
164 312
164 313
164 314
164 315
164 316
164 317
164 318
164 319
164 320
164 321
164 322
164 328
164 342
164 352
164 358
164 363
164 366
164 370
164 371
164 372
164 373
164 374
164 375
164 376
164 377
164 379
164 380
164 386
164 391
164 402
164 403
164 404
164 405
164 406
164 407
164 408
164 409
164 410
164 411
164 414
164 417
164 425
164 427
164 428
164 429
164 430
164 431
164 432
164 433
164 434
164 435
164 436
164 437
164 438
164 440
164 441
164 442
164 443
164 444
164 445
164 446
164 447
164 448
164 449
164 450
164 451
164 452
164 453
164 454
164 455
164 456
164 457
164 461
164 466
164 473
164 476
164 478
164 479
164 482
164 485
164 487
164 493
165 166
165 167
165 168
165 169
165 170
165 171
165 172
165 173
165 174
165 175
165 176
165 188
165 191
165 213
165 216
165 221
165 226
165 227
165 228
165 229
165 230
165 231
165 232
165 233
165 240
165 263
165 267
165 268
165 270
165 271
165 272
165 273
165 274
165 275
165 276
165 286
165 290
165 291
165 292
165 293
165 294
165 295
165 296
165 297
165 298
165 299
165 303
165 304
165 305
165 306
165 307
165 308
165 309
165 310
165 311
165 312
165 313
165 314
165 315
165 316
165 317
165 318
165 319
165 320
165 321
165 322
165 323
165 352
165 363
165 371
165 372
165 373
165 374
165 375
165 376
165 377
165 378
165 379
165 380
165 391
165 402
165 403
165 404
165 406
165 409
165 410
165 411
165 412
165 414
165 428
165 429
165 430
165 431
165 432
165 433
165 434
165 435
165 436
165 437
165 438
165 439
165 440
165 441
165 447
165 449
165 453
165 454
165 455
165 458
165 461
165 473
165 476
165 478
165 482
165 485
165 487
166 167
166 168
166 169
166 170
166 171
166 172
166 173
166 174
166 175
166 176
166 188
166 191
166 213
166 216
166 221
166 225
166 227
166 228
166 229
166 230
166 231
166 232
166 233
166 240
166 263
166 268
166 269
166 270
166 271
166 272
166 273
166 274
166 275
166 276
166 286
166 289
166 291
166 292
166 293
166 294
166 295
166 296
166 297
166 298
166 299
166 302
166 303
166 305
166 306
166 307
166 308
166 309
166 310
166 311
166 312
166 313
166 314
166 315
166 316
166 317
166 318
166 319
166 320
166 321
166 322
166 323
166 352
166 363
166 370
166 372
166 373
166 374
166 375
166 376
166 377
166 378
166 379
166 380
166 391
166 403
166 404
166 405
166 406
166 407
166 408
166 409
166 410
166 411
166 412
166 414
166 427
166 429
166 430
166 431
166 432
166 433
166 434
166 435
166 436
166 437
166 438
166 439
166 441
166 442
166 443
166 444
166 445
166 446
166 447
166 448
166 449
166 450
166 451
166 452
166 453
166 454
166 455
166 456
166 457
166 458
166 461
166 473
166 476
166 478
166 482
166 485
166 487
167 168
167 169
167 170
167 171
167 172
167 173
167 174
167 175
167 176
167 184
167 185
167 186
167 187
167 189
167 190
167 191
167 192
167 193
167 194
167 195
167 196
167 197
167 198
167 199
167 200
167 201
167 202
167 203
167 204
167 205
167 206
167 207
167 208
167 209
167 210
167 211
167 212
167 213
167 214
167 215
167 216
167 217
167 218
167 219
167 221
167 225
167 226
167 228
167 229
167 230
167 231
167 232
167 233
167 240
167 263
167 267
167 269
167 270
167 271
167 272
167 273
167 274
167 275
167 276
167 286
167 289
167 290
167 292
167 293
167 294
167 295
167 296
167 297
167 298
167 299
167 302
167 303
167 304
167 305
167 307
167 308
167 309
167 310
167 311
167 312
167 313
167 314
167 315
167 316
167 317
167 318
167 319
167 320
167 321
167 322
167 323
167 352
167 363
167 370
167 371
167 373
167 374
167 375
167 376
167 377
167 378
167 379
167 380
167 391
167 402
167 404
167 405
167 406
167 407
167 408
167 409
167 410
167 411
167 412
167 413
167 415
167 416
167 417
167 418
167 419
167 420
167 421
167 422
167 427
167 428
167 430
167 431
167 432
167 433
167 434
167 435
167 436
167 437
167 438
167 439
167 440
167 442
167 443
167 444
167 445
167 446
167 447
167 448
167 449
167 450
167 451
167 452
167 453
167 454
167 455
167 456
167 457
167 458
167 461
167 473
167 476
167 478
167 482
167 485
167 487
168 169
168 170
168 171
168 172
168 173
168 174
168 175
168 176
168 184
168 185
168 186
168 187
168 188
168 189
168 190
168 192
168 193
168 194
168 195
168 196
168 197
168 198
168 199
168 200
168 201
168 202
168 203
168 204
168 205
168 206
168 207
168 208
168 209
168 210
168 211
168 212
168 213
168 214
168 215
168 216
168 217
168 218
168 219
168 222
168 225
168 226
168 227
168 229
168 230
168 231
168 232
168 233
168 241
168 242
168 263
168 267
168 268
168 270
168 271
168 272
168 273
168 274
168 275
168 276
168 286
168 289
168 290
168 291
168 293
168 294
168 295
168 296
168 297
168 298
168 299
168 302
168 303
168 304
168 305
168 306
168 307
168 309
168 310
168 311
168 312
168 313
168 314
168 315
168 316
168 317
168 318
168 319
168 320
168 321
168 322
168 323
168 353
168 354
168 355
168 356
168 357
168 358
168 359
168 360
168 361
168 362
168 364
168 365
168 366
168 367
168 368
168 369
168 370
168 371
168 372
168 374
168 375
168 376
168 377
168 378
168 379
168 380
168 392
168 393
168 394
168 402
168 403
168 405
168 406
168 407
168 408
168 409
168 410
168 411
168 412
168 414
168 427
168 428
168 429
168 431
168 432
168 433
168 434
168 435
168 436
168 437
168 438
168 439
168 440
168 441
168 447
168 449
168 453
168 454
168 455
168 458
168 459
168 460
168 462
168 463
168 464
168 465
168 466
168 467
168 468
168 469
168 470
168 471
168 472
168 473
168 474
168 476
168 478
168 481
168 483
168 484
168 485
168 486
168 487
168 488
168 489
168 490
168 491
169 170
169 171
169 172
169 173
169 174
169 175
169 176
169 188
169 191
169 213
169 216
169 221
169 225
169 226
169 227
169 228
169 230
169 231
169 232
169 233
169 240
169 263
169 267
169 268
169 269
169 271
169 272
169 273
169 274
169 275
169 276
169 286
169 289
169 290
169 291
169 292
169 293
169 295
169 296
169 297
169 298
169 299
169 302
169 303
169 304
169 305
169 306
169 307
169 308
169 309
169 310
169 311
169 313
169 314
169 315
169 316
169 317
169 318
169 319
169 320
169 321
169 322
169 323
169 352
169 363
169 370
169 371
169 372
169 373
169 374
169 376
169 377
169 378
169 379
169 380
169 391
169 402
169 403
169 404
169 405
169 407
169 408
169 409
169 410
169 411
169 412
169 414
169 427
169 428
169 429
169 430
169 432
169 433
169 435
169 436
169 437
169 438
169 439
169 440
169 441
169 442
169 443
169 444
169 445
169 446
169 448
169 449
169 450
169 451
169 452
169 453
169 454
169 455
169 456
169 457
169 458
169 461
169 473
169 476
169 478
169 481
169 482
169 483
169 484
169 486
169 487
169 488
169 489
169 490
169 491
170 171
170 172
170 173
170 174
170 175
170 176
170 188
170 191
170 213
170 216
170 221
170 225
170 226
170 227
170 229
170 230
170 231
170 232
170 233
170 240
170 267
170 268
170 270
170 271
170 272
170 273
170 274
170 275
170 276
170 286
170 289
170 290
170 291
170 292
170 293
170 294
170 296
170 297
170 298
170 299
170 302
170 303
170 304
170 305
170 306
170 307
170 308
170 309
170 310
170 311
170 312
170 313
170 315
170 316
170 317
170 318
170 319
170 320
170 321
170 322
170 323
170 352
170 363
170 370
170 371
170 372
170 373
170 374
170 375
170 377
170 378
170 379
170 380
170 391
170 402
170 403
170 404
170 406
170 409
170 410
170 411
170 412
170 414
170 427
170 428
170 429
170 430
170 431
170 433
170 434
170 435
170 436
170 437
170 438
170 439
170 440
170 441
170 442
170 443
170 444
170 445
170 446
170 447
170 448
170 450
170 451
170 452
170 453
170 454
170 455
170 456
170 457
170 458
170 461
170 473
170 476
170 478
170 481
170 482
170 483
170 484
170 485
170 486
170 488
170 489
170 490
170 491
171 172
171 173
171 174
171 175
171 176
171 188
171 191
171 213
171 216
171 221
171 225
171 226
171 227
171 229
171 230
171 231
171 232
171 233
171 240
171 263
171 267
171 268
171 269
171 270
171 272
171 273
171 274
171 275
171 276
171 286
171 289
171 290
171 291
171 292
171 294
171 295
171 296
171 297
171 298
171 299
171 302
171 303
171 304
171 305
171 306
171 307
171 308
171 309
171 310
171 311
171 312
171 313
171 314
171 315
171 317
171 318
171 319
171 320
171 321
171 322
171 323
171 352
171 363
171 370
171 371
171 372
171 373
171 375
171 376
171 377
171 378
171 379
171 380
171 391
171 402
171 403
171 404
171 406
171 409
171 410
171 411
171 412
171 414
171 427
171 428
171 429
171 430
171 431
171 432
171 434
171 435
171 436
171 437
171 438
171 439
171 440
171 441
171 447
171 449
171 453
171 454
171 455
171 458
171 461
171 473
171 476
171 478
171 482
171 485
171 487
172 173
172 174
172 175
172 176
172 188
172 191
172 213
172 216
172 221
172 225
172 226
172 227
172 229
172 230
172 231
172 232
172 233
172 240
172 263
172 267
172 268
172 269
172 270
172 271
172 273
172 274
172 275
172 276
172 286
172 289
172 290
172 291
172 292
172 293
172 294
172 295
172 297
172 298
172 299
172 302
172 303
172 304
172 305
172 306
172 307
172 308
172 309
172 310
172 311
172 312
172 313
172 314
172 315
172 316
172 318
172 319
172 320
172 321
172 322
172 323
172 352
172 363
172 370
172 371
172 372
172 373
172 374
172 375
172 376
172 378
172 379
172 380
172 391
172 402
172 403
172 404
172 406
172 409
172 410
172 411
172 412
172 414
172 427
172 428
172 429
172 430
172 431
172 432
172 433
172 434
172 436
172 437
172 438
172 439
172 440
172 441
172 447
172 449
172 453
172 454
172 455
172 458
172 461
172 473
172 476
172 478
172 482
172 485
172 487
173 174
173 175
173 176
173 184
173 185
173 186
173 187
173 188
173 189
173 190
173 191
173 192
173 193
173 194
173 195
173 196
173 197
173 198
173 199
173 200
173 201
173 202
173 203
173 204
173 205
173 206
173 207
173 208
173 209
173 210
173 211
173 212
173 214
173 215
173 216
173 217
173 218
173 219
173 221
173 225
173 226
173 227
173 228
173 229
173 231
173 232
173 233
173 240
173 263
173 267
173 268
173 269
173 270
173 271
173 272
173 274
173 275
173 276
173 286
173 289
173 290
173 291
173 292
173 293
173 294
173 295
173 296
173 298
173 299
173 302
173 303
173 304
173 305
173 306
173 307
173 308
173 309
173 310
173 311
173 312
173 313
173 314
173 315
173 316
173 317
173 318
173 319
173 320
173 322
173 323
173 352
173 363
173 370
173 371
173 372
173 373
173 374
173 375
173 376
173 377
173 379
173 380
173 391
173 402
173 403
173 404
173 405
173 406
173 407
173 408
173 410
173 411
173 412
173 414
173 427
173 428
173 429
173 430
173 431
173 432
173 433
173 434
173 435
173 437
173 438
173 439
173 440
173 441
173 442
173 443
173 444
173 445
173 446
173 447
173 448
173 449
173 450
173 451
173 452
173 454
173 455
173 456
173 457
173 458
173 461
173 473
173 476
173 478
173 482
173 485
173 487
174 175
174 176
174 188
174 191
174 213
174 216
174 221
174 225
174 226
174 227
174 228
174 229
174 230
174 232
174 233
174 240
174 263
174 267
174 268
174 269
174 270
174 271
174 272
174 273
174 275
174 276
174 286
174 289
174 290
174 291
174 292
174 294
174 295
174 296
174 297
174 298
174 299
174 302
174 303
174 304
174 305
174 306
174 307
174 308
174 309
174 310
174 311
174 312
174 313
174 314
174 315
174 316
174 317
174 318
174 319
174 320
174 321
174 323
174 352
174 363
174 370
174 371
174 372
174 373
174 374
174 375
174 376
174 377
174 378
174 380
174 391
174 402
174 403
174 404
174 405
174 406
174 407
174 408
174 409
174 411
174 412
174 414
174 427
174 428
174 429
174 430
174 431
174 432
174 433
174 434
174 435
174 436
174 438
174 439
174 440
174 441
174 442
174 443
174 444
174 445
174 446
174 447
174 448
174 449
174 450
174 451
174 452
174 453
174 455
174 456
174 457
174 458
174 461
174 473
174 476
174 478
174 482
174 485
174 487
175 176
175 184
175 185
175 186
175 187
175 188
175 189
175 190
175 191
175 192
175 193
175 194
175 195
175 196
175 197
175 198
175 199
175 200
175 201
175 202
175 203
175 204
175 205
175 206
175 207
175 208
175 209
175 210
175 211
175 212
175 213
175 214
175 215
175 217
175 218
175 219
175 221
175 225
175 226
175 227
175 228
175 229
175 230
175 231
175 233
175 240
175 263
175 267
175 268
175 269
175 270
175 271
175 272
175 273
175 274
175 276
175 280
175 281
175 282
175 283
175 284
175 285
175 289
175 290
175 291
175 292
175 293
175 294
175 295
175 296
175 297
175 299
175 302
175 304
175 306
175 308
175 312
175 314
175 316
175 317
175 321
175 322
175 323
175 352
175 363
175 370
175 371
175 372
175 373
175 374
175 375
175 376
175 377
175 378
175 379
175 391
175 402
175 403
175 404
175 405
175 406
175 407
175 408
175 409
175 410
175 412
175 414
175 427
175 428
175 429
175 430
175 431
175 432
175 433
175 434
175 435
175 436
175 437
175 439
175 440
175 441
175 442
175 443
175 444
175 445
175 446
175 447
175 448
175 449
175 450
175 451
175 452
175 453
175 454
175 456
175 457
175 458
175 459
175 460
175 461
175 462
175 463
175 464
175 465
175 466
175 467
175 468
175 469
175 470
175 471
175 472
175 474
175 475
175 477
175 482
175 485
175 487
176 188
176 191
176 213
176 216
176 221
176 225
176 226
176 227
176 228
176 229
176 230
176 231
176 232
176 240
176 263
176 267
176 268
176 269
176 270
176 271
176 272
176 273
176 274
176 275
176 286
176 289
176 290
176 291
176 292
176 293
176 294
176 295
176 296
176 297
176 298
176 302
176 303
176 304
176 305
176 306
176 307
176 308
176 309
176 310
176 311
176 312
176 313
176 314
176 315
176 316
176 317
176 318
176 319
176 320
176 321
176 322
176 352
176 363
176 370
176 371
176 372
176 373
176 375
176 376
176 377
176 378
176 379
176 380
176 391
176 402
176 403
176 404
176 405
176 406
176 407
176 408
176 409
176 410
176 411
176 414
176 427
176 428
176 429
176 430
176 431
176 432
176 433
176 434
176 435
176 436
176 437
176 438
176 440
176 441
176 442
176 443
176 444
176 445
176 446
176 447
176 448
176 449
176 450
176 451
176 452
176 453
176 454
176 455
176 456
176 457
176 461
176 473
176 476
176 478
176 482
176 485
176 487
177 178
177 179
177 180
177 181
177 182
177 183
177 184
177 186
177 187
177 188
177 189
177 190
177 191
177 192
177 193
177 194
177 195
177 196
177 197
177 198
177 199
177 200
177 201
177 202
177 203
177 204
177 205
177 206
177 207
177 208
177 209
177 210
177 211
177 212
177 213
177 214
177 215
177 216
177 217
177 218
177 219
177 257
177 258
177 259
177 260
177 261
177 262
177 331
177 332
177 333
177 334
177 335
177 336
177 338
177 341
177 343
177 349
177 350
177 351
177 357
177 396
177 397
177 398
177 399
177 400
177 401
177 446
177 460
177 461
177 462
177 463
177 464
177 465
177 466
177 467
177 468
177 469
177 470
177 471
177 472
177 473
177 474
178 179
178 180
178 181
178 182
178 183
178 185
178 256
178 258
178 259
178 260
178 261
178 262
178 330
178 332
178 333
178 334
178 335
178 336
178 337
178 339
178 340
178 341
178 342
178 343
178 344
178 345
178 346
178 347
178 348
178 349
178 350
178 351
178 357
178 395
178 397
178 398
178 399
178 400
178 401
178 446
178 459
179 180
179 181
179 182
179 183
179 185
179 256
179 257
179 258
179 260
179 261
179 262
179 330
179 331
179 333
179 334
179 335
179 336
179 337
179 338
179 339
179 340
179 342
179 343
179 344
179 345
179 346
179 347
179 348
179 349
179 350
179 351
179 352
179 353
179 354
179 355
179 356
179 358
179 359
179 360
179 361
179 362
179 395
179 396
179 397
179 399
179 400
179 401
179 440
179 441
179 442
179 443
179 444
179 445
179 447
179 448
179 449
179 450
179 451
179 452
179 453
179 454
179 455
179 456
179 457
179 458
179 459
180 181
180 182
180 183
180 185
180 256
180 257
180 259
180 260
180 261
180 262
180 330
180 331
180 332
180 334
180 335
180 336
180 337
180 338
180 339
180 340
180 341
180 342
180 344
180 345
180 346
180 347
180 348
180 349
180 350
180 351
180 357
180 395
180 396
180 397
180 398
180 400
180 401
180 446
180 459
181 182
181 183
181 185
181 256
181 257
181 258
181 259
181 261
181 262
181 330
181 331
181 332
181 333
181 335
181 336
181 337
181 338
181 339
181 340
181 341
181 342
181 343
181 344
181 345
181 346
181 347
181 348
181 350
181 351
181 357
181 395
181 396
181 397
181 398
181 399
181 401
181 446
181 459
182 183
182 185
182 256
182 257
182 258
182 259
182 260
182 262
182 330
182 331
182 332
182 333
182 334
182 336
182 337
182 338
182 339
182 340
182 341
182 342
182 343
182 344
182 345
182 346
182 347
182 348
182 349
182 351
182 357
182 395
182 396
182 398
182 399
182 400
182 401
182 446
182 459
183 185
183 256
183 257
183 258
183 259
183 260
183 261
183 330
183 331
183 332
183 333
183 334
183 335
183 337
183 338
183 339
183 340
183 341
183 342
183 343
183 344
183 345
183 346
183 347
183 348
183 349
183 350
183 357
183 395
183 396
183 397
183 398
183 399
183 400
183 446
183 459
184 185
184 186
184 187
184 188
184 189
184 190
184 191
184 192
184 193
184 194
184 195
184 196
184 197
184 198
184 199
184 200
184 201
184 202
184 203
184 204
184 205
184 206
184 207
184 208
184 209
184 210
184 211
184 212
184 213
184 214
184 215
184 216
184 217
184 218
184 219
184 220
184 221
184 222
184 223
184 227
184 230
184 232
184 234
184 235
184 236
184 237
184 239
184 240
184 242
184 243
184 244
184 245
184 246
184 247
184 249
184 250
184 251
184 252
184 253
184 255
184 256
184 264
184 266
184 268
184 273
184 275
184 277
184 279
184 280
184 281
184 283
184 284
184 285
184 286
184 288
184 291
184 292
184 297
184 298
184 300
184 303
184 306
184 308
184 311
184 318
184 319
184 320
184 321
184 324
184 325
184 326
184 327
184 329
184 330
184 337
184 340
184 344
184 345
184 347
184 348
184 352
184 354
184 355
184 356
184 359
184 360
184 361
184 362
184 363
184 368
184 369
184 372
184 373
184 378
184 380
184 381
184 383
184 384
184 385
184 386
184 387
184 388
184 389
184 390
184 391
184 392
184 393
184 394
184 395
184 403
184 404
184 409
184 411
184 413
184 414
184 416
184 418
184 420
184 421
184 422
184 424
184 426
184 429
184 430
184 436
184 438
184 441
184 445
184 451
184 452
184 453
184 455
184 457
184 459
184 460
184 461
184 464
184 465
184 467
184 470
184 471
184 472
184 473
184 476
184 478
184 480
184 481
184 482
184 486
184 488
184 489
184 490
184 491
184 492
184 494
185 186
185 187
185 188
185 189
185 190
185 191
185 192
185 193
185 194
185 195
185 196
185 197
185 198
185 199
185 200
185 201
185 202
185 203
185 204
185 205
185 206
185 207
185 208
185 209
185 210
185 211
185 212
185 213
185 214
185 215
185 216
185 217
185 218
185 219
185 220
185 221
185 222
185 223
185 227
185 230
185 232
185 234
185 235
185 236
185 237
185 239
185 240
185 242
185 243
185 244
185 245
185 246
185 247
185 249
185 250
185 251
185 252
185 253
185 255
185 257
185 258
185 259
185 260
185 261
185 262
185 264
185 266
185 268
185 273
185 275
185 277
185 279
185 280
185 281
185 283
185 284
185 285
185 286
185 288
185 291
185 292
185 297
185 298
185 300
185 303
185 306
185 308
185 311
185 318
185 319
185 320
185 321
185 324
185 325
185 326
185 327
185 329
185 331
185 332
185 333
185 334
185 335
185 336
185 337
185 340
185 344
185 345
185 347
185 348
185 352
185 354
185 355
185 356
185 359
185 360
185 361
185 362
185 363
185 368
185 369
185 372
185 373
185 378
185 380
185 382
185 389
185 391
185 392
185 393
185 394
185 396
185 397
185 398
185 399
185 400
185 401
185 403
185 404
185 409
185 411
185 413
185 414
185 416
185 418
185 420
185 421
185 422
185 424
185 426
185 429
185 430
185 436
185 438
185 441
185 445
185 451
185 452
185 453
185 455
185 457
185 460
185 461
185 462
185 463
185 464
185 465
185 466
185 467
185 468
185 469
185 470
185 471
185 472
185 473
185 474
185 476
185 478
185 480
185 481
185 482
185 486
185 488
185 489
185 490
185 491
185 492
185 494
186 187
186 188
186 189
186 190
186 191
186 192
186 193
186 194
186 195
186 196
186 197
186 198
186 199
186 200
186 201
186 202
186 203
186 204
186 205
186 206
186 207
186 208
186 209
186 210
186 211
186 212
186 213
186 214
186 215
186 216
186 217
186 218
186 219
186 220
186 221
186 222
186 223
186 227
186 230
186 232
186 235
186 236
186 237
186 238
186 239
186 240
186 242
186 243
186 245
186 246
186 247
186 248
186 249
186 251
186 252
186 253
186 254
186 255
186 256
186 264
186 266
186 268
186 273
186 275
186 277
186 279
186 280
186 281
186 283
186 284
186 285
186 286
186 288
186 291
186 292
186 297
186 298
186 300
186 303
186 306
186 308
186 311
186 318
186 319
186 320
186 321
186 325
186 326
186 327
186 328
186 329
186 330
186 338
186 339
186 340
186 341
186 342
186 343
186 344
186 345
186 346
186 347
186 348
186 349
186 350
186 351
186 352
186 354
186 355
186 356
186 359
186 360
186 361
186 362
186 363
186 368
186 369
186 372
186 373
186 378
186 380
186 382
186 389
186 391
186 392
186 393
186 394
186 395
186 403
186 404
186 409
186 411
186 413
186 414
186 416
186 418
186 420
186 421
186 422
186 424
186 426
186 429
186 430
186 436
186 438
186 441
186 445
186 451
186 452
186 453
186 455
186 457
186 459
186 460
186 461
186 464
186 465
186 467
186 470
186 471
186 472
186 473
186 476
186 478
186 480
186 481
186 482
186 486
186 488
186 489
186 490
186 491
186 492
186 494
187 188
187 189
187 190
187 191
187 192
187 193
187 194
187 195
187 196
187 197
187 198
187 199
187 200
187 201
187 202
187 203
187 204
187 205
187 206
187 207
187 208
187 209
187 210
187 211
187 212
187 213
187 214
187 215
187 216
187 217
187 218
187 219
187 220
187 221
187 222
187 223
187 227
187 230
187 232
187 234
187 235
187 236
187 237
187 239
187 240
187 242
187 243
187 244
187 245
187 246
187 247
187 249
187 250
187 251
187 252
187 253
187 255
187 256
187 264
187 266
187 268
187 273
187 275
187 277
187 279
187 281
187 282
187 283
187 284
187 285
187 286
187 288
187 291
187 292
187 297
187 298
187 300
187 302
187 304
187 305
187 306
187 307
187 308
187 309
187 310
187 311
187 312
187 313
187 314
187 315
187 316
187 317
187 318
187 319
187 320
187 321
187 322
187 323
187 324
187 325
187 326
187 327
187 329
187 330
187 337
187 340
187 344
187 345
187 347
187 348
187 352
187 354
187 355
187 356
187 359
187 360
187 361
187 362
187 363
187 368
187 369
187 372
187 373
187 378
187 380
187 382
187 389
187 391
187 392
187 393
187 394
187 395
187 403
187 404
187 409
187 411
187 414
187 415
187 416
187 417
187 418
187 419
187 420
187 421
187 422
187 424
187 426
187 429
187 430
187 436
187 438
187 441
187 445
187 451
187 452
187 453
187 455
187 457
187 459
187 461
187 462
187 463
187 464
187 465
187 466
187 467
187 468
187 469
187 470
187 471
187 472
187 473
187 474
187 476
187 478
187 480
187 482
187 483
187 484
187 485
187 486
187 487
187 488
187 489
187 490
187 491
187 492
187 494
188 189
188 190
188 191
188 192
188 193
188 194
188 195
188 196
188 197
188 198
188 199
188 200
188 201
188 202
188 203
188 204
188 205
188 206
188 207
188 208
188 209
188 210
188 211
188 212
188 213
188 214
188 215
188 216
188 217
188 218
188 219
188 220
188 221
188 222
188 223
188 225
188 226
188 228
188 229
188 230
188 231
188 232
188 233
188 234
188 235
188 236
188 237
188 239
188 240
188 242
188 243
188 244
188 245
188 246
188 247
188 249
188 250
188 251
188 252
188 253
188 255
188 256
188 264
188 266
188 267
188 269
188 270
188 271
188 272
188 273
188 274
188 275
188 276
188 277
188 279
188 280
188 281
188 283
188 284
188 285
188 286
188 288
188 289
188 290
188 292
188 293
188 294
188 295
188 296
188 297
188 298
188 299
188 300
188 302
188 303
188 304
188 305
188 307
188 308
188 309
188 310
188 311
188 312
188 313
188 314
188 315
188 316
188 317
188 318
188 319
188 320
188 321
188 322
188 323
188 324
188 325
188 326
188 327
188 329
188 330
188 337
188 340
188 344
188 345
188 347
188 348
188 352
188 354
188 355
188 356
188 359
188 360
188 361
188 362
188 363
188 368
188 369
188 370
188 371
188 373
188 374
188 375
188 376
188 377
188 378
188 379
188 380
188 382
188 389
188 391
188 392
188 393
188 394
188 395
188 402
188 404
188 405
188 406
188 407
188 408
188 409
188 410
188 411
188 412
188 413
188 415
188 416
188 417
188 418
188 419
188 420
188 421
188 422
188 424
188 426
188 427
188 428
188 430
188 431
188 432
188 433
188 434
188 435
188 436
188 437
188 438
188 439
188 440
188 442
188 443
188 444
188 445
188 446
188 447
188 448
188 449
188 450
188 451
188 452
188 453
188 454
188 455
188 456
188 457
188 458
188 459
188 460
188 461
188 464
188 465
188 467
188 470
188 471
188 472
188 473
188 476
188 478
188 480
188 481
188 482
188 486
188 488
188 489
188 490
188 491
188 492
188 494
189 190
189 191
189 192
189 193
189 194
189 195
189 196
189 197
189 198
189 199
189 200
189 201
189 202
189 203
189 204
189 205
189 206
189 207
189 208
189 209
189 210
189 211
189 212
189 213
189 214
189 215
189 216
189 217
189 218
189 219
189 220
189 221
189 222
189 223
189 227
189 230
189 232
189 234
189 236
189 237
189 238
189 239
189 240
189 242
189 243
189 244
189 246
189 247
189 248
189 249
189 250
189 251
189 252
189 253
189 255
189 256
189 264
189 266
189 268
189 273
189 275
189 277
189 279
189 280
189 281
189 283
189 284
189 285
189 286
189 288
189 291
189 292
189 297
189 298
189 300
189 303
189 306
189 308
189 311
189 318
189 319
189 320
189 321
189 324
189 326
189 327
189 328
189 329
189 330
189 337
189 340
189 344
189 345
189 347
189 348
189 352
189 354
189 355
189 356
189 359
189 360
189 361
189 362
189 363
189 368
189 369
189 372
189 373
189 378
189 380
189 382
189 389
189 391
189 392
189 393
189 394
189 395
189 403
189 404
189 409
189 411
189 413
189 414
189 416
189 418
189 420
189 421
189 422
189 424
189 426
189 429
189 430
189 436
189 438
189 441
189 445
189 451
189 452
189 453
189 455
189 457
189 459
189 460
189 461
189 464
189 465
189 467
189 470
189 471
189 472
189 473
189 476
189 478
189 480
189 481
189 482
189 486
189 488
189 489
189 490
189 491
189 492
189 494
190 191
190 192
190 193
190 194
190 195
190 196
190 197
190 198
190 199
190 200
190 201
190 202
190 203
190 204
190 205
190 206
190 207
190 208
190 209
190 210
190 211
190 212
190 213
190 214
190 215
190 216
190 217
190 218
190 219
190 221
190 222
190 223
190 227
190 230
190 232
190 234
190 235
190 236
190 237
190 239
190 240
190 242
190 243
190 244
190 245
190 246
190 247
190 249
190 250
190 251
190 252
190 253
190 255
190 256
190 265
190 266
190 268
190 273
190 275
190 277
190 279
190 280
190 281
190 283
190 284
190 285
190 286
190 288
190 291
190 292
190 297
190 298
190 300
190 303
190 306
190 308
190 311
190 318
190 319
190 320
190 321
190 324
190 325
190 326
190 327
190 329
190 330
190 337
190 340
190 344
190 345
190 347
190 348
190 352
190 354
190 355
190 356
190 359
190 360
190 361
190 362
190 363
190 368
190 369
190 372
190 373
190 378
190 380
190 382
190 389
190 391
190 392
190 393
190 394
190 395
190 403
190 404
190 409
190 411
190 413
190 414
190 416
190 418
190 420
190 421
190 422
190 424
190 426
190 429
190 430
190 436
190 438
190 441
190 445
190 451
190 452
190 453
190 455
190 457
190 459
190 460
190 461
190 464
190 465
190 467
190 470
190 471
190 472
190 473
190 476
190 478
190 480
190 481
190 482
190 486
190 488
190 489
190 490
190 491
190 492
190 494
191 192
191 193
191 194
191 195
191 196
191 197
191 198
191 199
191 200
191 201
191 202
191 203
191 204
191 205
191 206
191 207
191 208
191 209
191 210
191 211
191 212
191 213
191 214
191 215
191 216
191 217
191 218
191 219
191 220
191 222
191 223
191 227
191 230
191 232
191 234
191 235
191 236
191 237
191 239
191 241
191 242
191 243
191 244
191 245
191 246
191 247
191 249
191 250
191 251
191 252
191 253
191 255
191 256
191 264
191 266
191 268
191 273
191 275
191 277
191 279
191 280
191 281
191 283
191 284
191 285
191 286
191 288
191 289
191 290
191 291
191 293
191 294
191 295
191 296
191 297
191 298
191 299
191 300
191 302
191 303
191 304
191 305
191 306
191 307
191 309
191 310
191 311
191 312
191 313
191 314
191 315
191 316
191 317
191 318
191 319
191 320
191 321
191 322
191 323
191 324
191 325
191 326
191 327
191 329
191 330
191 337
191 340
191 344
191 345
191 347
191 348
191 353
191 354
191 355
191 356
191 357
191 358
191 359
191 360
191 361
191 362
191 364
191 365
191 366
191 367
191 368
191 369
191 370
191 371
191 372
191 374
191 375
191 376
191 377
191 378
191 379
191 380
191 382
191 389
191 392
191 393
191 394
191 395
191 402
191 403
191 405
191 406
191 407
191 408
191 409
191 410
191 411
191 412
191 413
191 414
191 416
191 418
191 420
191 421
191 422
191 424
191 426
191 427
191 428
191 429
191 431
191 432
191 433
191 434
191 435
191 436
191 437
191 438
191 439
191 441
191 445
191 451
191 452
191 453
191 455
191 457
191 459
191 460
191 462
191 463
191 464
191 465
191 466
191 467
191 468
191 469
191 470
191 471
191 472
191 473
191 474
191 476
191 478
191 480
191 481
191 483
191 484
191 485
191 486
191 487
191 488
191 489
191 490
191 491
191 492
191 494
192 193
192 194
192 195
192 196
192 197
192 198
192 199
192 200
192 201
192 202
192 203
192 204
192 205
192 206
192 207
192 208
192 209
192 210
192 211
192 212
192 213
192 214
192 215
192 216
192 217
192 218
192 219
192 220
192 221
192 222
192 223
192 227
192 230
192 232
192 234
192 235
192 237
192 238
192 239
192 240
192 242
192 243
192 244
192 245
192 246
192 247
192 249
192 250
192 252
192 253
192 254
192 255
192 256
192 264
192 266
192 268
192 273
192 275
192 277
192 279
192 280
192 281
192 283
192 284
192 285
192 286
192 288
192 291
192 292
192 297
192 298
192 300
192 303
192 306
192 308
192 311
192 318
192 319
192 320
192 321
192 324
192 325
192 327
192 328
192 329
192 330
192 337
192 340
192 344
192 345
192 347
192 348
192 352
192 354
192 355
192 356
192 359
192 360
192 361
192 362
192 363
192 368
192 369
192 372
192 373
192 378
192 380
192 382
192 389
192 391
192 392
192 393
192 394
192 395
192 403
192 404
192 409
192 411
192 413
192 414
192 416
192 418
192 420
192 421
192 422
192 424
192 426
192 429
192 430
192 436
192 438
192 441
192 445
192 451
192 452
192 453
192 455
192 457
192 459
192 460
192 461
192 464
192 465
192 467
192 470
192 471
192 472
192 473
192 476
192 478
192 480
192 481
192 482
192 486
192 488
192 489
192 490
192 491
192 492
192 494
193 194
193 195
193 196
193 197
193 198
193 199
193 200
193 201
193 202
193 203
193 204
193 205
193 206
193 207
193 208
193 209
193 210
193 211
193 212
193 213
193 214
193 215
193 216
193 217
193 218
193 219
193 220
193 221
193 222
193 223
193 227
193 230
193 232
193 234
193 235
193 236
193 238
193 239
193 240
193 242
193 243
193 244
193 245
193 247
193 248
193 249
193 250
193 251
193 253
193 254
193 255
193 256
193 264
193 266
193 268
193 273
193 275
193 277
193 279
193 280
193 281
193 283
193 284
193 285
193 286
193 288
193 291
193 292
193 297
193 298
193 300
193 303
193 306
193 308
193 311
193 318
193 319
193 320
193 321
193 324
193 325
193 326
193 327
193 329
193 330
193 337
193 340
193 344
193 345
193 347
193 348
193 352
193 354
193 355
193 356
193 359
193 360
193 361
193 362
193 363
193 368
193 369
193 372
193 373
193 378
193 380
193 382
193 389
193 391
193 392
193 393
193 394
193 395
193 403
193 404
193 409
193 411
193 413
193 414
193 416
193 418
193 420
193 421
193 422
193 424
193 426
193 429
193 430
193 436
193 438
193 441
193 445
193 451
193 452
193 453
193 455
193 457
193 459
193 460
193 461
193 464
193 465
193 467
193 470
193 471
193 472
193 473
193 476
193 478
193 480
193 481
193 482
193 486
193 488
193 489
193 490
193 491
193 492
193 494
194 195
194 196
194 197
194 198
194 199
194 200
194 201
194 202
194 203
194 204
194 205
194 206
194 207
194 208
194 209
194 210
194 211
194 212
194 213
194 214
194 215
194 216
194 217
194 218
194 219
194 220
194 221
194 222
194 223
194 227
194 230
194 232
194 234
194 235
194 236
194 237
194 239
194 240
194 242
194 243
194 244
194 245
194 246
194 248
194 249
194 250
194 251
194 252
194 254
194 255
194 256
194 264
194 266
194 268
194 273
194 275
194 277
194 279
194 280
194 281
194 283
194 284
194 285
194 286
194 288
194 291
194 292
194 297
194 298
194 300
194 303
194 306
194 308
194 311
194 318
194 319
194 320
194 321
194 324
194 325
194 326
194 328
194 329
194 330
194 337
194 340
194 344
194 345
194 347
194 348
194 352
194 354
194 355
194 356
194 359
194 360
194 361
194 362
194 363
194 368
194 369
194 372
194 373
194 378
194 380
194 382
194 389
194 391
194 392
194 393
194 394
194 395
194 403
194 404
194 409
194 411
194 413
194 414
194 416
194 418
194 420
194 421
194 422
194 424
194 426
194 429
194 430
194 436
194 438
194 441
194 445
194 451
194 452
194 453
194 455
194 457
194 459
194 460
194 461
194 464
194 465
194 467
194 470
194 471
194 472
194 473
194 476
194 478
194 480
194 481
194 482
194 486
194 488
194 489
194 490
194 491
194 492
194 494
195 196
195 197
195 198
195 199
195 200
195 201
195 202
195 203
195 204
195 205
195 206
195 207
195 208
195 209
195 210
195 211
195 212
195 213
195 214
195 215
195 216
195 217
195 218
195 219
195 220
195 221
195 222
195 223
195 227
195 230
195 232
195 234
195 235
195 236
195 237
195 239
195 240
195 242
195 243
195 244
195 245
195 246
195 247
195 249
195 250
195 251
195 252
195 253
195 255
195 256
195 264
195 266
195 268
195 273
195 275
195 277
195 279
195 280
195 281
195 283
195 284
195 285
195 286
195 288
195 291
195 292
195 297
195 298
195 301
195 302
195 303
195 304
195 305
195 306
195 307
195 308
195 309
195 310
195 312
195 313
195 314
195 315
195 316
195 317
195 318
195 319
195 320
195 321
195 322
195 323
195 324
195 325
195 326
195 327
195 329
195 330
195 337
195 338
195 339
195 341
195 342
195 343
195 344
195 345
195 346
195 347
195 348
195 349
195 350
195 351
195 352
195 353
195 355
195 356
195 357
195 358
195 359
195 360
195 361
195 362
195 363
195 368
195 369
195 372
195 373
195 378
195 380
195 382
195 389
195 391
195 392
195 393
195 394
195 395
195 403
195 404
195 409
195 411
195 413
195 414
195 415
195 417
195 418
195 419
195 420
195 421
195 422
195 423
195 425
195 426
195 429
195 430
195 436
195 438
195 441
195 445
195 451
195 452
195 453
195 455
195 457
195 459
195 460
195 461
195 462
195 463
195 465
195 466
195 467
195 468
195 469
195 470
195 471
195 472
195 473
195 474
195 476
195 478
195 480
195 481
195 482
195 486
195 488
195 489
195 490
195 491
195 493
195 494
196 197
196 198
196 199
196 200
196 201
196 202
196 203
196 204
196 205
196 206
196 207
196 208
196 209
196 210
196 211
196 212
196 213
196 214
196 215
196 216
196 217
196 218
196 219
196 220
196 221
196 222
196 224
196 227
196 230
196 232
196 234
196 235
196 236
196 237
196 239
196 240
196 242
196 244
196 245
196 246
196 247
196 249
196 250
196 251
196 252
196 253
196 255
196 256
196 264
196 266
196 268
196 273
196 275
196 277
196 279
196 280
196 281
196 283
196 284
196 285
196 286
196 288
196 291
196 292
196 297
196 298
196 300
196 303
196 306
196 308
196 311
196 318
196 319
196 320
196 321
196 324
196 325
196 326
196 327
196 329
196 330
196 337
196 340
196 344
196 345
196 347
196 348
196 352
196 353
196 354
196 356
196 357
196 358
196 359
196 360
196 361
196 362
196 363
196 368
196 369
196 372
196 373
196 378
196 380
196 382
196 389
196 391
196 393
196 394
196 395
196 403
196 404
196 409
196 411
196 413
196 414
196 416
196 418
196 420
196 421
196 422
196 424
196 426
196 429
196 430
196 436
196 438
196 440
196 441
196 442
196 443
196 444
196 446
196 447
196 448
196 449
196 450
196 451
196 452
196 453
196 454
196 455
196 456
196 457
196 458
196 459
196 460
196 461
196 464
196 465
196 467
196 470
196 471
196 472
196 473
196 476
196 478
196 480
196 481
196 482
196 486
196 488
196 489
196 490
196 491
196 492
196 494
197 198
197 199
197 200
197 201
197 202
197 203
197 204
197 205
197 206
197 207
197 208
197 209
197 210
197 211
197 212
197 213
197 214
197 215
197 216
197 217
197 218
197 219
197 220
197 221
197 222
197 223
197 227
197 230
197 232
197 234
197 235
197 236
197 237
197 239
197 240
197 242
197 243
197 244
197 245
197 246
197 247
197 249
197 250
197 251
197 252
197 253
197 255
197 256
197 264
197 266
197 268
197 273
197 275
197 277
197 279
197 280
197 281
197 283
197 284
197 285
197 286
197 288
197 291
197 292
197 297
197 298
197 300
197 303
197 306
197 308
197 311
197 318
197 319
197 320
197 321
197 324
197 325
197 326
197 327
197 329
197 330
197 337
197 340
197 344
197 345
197 347
197 348
197 352
197 353
197 354
197 355
197 357
197 358
197 359
197 360
197 361
197 362
197 363
197 368
197 369
197 372
197 373
197 378
197 380
197 382
197 389
197 391
197 392
197 393
197 394
197 395
197 403
197 404
197 409
197 411
197 413
197 414
197 416
197 418
197 420
197 421
197 422
197 424
197 426
197 429
197 430
197 436
197 438
197 441
197 445
197 451
197 452
197 453
197 455
197 457
197 459
197 460
197 461
197 464
197 465
197 467
197 470
197 471
197 472
197 473
197 476
197 478
197 480
197 481
197 482
197 486
197 488
197 489
197 490
197 491
197 492
197 494
198 199
198 200
198 201
198 202
198 203
198 204
198 205
198 206
198 207
198 208
198 209
198 210
198 211
198 212
198 213
198 214
198 215
198 216
198 217
198 218
198 219
198 220
198 221
198 222
198 223
198 227
198 230
198 232
198 234
198 235
198 236
198 237
198 239
198 240
198 242
198 243
198 244
198 245
198 246
198 247
198 249
198 250
198 251
198 252
198 253
198 255
198 256
198 264
198 266
198 268
198 273
198 275
198 277
198 279
198 280
198 281
198 283
198 284
198 285
198 286
198 288
198 291
198 292
198 297
198 298
198 300
198 303
198 306
198 308
198 311
198 318
198 319
198 320
198 321
198 324
198 325
198 326
198 327
198 329
198 330
198 337
198 340
198 344
198 345
198 347
198 348
198 352
198 354
198 355
198 356
198 359
198 360
198 361
198 362
198 363
198 368
198 369
198 372
198 373
198 378
198 380
198 382
198 389
198 391
198 392
198 393
198 394
198 395
198 403
198 404
198 409
198 411
198 413
198 414
198 416
198 418
198 420
198 421
198 422
198 424
198 426
198 429
198 430
198 436
198 438
198 441
198 445
198 451
198 452
198 453
198 455
198 457
198 459
198 460
198 461
198 464
198 465
198 467
198 470
198 471
198 472
198 473
198 476
198 478
198 480
198 481
198 482
198 486
198 488
198 489
198 490
198 491
198 492
198 494
199 200
199 201
199 202
199 203
199 204
199 205
199 206
199 207
199 208
199 209
199 210
199 211
199 212
199 213
199 214
199 215
199 216
199 217
199 218
199 219
199 220
199 221
199 222
199 223
199 227
199 230
199 232
199 234
199 235
199 236
199 237
199 239
199 240
199 242
199 243
199 244
199 245
199 246
199 247
199 249
199 250
199 251
199 252
199 253
199 255
199 256
199 264
199 266
199 268
199 273
199 275
199 277
199 279
199 280
199 282
199 283
199 284
199 285
199 286
199 288
199 291
199 292
199 297
199 298
199 300
199 303
199 306
199 308
199 311
199 318
199 319
199 320
199 321
199 324
199 325
199 326
199 327
199 329
199 330
199 337
199 340
199 344
199 345
199 347
199 348
199 352
199 354
199 355
199 356
199 359
199 360
199 361
199 362
199 363
199 368
199 369
199 372
199 373
199 378
199 380
199 382
199 389
199 391
199 392
199 393
199 394
199 395
199 403
199 404
199 409
199 411
199 413
199 414
199 416
199 418
199 420
199 421
199 422
199 424
199 426
199 429
199 430
199 436
199 438
199 441
199 445
199 451
199 452
199 453
199 455
199 457
199 459
199 460
199 461
199 462
199 463
199 464
199 466
199 467
199 468
199 469
199 470
199 471
199 472
199 473
199 474
199 476
199 478
199 480
199 481
199 482
199 483
199 484
199 485
199 487
199 488
199 489
199 490
199 491
199 492
199 494
200 201
200 202
200 203
200 204
200 205
200 206
200 207
200 208
200 209
200 210
200 211
200 212
200 213
200 214
200 215
200 216
200 217
200 218
200 219
200 220
200 221
200 222
200 223
200 227
200 230
200 232
200 234
200 235
200 236
200 237
200 238
200 240
200 242
200 243
200 244
200 245
200 246
200 247
200 248
200 250
200 251
200 252
200 253
200 254
200 256
200 264
200 266
200 268
200 273
200 275
200 277
200 279
200 280
200 281
200 283
200 284
200 285
200 286
200 288
200 291
200 292
200 297
200 298
200 300
200 303
200 306
200 308
200 311
200 318
200 319
200 320
200 321
200 324
200 325
200 326
200 327
200 328
200 330
200 337
200 340
200 344
200 345
200 347
200 348
200 352
200 354
200 355
200 356
200 359
200 360
200 361
200 362
200 363
200 368
200 369
200 372
200 373
200 378
200 380
200 382
200 389
200 391
200 392
200 393
200 394
200 395
200 403
200 404
200 409
200 411
200 413
200 414
200 416
200 418
200 420
200 421
200 422
200 424
200 426
200 429
200 430
200 436
200 438
200 441
200 445
200 451
200 452
200 453
200 455
200 457
200 459
200 460
200 461
200 464
200 465
200 467
200 470
200 471
200 472
200 473
200 476
200 478
200 480
200 481
200 482
200 486
200 488
200 489
200 490
200 491
200 492
200 494
201 202
201 203
201 204
201 205
201 206
201 207
201 208
201 209
201 210
201 211
201 212
201 213
201 214
201 215
201 216
201 217
201 218
201 219
201 220
201 221
201 222
201 223
201 227
201 230
201 232
201 234
201 235
201 236
201 237
201 239
201 240
201 242
201 243
201 244
201 245
201 246
201 247
201 249
201 250
201 251
201 252
201 253
201 255
201 256
201 264
201 266
201 268
201 273
201 275
201 277
201 279
201 280
201 281
201 283
201 284
201 285
201 286
201 287
201 291
201 292
201 297
201 298
201 300
201 303
201 306
201 308
201 311
201 318
201 319
201 320
201 321
201 324
201 325
201 326
201 327
201 329
201 330
201 337
201 340
201 344
201 345
201 347
201 348
201 352
201 354
201 355
201 356
201 359
201 360
201 361
201 362
201 363
201 368
201 369
201 372
201 373
201 378
201 380
201 382
201 389
201 391
201 392
201 393
201 394
201 395
201 403
201 404
201 409
201 411
201 413
201 414
201 416
201 418
201 420
201 421
201 422
201 424
201 426
201 429
201 430
201 436
201 438
201 441
201 445
201 451
201 452
201 453
201 455
201 457
201 459
201 460
201 461
201 464
201 465
201 467
201 470
201 471
201 472
201 473
201 476
201 478
201 481
201 482
201 486
201 488
201 489
201 490
201 491
201 492
201 494
202 203
202 204
202 205
202 206
202 207
202 208
202 209
202 210
202 211
202 212
202 213
202 214
202 215
202 216
202 217
202 218
202 219
202 220
202 221
202 222
202 223
202 227
202 230
202 232
202 234
202 235
202 236
202 237
202 239
202 240
202 242
202 243
202 244
202 245
202 246
202 247
202 249
202 250
202 251
202 252
202 253
202 255
202 256
202 264
202 266
202 268
202 273
202 275
202 278
202 279
202 280
202 281
202 283
202 284
202 285
202 286
202 288
202 291
202 292
202 297
202 298
202 300
202 303
202 306
202 308
202 311
202 318
202 319
202 320
202 321
202 324
202 325
202 326
202 327
202 329
202 330
202 337
202 338
202 339
202 340
202 341
202 342
202 343
202 345
202 346
202 347
202 348
202 349
202 350
202 351
202 352
202 353
202 354
202 355
202 356
202 357
202 358
202 360
202 361
202 362
202 363
202 368
202 369
202 372
202 373
202 378
202 380
202 382
202 389
202 391
202 392
202 393
202 394
202 395
202 403
202 404
202 409
202 411
202 413
202 414
202 415
202 416
202 417
202 419
202 420
202 421
202 422
202 424
202 426
202 429
202 430
202 436
202 438
202 441
202 445
202 451
202 452
202 453
202 455
202 457
202 459
202 460
202 461
202 462
202 463
202 464
202 465
202 466
202 468
202 469
202 470
202 471
202 472
202 473
202 474
202 476
202 478
202 480
202 481
202 482
202 483
202 484
202 485
202 486
202 487
202 489
202 490
202 491
202 492
202 494
203 204
203 205
203 206
203 207
203 208
203 209
203 210
203 211
203 212
203 213
203 214
203 215
203 216
203 217
203 218
203 219
203 220
203 221
203 222
203 223
203 227
203 230
203 232
203 234
203 235
203 236
203 237
203 239
203 240
203 242
203 243
203 244
203 245
203 246
203 247
203 249
203 250
203 251
203 252
203 253
203 255
203 256
203 264
203 266
203 268
203 273
203 275
203 277
203 279
203 280
203 281
203 283
203 284
203 285
203 286
203 288
203 291
203 292
203 297
203 298
203 300
203 303
203 306
203 308
203 311
203 318
203 319
203 320
203 321
203 324
203 325
203 326
203 327
203 329
203 330
203 337
203 338
203 339
203 340
203 341
203 342
203 343
203 344
203 346
203 347
203 348
203 349
203 350
203 351
203 352
203 354
203 355
203 356
203 359
203 360
203 361
203 362
203 363
203 368
203 369
203 372
203 373
203 378
203 380
203 382
203 389
203 391
203 392
203 393
203 394
203 395
203 403
203 404
203 409
203 411
203 413
203 414
203 416
203 418
203 420
203 421
203 422
203 424
203 426
203 429
203 430
203 436
203 438
203 441
203 445
203 451
203 452
203 453
203 455
203 457
203 459
203 460
203 461
203 464
203 465
203 467
203 470
203 471
203 472
203 473
203 476
203 478
203 480
203 481
203 482
203 486
203 488
203 489
203 490
203 491
203 492
203 494
204 205
204 206
204 207
204 208
204 209
204 210
204 211
204 212
204 213
204 214
204 215
204 216
204 217
204 218
204 219
204 220
204 221
204 222
204 223
204 227
204 230
204 232
204 234
204 235
204 236
204 237
204 239
204 240
204 242
204 243
204 244
204 245
204 246
204 247
204 249
204 250
204 251
204 252
204 253
204 255
204 256
204 264
204 266
204 268
204 273
204 275
204 277
204 279
204 280
204 281
204 283
204 284
204 285
204 286
204 288
204 291
204 292
204 297
204 298
204 300
204 303
204 306
204 308
204 311
204 318
204 319
204 320
204 321
204 324
204 325
204 326
204 327
204 329
204 330
204 337
204 340
204 344
204 345
204 347
204 348
204 352
204 354
204 355
204 356
204 359
204 360
204 361
204 362
204 363
204 368
204 369
204 372
204 373
204 378
204 380
204 382
204 389
204 391
204 392
204 393
204 394
204 395
204 403
204 404
204 409
204 411
204 413
204 414
204 416
204 418
204 420
204 421
204 422
204 424
204 426
204 429
204 430
204 436
204 438
204 441
204 445
204 451
204 452
204 453
204 455
204 457
204 459
204 460
204 461
204 464
204 465
204 467
204 470
204 471
204 472
204 473
204 476
204 478
204 480
204 481
204 482
204 486
204 488
204 489
204 490
204 491
204 492
204 494
205 206
205 207
205 208
205 209
205 210
205 211
205 212
205 213
205 214
205 215
205 216
205 217
205 218
205 219
205 220
205 221
205 222
205 223
205 227
205 230
205 232
205 234
205 235
205 236
205 237
205 239
205 240
205 242
205 243
205 244
205 245
205 246
205 247
205 249
205 250
205 251
205 252
205 253
205 255
205 256
205 264
205 266
205 268
205 273
205 275
205 277
205 279
205 280
205 281
205 282
205 284
205 285
205 286
205 288
205 291
205 292
205 297
205 298
205 300
205 302
205 303
205 304
205 305
205 306
205 307
205 308
205 309
205 310
205 311
205 312
205 313
205 314
205 315
205 316
205 317
205 319
205 320
205 321
205 322
205 323
205 324
205 325
205 326
205 327
205 329
205 330
205 337
205 340
205 344
205 345
205 347
205 348
205 352
205 354
205 355
205 356
205 359
205 360
205 361
205 362
205 363
205 368
205 369
205 372
205 373
205 378
205 380
205 382
205 389
205 391
205 392
205 393
205 394
205 395
205 403
205 404
205 409
205 411
205 413
205 414
205 415
205 416
205 417
205 418
205 419
205 421
205 422
205 424
205 426
205 429
205 430
205 436
205 438
205 441
205 445
205 451
205 452
205 453
205 455
205 457
205 459
205 460
205 461
205 462
205 463
205 464
205 465
205 466
205 467
205 468
205 469
205 471
205 472
205 473
205 474
205 476
205 478
205 480
205 481
205 482
205 483
205 484
205 485
205 486
205 487
205 488
205 490
205 491
205 492
205 494
206 207
206 208
206 209
206 210
206 211
206 212
206 213
206 214
206 215
206 216
206 217
206 218
206 219
206 220
206 221
206 222
206 223
206 227
206 230
206 232
206 234
206 235
206 236
206 237
206 239
206 240
206 241
206 243
206 244
206 245
206 246
206 247
206 249
206 250
206 251
206 252
206 253
206 255
206 256
206 264
206 266
206 268
206 273
206 275
206 277
206 278
206 280
206 281
206 282
206 283
206 285
206 286
206 288
206 291
206 292
206 297
206 298
206 300
206 302
206 303
206 304
206 305
206 306
206 307
206 308
206 309
206 310
206 311
206 312
206 313
206 314
206 315
206 316
206 317
206 318
206 320
206 321
206 322
206 323
206 324
206 325
206 326
206 327
206 329
206 330
206 337
206 338
206 339
206 340
206 341
206 342
206 343
206 344
206 345
206 346
206 348
206 349
206 350
206 351
206 352
206 353
206 354
206 355
206 356
206 357
206 358
206 359
206 361
206 362
206 363
206 368
206 369
206 372
206 373
206 378
206 380
206 382
206 389
206 391
206 392
206 393
206 394
206 395
206 403
206 404
206 409
206 411
206 413
206 414
206 415
206 416
206 417
206 418
206 419
206 420
206 422
206 424
206 426
206 429
206 430
206 436
206 438
206 440
206 441
206 442
206 443
206 444
206 445
206 446
206 447
206 448
206 449
206 450
206 452
206 453
206 454
206 455
206 456
206 457
206 458
206 459
206 460
206 461
206 464
206 465
206 467
206 470
206 471
206 472
206 473
206 476
206 478
206 480
206 481
206 482
206 483
206 484
206 485
206 486
206 487
206 488
206 489
206 491
206 492
206 494
207 208
207 209
207 210
207 211
207 212
207 213
207 214
207 215
207 216
207 217
207 218
207 219
207 220
207 221
207 222
207 223
207 227
207 230
207 232
207 234
207 235
207 236
207 237
207 239
207 240
207 242
207 243
207 244
207 245
207 246
207 247
207 249
207 250
207 251
207 252
207 253
207 255
207 256
207 264
207 266
207 268
207 273
207 275
207 277
207 279
207 280
207 281
207 282
207 283
207 284
207 286
207 288
207 291
207 292
207 297
207 298
207 300
207 302
207 303
207 304
207 305
207 306
207 307
207 308
207 309
207 310
207 311
207 312
207 313
207 314
207 315
207 316
207 317
207 318
207 319
207 321
207 322
207 323
207 324
207 325
207 326
207 327
207 329
207 330
207 337
207 340
207 344
207 345
207 347
207 348
207 352
207 354
207 355
207 356
207 359
207 360
207 361
207 362
207 363
207 368
207 369
207 372
207 373
207 378
207 380
207 382
207 389
207 391
207 392
207 393
207 394
207 395
207 403
207 404
207 409
207 411
207 413
207 414
207 415
207 416
207 417
207 418
207 419
207 420
207 421
207 424
207 426
207 429
207 430
207 436
207 438
207 441
207 445
207 451
207 452
207 453
207 455
207 457
207 459
207 460
207 461
207 462
207 463
207 464
207 465
207 466
207 467
207 468
207 469
207 470
207 472
207 473
207 474
207 476
207 478
207 480
207 481
207 482
207 483
207 484
207 485
207 486
207 487
207 488
207 489
207 490
207 492
207 494
208 209
208 210
208 211
208 212
208 213
208 214
208 215
208 216
208 217
208 218
208 219
208 220
208 221
208 222
208 223
208 227
208 230
208 232
208 234
208 235
208 236
208 237
208 239
208 240
208 242
208 243
208 244
208 245
208 246
208 247
208 249
208 250
208 251
208 252
208 253
208 255
208 256
208 264
208 266
208 268
208 273
208 275
208 277
208 279
208 280
208 281
208 283
208 284
208 285
208 286
208 288
208 291
208 292
208 297
208 298
208 300
208 303
208 306
208 308
208 311
208 318
208 319
208 320
208 321
208 324
208 325
208 326
208 327
208 329
208 330
208 337
208 340
208 344
208 345
208 347
208 348
208 352
208 354
208 355
208 356
208 359
208 360
208 361
208 362
208 363
208 364
208 365
208 366
208 367
208 369
208 372
208 373
208 378
208 380
208 382
208 389
208 391
208 392
208 394
208 395
208 403
208 404
208 409
208 411
208 413
208 414
208 416
208 418
208 420
208 421
208 422
208 424
208 426
208 429
208 430
208 436
208 438
208 440
208 441
208 442
208 443
208 444
208 445
208 446
208 447
208 448
208 449
208 450
208 451
208 453
208 454
208 455
208 456
208 457
208 458
208 459
208 460
208 461
208 462
208 463
208 464
208 465
208 466
208 467
208 468
208 469
208 470
208 471
208 473
208 474
208 476
208 478
208 480
208 481
208 482
208 486
208 488
208 489
208 490
208 491
208 492
208 493
209 210
209 211
209 212
209 213
209 214
209 215
209 216
209 217
209 218
209 219
209 220
209 221
209 222
209 223
209 227
209 230
209 232
209 234
209 235
209 236
209 237
209 239
209 240
209 242
209 243
209 244
209 245
209 246
209 247
209 249
209 250
209 251
209 252
209 253
209 255
209 256
209 264
209 266
209 268
209 273
209 275
209 277
209 279
209 280
209 281
209 283
209 284
209 285
209 286
209 288
209 291
209 292
209 297
209 298
209 300
209 303
209 306
209 308
209 311
209 318
209 319
209 320
209 321
209 324
209 325
209 326
209 327
209 329
209 330
209 337
209 338
209 339
209 340
209 341
209 342
209 343
209 344
209 345
209 346
209 347
209 349
209 350
209 351
209 352
209 354
209 355
209 356
209 359
209 360
209 361
209 362
209 363
209 368
209 369
209 372
209 373
209 378
209 380
209 382
209 389
209 391
209 392
209 393
209 394
209 395
209 403
209 404
209 409
209 411
209 413
209 414
209 416
209 418
209 420
209 421
209 422
209 424
209 426
209 429
209 430
209 436
209 438
209 441
209 445
209 451
209 452
209 453
209 455
209 457
209 459
209 460
209 461
209 464
209 465
209 467
209 470
209 471
209 472
209 473
209 476
209 478
209 480
209 481
209 482
209 486
209 488
209 489
209 490
209 491
209 492
209 494
210 211
210 212
210 213
210 214
210 215
210 216
210 217
210 218
210 219
210 220
210 221
210 222
210 223
210 227
210 230
210 232
210 234
210 235
210 236
210 237
210 239
210 240
210 242
210 243
210 244
210 245
210 246
210 247
210 249
210 250
210 251
210 252
210 253
210 255
210 256
210 264
210 266
210 268
210 273
210 275
210 277
210 279
210 280
210 281
210 283
210 284
210 285
210 286
210 288
210 291
210 292
210 297
210 298
210 300
210 303
210 306
210 308
210 311
210 318
210 319
210 320
210 321
210 324
210 325
210 326
210 327
210 329
210 330
210 337
210 340
210 344
210 345
210 347
210 348
210 352
210 354
210 355
210 356
210 359
210 360
210 361
210 362
210 363
210 368
210 369
210 372
210 373
210 378
210 380
210 382
210 389
210 391
210 392
210 393
210 394
210 395
210 403
210 404
210 409
210 411
210 413
210 414
210 416
210 418
210 420
210 421
210 422
210 424
210 426
210 429
210 430
210 436
210 438
210 441
210 445
210 451
210 452
210 453
210 455
210 457
210 459
210 460
210 461
210 464
210 465
210 467
210 470
210 471
210 472
210 473
210 476
210 478
210 480
210 481
210 482
210 486
210 488
210 489
210 490
210 491
210 492
210 494
211 212
211 213
211 214
211 215
211 216
211 217
211 218
211 219
211 220
211 221
211 222
211 223
211 227
211 230
211 232
211 234
211 235
211 236
211 237
211 239
211 240
211 242
211 243
211 244
211 245
211 246
211 247
211 249
211 250
211 251
211 252
211 253
211 255
211 256
211 264
211 266
211 268
211 273
211 275
211 277
211 279
211 280
211 281
211 283
211 284
211 285
211 286
211 288
211 291
211 292
211 297
211 298
211 300
211 303
211 306
211 308
211 311
211 318
211 319
211 320
211 321
211 324
211 325
211 326
211 327
211 329
211 330
211 337
211 340
211 344
211 345
211 347
211 348
211 352
211 354
211 355
211 356
211 359
211 360
211 361
211 362
211 363
211 368
211 369
211 372
211 373
211 378
211 380
211 382
211 389
211 391
211 392
211 393
211 394
211 395
211 403
211 404
211 409
211 411
211 413
211 414
211 416
211 418
211 420
211 421
211 422
211 424
211 426
211 429
211 430
211 436
211 438
211 441
211 445
211 451
211 452
211 453
211 455
211 457
211 459
211 460
211 461
211 464
211 465
211 467
211 470
211 471
211 472
211 473
211 476
211 478
211 480
211 481
211 482
211 486
211 488
211 489
211 490
211 491
211 492
211 494
212 213
212 214
212 215
212 216
212 217
212 218
212 219
212 220
212 221
212 222
212 223
212 227
212 230
212 232
212 234
212 235
212 236
212 237
212 239
212 240
212 242
212 243
212 244
212 245
212 246
212 247
212 249
212 250
212 251
212 252
212 253
212 255
212 256
212 264
212 266
212 268
212 273
212 275
212 277
212 279
212 280
212 281
212 283
212 284
212 285
212 286
212 288
212 291
212 292
212 297
212 298
212 300
212 303
212 306
212 308
212 311
212 318
212 319
212 320
212 321
212 324
212 325
212 326
212 327
212 329
212 330
212 337
212 340
212 344
212 345
212 347
212 348
212 352
212 353
212 354
212 355
212 356
212 357
212 358
212 359
212 360
212 362
212 363
212 368
212 369
212 372
212 373
212 378
212 380
212 382
212 389
212 391
212 392
212 393
212 394
212 395
212 403
212 404
212 409
212 411
212 413
212 414
212 416
212 418
212 420
212 421
212 422
212 424
212 426
212 429
212 430
212 436
212 438
212 441
212 445
212 451
212 452
212 453
212 455
212 457
212 459
212 460
212 461
212 464
212 465
212 467
212 470
212 471
212 472
212 473
212 476
212 478
212 480
212 481
212 482
212 486
212 488
212 489
212 490
212 491
212 492
212 494
213 214
213 215
213 216
213 217
213 218
213 219
213 220
213 221
213 222
213 223
213 225
213 226
213 227
213 228
213 229
213 231
213 232
213 233
213 234
213 235
213 236
213 237
213 239
213 240
213 242
213 243
213 244
213 245
213 246
213 247
213 249
213 250
213 251
213 252
213 253
213 255
213 256
213 264
213 266
213 267
213 268
213 269
213 270
213 271
213 272
213 274
213 275
213 276
213 277
213 279
213 280
213 281
213 283
213 284
213 285
213 286
213 288
213 289
213 290
213 291
213 292
213 293
213 294
213 295
213 296
213 298
213 299
213 300
213 302
213 303
213 304
213 305
213 306
213 307
213 308
213 309
213 310
213 311
213 312
213 313
213 314
213 315
213 316
213 317
213 318
213 319
213 320
213 322
213 323
213 324
213 325
213 326
213 327
213 329
213 330
213 337
213 340
213 344
213 345
213 347
213 348
213 352
213 354
213 355
213 356
213 359
213 360
213 361
213 362
213 363
213 368
213 369
213 370
213 371
213 372
213 373
213 374
213 375
213 376
213 377
213 379
213 380
213 382
213 389
213 391
213 392
213 393
213 394
213 395
213 402
213 403
213 404
213 405
213 406
213 407
213 408
213 410
213 411
213 412
213 413
213 414
213 416
213 418
213 420
213 421
213 422
213 424
213 426
213 427
213 428
213 429
213 430
213 431
213 432
213 433
213 434
213 435
213 437
213 438
213 439
213 440
213 441
213 442
213 443
213 444
213 445
213 446
213 447
213 448
213 449
213 450
213 451
213 452
213 454
213 455
213 456
213 457
213 458
213 459
213 460
213 461
213 464
213 465
213 467
213 470
213 471
213 472
213 473
213 476
213 478
213 480
213 481
213 482
213 486
213 488
213 489
213 490
213 491
213 492
213 494
214 215
214 216
214 217
214 218
214 219
214 220
214 221
214 222
214 223
214 227
214 230
214 232
214 234
214 235
214 236
214 237
214 239
214 240
214 242
214 243
214 244
214 245
214 246
214 247
214 249
214 250
214 251
214 252
214 253
214 255
214 256
214 264
214 266
214 268
214 273
214 275
214 277
214 279
214 280
214 281
214 283
214 284
214 285
214 286
214 288
214 291
214 292
214 297
214 298
214 300
214 303
214 306
214 308
214 311
214 318
214 319
214 320
214 321
214 324
214 325
214 326
214 327
214 329
214 330
214 337
214 340
214 344
214 345
214 347
214 348
214 352
214 354
214 355
214 356
214 359
214 360
214 361
214 362
214 363
214 368
214 369
214 372
214 373
214 378
214 380
214 382
214 389
214 391
214 392
214 393
214 394
214 395
214 403
214 404
214 409
214 411
214 413
214 414
214 416
214 418
214 420
214 421
214 422
214 424
214 426
214 429
214 430
214 436
214 438
214 441
214 445
214 451
214 452
214 453
214 455
214 457
214 459
214 460
214 461
214 464
214 465
214 467
214 470
214 471
214 472
214 473
214 476
214 478
214 480
214 481
214 482
214 486
214 488
214 489
214 490
214 491
214 492
214 494
215 216
215 217
215 218
215 219
215 220
215 221
215 222
215 223
215 227
215 230
215 232
215 234
215 235
215 236
215 237
215 239
215 240
215 242
215 243
215 244
215 245
215 246
215 247
215 249
215 250
215 251
215 252
215 253
215 255
215 256
215 264
215 266
215 268
215 273
215 275
215 277
215 279
215 280
215 281
215 283
215 284
215 285
215 286
215 288
215 291
215 292
215 297
215 298
215 300
215 303
215 306
215 308
215 311
215 318
215 319
215 320
215 321
215 324
215 325
215 326
215 327
215 329
215 330
215 337
215 340
215 344
215 345
215 347
215 348
215 352
215 354
215 355
215 356
215 359
215 360
215 361
215 362
215 363
215 368
215 369
215 372
215 373
215 378
215 380
215 382
215 389
215 391
215 392
215 393
215 394
215 395
215 403
215 404
215 409
215 411
215 413
215 414
215 416
215 418
215 420
215 421
215 422
215 424
215 426
215 429
215 430
215 436
215 438
215 441
215 445
215 451
215 452
215 453
215 455
215 457
215 459
215 460
215 461
215 464
215 465
215 467
215 470
215 471
215 472
215 473
215 476
215 478
215 480
215 481
215 482
215 486
215 488
215 489
215 490
215 491
215 492
215 494
216 217
216 218
216 219
216 220
216 221
216 222
216 223
216 225
216 226
216 227
216 228
216 229
216 230
216 231
216 233
216 234
216 235
216 236
216 237
216 239
216 240
216 242
216 243
216 244
216 245
216 246
216 247
216 249
216 250
216 251
216 252
216 253
216 255
216 256
216 264
216 266
216 267
216 268
216 269
216 270
216 271
216 272
216 273
216 274
216 276
216 277
216 279
216 280
216 281
216 282
216 283
216 284
216 285
216 288
216 289
216 290
216 291
216 292
216 293
216 294
216 295
216 296
216 297
216 299
216 300
216 303
216 306
216 308
216 311
216 318
216 319
216 320
216 321
216 324
216 325
216 326
216 327
216 329
216 330
216 337
216 340
216 344
216 345
216 347
216 348
216 352
216 354
216 355
216 356
216 359
216 360
216 361
216 362
216 363
216 368
216 369
216 370
216 371
216 372
216 373
216 374
216 375
216 376
216 377
216 378
216 379
216 382
216 389
216 391
216 392
216 393
216 394
216 395
216 402
216 403
216 404
216 405
216 406
216 407
216 408
216 409
216 410
216 412
216 413
216 414
216 416
216 418
216 420
216 421
216 422
216 424
216 426
216 427
216 428
216 429
216 430
216 431
216 432
216 433
216 434
216 435
216 436
216 437
216 439
216 440
216 441
216 442
216 443
216 444
216 445
216 446
216 447
216 448
216 449
216 450
216 451
216 452
216 453
216 454
216 456
216 457
216 458
216 459
216 460
216 461
216 462
216 463
216 464
216 465
216 466
216 467
216 468
216 469
216 470
216 471
216 472
216 474
216 475
216 477
216 480
216 481
216 482
216 486
216 488
216 489
216 490
216 491
216 492
216 494
217 218
217 219
217 220
217 221
217 222
217 223
217 227
217 230
217 232
217 234
217 235
217 236
217 237
217 239
217 240
217 242
217 243
217 244
217 245
217 246
217 247
217 249
217 250
217 251
217 252
217 253
217 255
217 256
217 264
217 265
217 268
217 273
217 275
217 277
217 279
217 280
217 281
217 283
217 284
217 285
217 286
217 288
217 291
217 292
217 297
217 298
217 300
217 303
217 306
217 308
217 311
217 318
217 319
217 320
217 321
217 324
217 325
217 326
217 327
217 329
217 330
217 337
217 340
217 344
217 345
217 347
217 348
217 352
217 354
217 355
217 356
217 359
217 360
217 361
217 362
217 363
217 368
217 369
217 372
217 373
217 378
217 380
217 381
217 382
217 383
217 384
217 385
217 386
217 387
217 388
217 390
217 391
217 392
217 393
217 394
217 395
217 403
217 404
217 409
217 411
217 413
217 414
217 416
217 418
217 420
217 421
217 422
217 424
217 426
217 429
217 430
217 436
217 438
217 441
217 445
217 451
217 452
217 453
217 455
217 457
217 459
217 460
217 461
217 464
217 465
217 467
217 470
217 471
217 472
217 473
217 476
217 478
217 480
217 481
217 482
217 486
217 488
217 489
217 490
217 491
217 492
217 494
218 219
218 220
218 221
218 223
218 227
218 230
218 232
218 234
218 235
218 236
218 237
218 239
218 240
218 242
218 243
218 244
218 245
218 246
218 247
218 249
218 250
218 251
218 252
218 253
218 255
218 256
218 264
218 266
218 268
218 273
218 275
218 277
218 279
218 280
218 281
218 283
218 284
218 285
218 286
218 288
218 291
218 292
218 297
218 298
218 300
218 303
218 306
218 308
218 311
218 318
218 319
218 320
218 321
218 324
218 325
218 326
218 327
218 329
218 330
218 337
218 340
218 344
218 345
218 347
218 348
218 352
218 353
218 354
218 355
218 356
218 357
218 358
218 359
218 360
218 361
218 363
218 364
218 365
218 366
218 367
218 368
218 372
218 373
218 378
218 380
218 382
218 389
218 391
218 392
218 393
218 395
218 403
218 404
218 409
218 411
218 413
218 414
218 416
218 418
218 420
218 421
218 422
218 424
218 426
218 429
218 430
218 436
218 438
218 440
218 441
218 442
218 443
218 444
218 445
218 446
218 447
218 448
218 449
218 450
218 451
218 452
218 453
218 454
218 455
218 456
218 458
218 459
218 460
218 461
218 464
218 465
218 467
218 470
218 471
218 472
218 473
218 476
218 478
218 480
218 481
218 482
218 486
218 488
218 489
218 490
218 491
218 492
218 494
219 220
219 221
219 222
219 223
219 227
219 230
219 232
219 234
219 235
219 236
219 237
219 239
219 240
219 242
219 243
219 244
219 245
219 246
219 247
219 249
219 250
219 251
219 252
219 253
219 255
219 256
219 264
219 266
219 268
219 273
219 275
219 277
219 279
219 280
219 281
219 283
219 284
219 285
219 286
219 288
219 291
219 292
219 297
219 298
219 300
219 303
219 306
219 308
219 311
219 318
219 319
219 320
219 321
219 324
219 325
219 326
219 327
219 329
219 330
219 337
219 340
219 344
219 345
219 347
219 348
219 352
219 354
219 355
219 356
219 359
219 360
219 361
219 362
219 363
219 368
219 369
219 372
219 373
219 378
219 380
219 382
219 389
219 391
219 392
219 393
219 394
219 395
219 403
219 404
219 409
219 411
219 413
219 414
219 416
219 418
219 420
219 421
219 422
219 423
219 424
219 425
219 429
219 430
219 436
219 438
219 441
219 445
219 451
219 452
219 453
219 455
219 457
219 459
219 460
219 461
219 464
219 465
219 467
219 470
219 471
219 472
219 473
219 476
219 478
219 480
219 481
219 482
219 486
219 488
219 489
219 490
219 491
219 492
219 494
220 265
220 266
221 222
221 241
221 242
221 289
221 290
221 291
221 293
221 294
221 295
221 296
221 297
221 298
221 299
221 302
221 303
221 304
221 305
221 306
221 307
221 309
221 310
221 311
221 312
221 313
221 314
221 315
221 316
221 317
221 318
221 319
221 320
221 321
221 322
221 323
221 353
221 354
221 355
221 356
221 357
221 358
221 359
221 360
221 361
221 362
221 364
221 365
221 366
221 367
221 368
221 369
221 370
221 371
221 372
221 374
221 375
221 376
221 377
221 378
221 379
221 380
221 392
221 393
221 394
221 402
221 403
221 405
221 406
221 407
221 408
221 409
221 410
221 411
221 412
221 427
221 428
221 429
221 431
221 432
221 433
221 434
221 435
221 436
221 437
221 438
221 439
221 457
221 459
221 460
221 462
221 463
221 464
221 465
221 466
221 467
221 468
221 469
221 470
221 471
221 472
221 473
221 474
221 481
221 483
221 484
221 485
221 486
221 487
221 488
221 489
221 490
221 491
222 240
222 292
222 308
222 352
222 353
222 354
222 355
222 356
222 357
222 358
222 359
222 360
222 361
222 363
222 364
222 365
222 366
222 367
222 368
222 373
222 391
222 392
222 393
222 404
222 430
222 440
222 441
222 442
222 443
222 444
222 445
222 446
222 447
222 448
222 449
222 450
222 451
222 452
222 453
222 454
222 455
222 456
222 458
222 461
222 482
223 224
223 352
223 353
223 354
223 356
223 357
223 358
223 359
223 360
223 361
223 362
223 391
223 393
223 394
223 440
223 441
223 442
223 443
223 444
223 446
223 447
223 448
223 449
223 450
223 451
223 452
223 453
223 454
223 455
223 456
223 457
223 458
223 474
224 243
224 355
224 392
224 440
224 441
224 442
224 443
224 444
224 445
224 446
224 447
224 448
224 449
224 450
224 451
224 452
224 453
224 454
224 455
224 457
224 458
224 459
224 460
224 461
224 462
224 463
224 464
224 465
224 466
224 467
224 468
224 469
224 470
224 471
224 472
224 473
225 226
225 227
225 228
225 229
225 230
225 231
225 232
225 233
225 267
225 268
225 269
225 270
225 273
225 274
225 275
225 276
225 286
225 290
225 291
225 292
225 293
225 294
225 295
225 296
225 297
225 298
225 299
225 303
225 304
225 305
225 306
225 307
225 308
225 309
225 310
225 311
225 312
225 313
225 314
225 315
225 316
225 317
225 318
225 319
225 320
225 321
225 322
225 323
225 371
225 372
225 373
225 374
225 375
225 376
225 377
225 378
225 379
225 380
225 402
225 403
225 405
225 406
225 409
225 410
225 411
225 412
225 414
225 428
225 429
225 430
225 431
225 432
225 433
225 434
225 435
225 436
225 437
225 438
225 439
225 440
225 441
225 442
225 447
225 453
225 454
225 455
225 458
225 473
225 476
225 478
225 485
226 227
226 228
226 229
226 230
226 231
226 232
226 233
226 268
226 269
226 270
226 271
226 272
226 273
226 274
226 275
226 276
226 286
226 289
226 291
226 292
226 293
226 294
226 295
226 296
226 297
226 298
226 299
226 302
226 303
226 305
226 306
226 307
226 308
226 309
226 310
226 311
226 312
226 313
226 314
226 315
226 316
226 317
226 318
226 319
226 320
226 321
226 322
226 323
226 370
226 372
226 373
226 374
226 375
226 376
226 377
226 378
226 379
226 380
226 403
226 404
226 405
226 406
226 407
226 408
226 409
226 410
226 411
226 412
226 414
226 427
226 429
226 430
226 431
226 432
226 433
226 434
226 435
226 436
226 437
226 438
226 439
226 441
226 442
226 443
226 444
226 445
226 446
226 447
226 448
226 449
226 450
226 451
226 452
226 453
226 454
226 455
226 456
226 457
226 458
226 473
226 476
226 478
226 485
227 228
227 229
227 230
227 231
227 232
227 233
227 267
227 269
227 270
227 271
227 272
227 273
227 274
227 275
227 276
227 286
227 289
227 290
227 292
227 293
227 294
227 295
227 296
227 297
227 298
227 299
227 302
227 303
227 304
227 305
227 307
227 308
227 309
227 310
227 311
227 312
227 313
227 314
227 315
227 316
227 317
227 318
227 319
227 320
227 321
227 322
227 323
227 370
227 371
227 373
227 374
227 375
227 376
227 377
227 378
227 379
227 380
227 402
227 404
227 405
227 406
227 407
227 408
227 409
227 410
227 411
227 412
227 413
227 415
227 416
227 417
227 418
227 419
227 420
227 421
227 422
227 427
227 428
227 430
227 431
227 432
227 433
227 434
227 435
227 436
227 437
227 438
227 439
227 440
227 442
227 443
227 444
227 445
227 446
227 447
227 448
227 449
227 450
227 451
227 452
227 453
227 454
227 455
227 456
227 457
227 458
227 473
227 476
227 478
227 485
228 229
228 230
228 231
228 232
228 233
228 267
228 268
228 270
228 271
228 272
228 273
228 274
228 275
228 276
228 286
228 289
228 290
228 291
228 292
228 294
228 295
228 296
228 297
228 298
228 299
228 302
228 303
228 304
228 305
228 306
228 307
228 308
228 309
228 311
228 312
228 313
228 314
228 315
228 316
228 317
228 318
228 319
228 320
228 321
228 322
228 323
228 370
228 371
228 372
228 373
228 375
228 376
228 377
228 378
228 379
228 380
228 402
228 403
228 404
228 406
228 407
228 408
228 409
228 410
228 411
228 412
228 414
228 427
228 428
228 429
228 430
228 432
228 433
228 434
228 435
228 436
228 437
228 438
228 439
228 440
228 441
228 443
228 444
228 445
228 446
228 447
228 448
228 449
228 450
228 451
228 452
228 453
228 454
228 455
228 456
228 457
228 458
228 473
228 476
228 478
228 485
229 230
229 231
229 232
229 233
229 267
229 268
229 269
229 271
229 272
229 273
229 274
229 275
229 276
229 286
229 289
229 290
229 291
229 292
229 293
229 295
229 296
229 297
229 298
229 299
229 302
229 303
229 304
229 305
229 306
229 307
229 308
229 309
229 310
229 311
229 313
229 314
229 315
229 316
229 317
229 318
229 319
229 320
229 321
229 322
229 323
229 370
229 371
229 372
229 373
229 374
229 376
229 377
229 378
229 379
229 380
229 402
229 403
229 404
229 405
229 407
229 408
229 409
229 410
229 411
229 412
229 414
229 427
229 428
229 429
229 431
229 436
229 437
229 438
229 439
229 440
229 441
229 442
229 443
229 444
229 445
229 446
229 448
229 449
229 450
229 451
229 452
229 453
229 454
229 455
229 456
229 457
229 458
229 473
229 476
229 478
229 481
229 482
229 483
229 484
229 486
229 487
229 488
229 489
229 490
229 491
230 231
230 232
230 233
230 267
230 268
230 269
230 270
230 271
230 272
230 274
230 275
230 276
230 286
230 289
230 290
230 291
230 292
230 293
230 294
230 295
230 296
230 298
230 299
230 302
230 303
230 304
230 305
230 306
230 307
230 308
230 309
230 310
230 311
230 312
230 313
230 314
230 315
230 316
230 317
230 318
230 319
230 320
230 322
230 323
230 370
230 371
230 372
230 373
230 374
230 375
230 376
230 377
230 379
230 380
230 402
230 403
230 404
230 405
230 406
230 407
230 408
230 410
230 411
230 412
230 414
230 427
230 428
230 429
230 430
230 431
230 432
230 433
230 434
230 435
230 437
230 438
230 439
230 440
230 441
230 442
230 443
230 444
230 445
230 446
230 447
230 448
230 449
230 450
230 451
230 452
230 454
230 455
230 456
230 457
230 458
230 473
230 476
230 478
230 485
231 232
231 233
231 267
231 268
231 269
231 270
231 271
231 272
231 273
231 275
231 276
231 286
231 289
231 290
231 291
231 293
231 294
231 297
231 298
231 299
231 302
231 303
231 304
231 305
231 306
231 307
231 308
231 309
231 310
231 311
231 312
231 313
231 314
231 315
231 316
231 317
231 318
231 319
231 320
231 321
231 323
231 370
231 371
231 372
231 373
231 374
231 375
231 376
231 377
231 378
231 380
231 402
231 403
231 404
231 405
231 406
231 407
231 408
231 409
231 411
231 412
231 414
231 427
231 428
231 429
231 430
231 431
231 432
231 433
231 434
231 435
231 436
231 438
231 439
231 440
231 441
231 442
231 443
231 444
231 445
231 446
231 447
231 448
231 449
231 450
231 451
231 452
231 453
231 455
231 456
231 457
231 458
231 473
231 476
231 478
231 485
232 233
232 267
232 268
232 269
232 270
232 271
232 272
232 273
232 274
232 276
232 280
232 281
232 282
232 283
232 284
232 285
232 289
232 290
232 291
232 292
232 293
232 294
232 295
232 296
232 297
232 299
232 302
232 304
232 306
232 310
232 312
232 321
232 322
232 323
232 370
232 371
232 372
232 373
232 374
232 375
232 376
232 377
232 378
232 379
232 402
232 403
232 404
232 405
232 406
232 407
232 408
232 409
232 410
232 412
232 414
232 427
232 428
232 429
232 430
232 431
232 432
232 433
232 434
232 435
232 436
232 437
232 439
232 440
232 441
232 442
232 443
232 444
232 445
232 446
232 447
232 448
232 449
232 450
232 451
232 452
232 453
232 454
232 456
232 457
232 458
232 459
232 460
232 461
232 462
232 463
232 464
232 465
232 466
232 467
232 468
232 469
232 470
232 471
232 472
232 474
232 475
232 477
232 485
233 267
233 268
233 269
233 270
233 271
233 272
233 273
233 274
233 275
233 286
233 289
233 290
233 291
233 292
233 293
233 294
233 295
233 296
233 297
233 298
233 302
233 303
233 304
233 305
233 306
233 307
233 308
233 309
233 310
233 311
233 312
233 313
233 314
233 315
233 316
233 317
233 318
233 319
233 320
233 321
233 322
233 370
233 371
233 372
233 374
233 375
233 378
233 379
233 380
233 402
233 403
233 404
233 405
233 406
233 407
233 408
233 409
233 410
233 411
233 414
233 427
233 428
233 429
233 430
233 431
233 432
233 433
233 434
233 435
233 436
233 437
233 438
233 440
233 441
233 442
233 443
233 444
233 445
233 446
233 447
233 448
233 449
233 450
233 451
233 452
233 453
233 454
233 455
233 456
233 457
233 473
233 476
233 478
233 485
234 235
234 236
234 237
234 238
234 239
234 245
234 246
234 247
234 248
234 249
234 251
234 252
234 253
234 254
234 255
234 265
234 287
234 301
234 313
234 325
234 326
234 327
234 328
234 329
234 338
234 339
234 340
234 341
234 342
234 343
234 344
234 345
234 346
234 347
234 348
234 349
234 350
234 351
234 358
234 366
234 386
234 417
234 425
234 448
234 466
234 479
234 493
235 236
235 237
235 238
235 239
235 244
235 246
235 247
235 248
235 249
235 250
235 251
235 252
235 254
235 255
235 265
235 287
235 301
235 313
235 324
235 326
235 327
235 328
235 329
235 337
235 342
235 358
235 366
235 386
235 417
235 425
235 448
235 466
235 479
235 493
236 237
236 238
236 239
236 244
236 245
236 246
236 248
236 249
236 250
236 252
236 253
236 254
236 255
236 265
236 287
236 301
236 313
236 324
236 325
236 327
236 328
236 329
236 337
236 342
236 358
236 366
236 386
236 417
236 425
236 448
236 466
236 479
236 493
237 238
237 239
237 244
237 245
237 247
237 248
237 249
237 250
237 251
237 253
237 254
237 255
237 265
237 287
237 301
237 313
237 324
237 325
237 326
237 328
237 329
237 337
237 342
237 358
237 366
237 386
237 417
237 425
237 448
237 466
237 479
237 493
238 239
238 244
238 245
238 246
238 247
238 249
238 250
238 251
238 252
238 253
238 255
238 264
238 266
238 288
238 300
238 302
238 303
238 304
238 305
238 306
238 307
238 308
238 309
238 310
238 311
238 312
238 314
238 315
238 316
238 317
238 318
238 319
238 320
238 321
238 322
238 323
238 324
238 325
238 326
238 327
238 329
238 337
238 338
238 339
238 340
238 341
238 343
238 344
238 345
238 346
238 347
238 348
238 349
238 350
238 351
238 352
238 353
238 354
238 355
238 356
238 357
238 359
238 360
238 361
238 362
238 363
238 364
238 365
238 367
238 368
238 369
238 381
238 382
238 383
238 384
238 385
238 387
238 388
238 389
238 390
238 413
238 414
238 415
238 416
238 418
238 419
238 420
238 421
238 422
238 423
238 424
238 426
238 440
238 441
238 442
238 443
238 444
238 445
238 446
238 447
238 449
238 450
238 451
238 452
238 453
238 454
238 455
238 456
238 457
238 458
238 459
238 460
238 461
238 462
238 463
238 464
238 465
238 467
238 468
238 469
238 470
238 471
238 472
238 473
238 474
238 492
238 494
239 244
239 245
239 246
239 247
239 248
239 250
239 251
239 252
239 253
239 254
239 265
239 287
239 301
239 313
239 324
239 325
239 326
239 327
239 328
239 337
239 342
239 358
239 366
239 386
239 417
239 425
239 448
239 466
239 479
239 493
240 241
240 242
240 279
240 284
240 289
240 290
240 291
240 293
240 294
240 295
240 296
240 297
240 298
240 299
240 302
240 303
240 304
240 305
240 306
240 307
240 309
240 310
240 311
240 312
240 313
240 314
240 315
240 316
240 317
240 318
240 319
240 320
240 321
240 322
240 323
240 347
240 353
240 354
240 355
240 356
240 357
240 358
240 359
240 360
240 361
240 362
240 364
240 365
240 366
240 367
240 368
240 369
240 370
240 371
240 372
240 374
240 375
240 376
240 377
240 378
240 379
240 380
240 392
240 393
240 394
240 402
240 403
240 405
240 406
240 407
240 408
240 409
240 410
240 411
240 412
240 421
240 427
240 428
240 429
240 431
240 432
240 433
240 434
240 435
240 436
240 437
240 438
240 439
240 451
240 459
240 460
240 462
240 463
240 464
240 465
240 466
240 467
240 468
240 469
240 470
240 471
240 472
240 473
240 474
240 481
240 483
240 484
240 485
240 486
240 487
240 488
240 489
240 490
240 491
241 242
241 279
241 284
241 292
241 308
241 319
241 347
241 352
241 360
241 363
241 364
241 365
241 366
241 368
241 369
241 373
241 391
241 404
241 421
241 430
241 451
241 461
241 482
241 490
242 277
242 278
242 280
242 281
242 282
242 283
242 285
242 286
242 292
242 302
242 303
242 304
242 305
242 306
242 307
242 308
242 309
242 310
242 311
242 312
242 313
242 314
242 315
242 316
242 317
242 318
242 320
242 321
242 322
242 323
242 337
242 338
242 339
242 340
242 341
242 342
242 343
242 344
242 345
242 346
242 348
242 349
242 350
242 351
242 352
242 353
242 354
242 355
242 356
242 357
242 358
242 359
242 361
242 362
242 363
242 367
242 373
242 391
242 404
242 413
242 414
242 415
242 416
242 417
242 418
242 419
242 420
242 422
242 430
242 440
242 441
242 442
242 443
242 444
242 445
242 446
242 447
242 448
242 449
242 450
242 452
242 453
242 454
242 455
242 456
242 457
242 458
242 461
242 481
242 482
242 483
242 484
242 485
242 486
242 487
242 488
242 489
242 491
243 352
243 353
243 354
243 356
243 357
243 358
243 359
243 360
243 361
243 362
243 391
243 393
243 394
243 440
243 441
243 442
243 443
243 444
243 446
243 447
243 448
243 449
243 450
243 451
243 452
243 453
243 454
243 455
243 456
243 457
243 458
244 245
244 246
244 247
244 248
244 249
244 251
244 252
244 253
244 254
244 255
244 265
244 287
244 301
244 313
244 325
244 326
244 327
244 328
244 329
244 338
244 339
244 340
244 341
244 342
244 343
244 344
244 345
244 346
244 347
244 348
244 349
244 350
244 351
244 358
244 366
244 386
244 417
244 425
244 448
244 466
244 479
244 493
245 246
245 247
245 248
245 249
245 250
245 252
245 253
245 254
245 255
245 265
245 287
245 301
245 313
245 324
245 326
245 327
245 328
245 329
245 337
245 342
245 358
245 366
245 386
245 417
245 425
245 448
245 466
245 479
245 493
246 247
246 248
246 249
246 250
246 251
246 253
246 254
246 255
246 265
246 287
246 301
246 313
246 324
246 325
246 327
246 328
246 329
246 337
246 342
246 358
246 366
246 386
246 417
246 425
246 448
246 466
246 479
246 493
247 248
247 249
247 250
247 251
247 252
247 254
247 255
247 265
247 287
247 301
247 313
247 324
247 325
247 326
247 328
247 329
247 337
247 342
247 358
247 366
247 386
247 417
247 425
247 448
247 466
247 479
247 493
248 249
248 250
248 251
248 252
248 253
248 255
248 264
248 266
248 288
248 300
248 302
248 303
248 304
248 305
248 306
248 307
248 308
248 309
248 310
248 311
248 312
248 314
248 315
248 316
248 317
248 318
248 319
248 320
248 321
248 322
248 323
248 324
248 325
248 326
248 327
248 329
248 337
248 338
248 339
248 340
248 341
248 343
248 344
248 345
248 346
248 347
248 348
248 349
248 350
248 351
248 352
248 353
248 354
248 355
248 356
248 357
248 359
248 360
248 361
248 362
248 363
248 364
248 365
248 367
248 368
248 369
248 381
248 382
248 383
248 384
248 385
248 387
248 388
248 389
248 390
248 413
248 414
248 415
248 416
248 418
248 419
248 420
248 421
248 422
248 423
248 424
248 426
248 440
248 441
248 442
248 443
248 444
248 445
248 446
248 447
248 449
248 450
248 451
248 452
248 453
248 454
248 455
248 456
248 457
248 458
248 459
248 460
248 461
248 462
248 463
248 464
248 465
248 467
248 468
248 469
248 470
248 471
248 472
248 473
248 474
248 492
248 494
249 250
249 251
249 252
249 253
249 254
249 265
249 287
249 301
249 313
249 324
249 325
249 326
249 327
249 328
249 337
249 342
249 358
249 366
249 386
249 417
249 425
249 448
249 466
249 479
249 493
250 251
250 252
250 253
250 254
250 255
250 265
250 287
250 301
250 313
250 325
250 326
250 327
250 328
250 329
250 338
250 339
250 340
250 341
250 342
250 343
250 344
250 345
250 346
250 347
250 348
250 349
250 350
250 351
250 358
250 366
250 386
250 417
250 425
250 448
250 466
250 479
250 493
251 252
251 253
251 254
251 255
251 265
251 287
251 301
251 313
251 324
251 325
251 327
251 328
251 329
251 337
251 342
251 358
251 366
251 386
251 417
251 425
251 448
251 466
251 479
251 493
252 253
252 254
252 255
252 265
252 287
252 301
252 313
252 324
252 326
252 327
252 328
252 329
252 337
252 342
252 358
252 366
252 386
252 417
252 425
252 448
252 466
252 479
252 493
253 254
253 255
253 265
253 287
253 301
253 313
253 324
253 325
253 326
253 328
253 329
253 337
253 342
253 358
253 366
253 386
253 417
253 425
253 448
253 466
253 479
253 493
254 255
254 264
254 266
254 288
254 300
254 302
254 303
254 304
254 305
254 306
254 307
254 308
254 309
254 310
254 311
254 312
254 314
254 315
254 316
254 317
254 318
254 319
254 320
254 321
254 322
254 323
254 324
254 325
254 326
254 327
254 329
254 337
254 338
254 339
254 340
254 341
254 343
254 344
254 345
254 346
254 347
254 348
254 349
254 350
254 351
254 352
254 353
254 354
254 355
254 356
254 357
254 359
254 360
254 361
254 362
254 363
254 364
254 365
254 367
254 368
254 369
254 381
254 382
254 383
254 384
254 385
254 387
254 388
254 389
254 390
254 413
254 414
254 415
254 416
254 418
254 419
254 420
254 421
254 422
254 423
254 424
254 426
254 440
254 441
254 442
254 443
254 444
254 445
254 446
254 447
254 449
254 450
254 451
254 452
254 453
254 454
254 455
254 456
254 457
254 458
254 459
254 460
254 461
254 462
254 463
254 464
254 465
254 467
254 468
254 469
254 470
254 471
254 472
254 473
254 474
254 492
254 494
255 265
255 287
255 301
255 313
255 324
255 325
255 326
255 327
255 328
255 337
255 342
255 358
255 366
255 386
255 417
255 425
255 448
255 466
255 479
255 493
256 257
256 258
256 259
256 260
256 261
256 262
256 331
256 332
256 333
256 334
256 335
256 336
256 338
256 339
256 341
256 349
256 350
256 351
256 357
256 396
256 397
256 398
256 399
256 400
256 401
256 446
256 460
256 461
256 462
256 463
256 464
256 465
256 466
256 467
256 468
256 469
256 470
256 471
256 472
256 473
256 474
257 258
257 259
257 260
257 261
257 262
257 330
257 331
257 332
257 334
257 335
257 336
257 337
257 339
257 340
257 341
257 342
257 343
257 344
257 345
257 346
257 347
257 348
257 349
257 350
257 351
257 357
257 395
257 397
257 398
257 399
257 400
257 401
257 446
257 459
258 259
258 260
258 261
258 262
258 330
258 332
258 333
258 334
258 335
258 336
258 337
258 338
258 340
258 341
258 342
258 343
258 344
258 345
258 346
258 347
258 348
258 349
258 350
258 351
258 357
258 395
258 396
258 398
258 399
258 400
258 401
258 446
258 459
259 260
259 261
259 262
259 330
259 331
259 333
259 334
259 335
259 336
259 337
259 338
259 339
259 340
259 342
259 343
259 344
259 345
259 346
259 347
259 348
259 349
259 350
259 351
259 352
259 353
259 354
259 355
259 356
259 358
259 359
259 360
259 361
259 362
259 395
259 396
259 397
259 399
259 400
259 401
259 440
259 441
259 442
259 443
259 444
259 445
259 447
259 448
259 449
259 450
259 451
259 452
259 453
259 454
259 455
259 456
259 457
259 458
259 459
260 261
260 262
260 330
260 331
260 332
260 333
260 335
260 336
260 337
260 338
260 339
260 340
260 341
260 342
260 343
260 344
260 345
260 346
260 347
260 348
260 350
260 351
260 357
260 395
260 396
260 397
260 398
260 399
260 401
260 446
260 459
261 262
261 330
261 331
261 332
261 333
261 334
261 336
261 337
261 338
261 339
261 340
261 341
261 342
261 343
261 344
261 345
261 346
261 347
261 348
261 349
261 351
261 357
261 395
261 396
261 397
261 398
261 400
261 401
261 446
261 459
262 330
262 331
262 332
262 333
262 334
262 335
262 337
262 338
262 339
262 340
262 341
262 342
262 343
262 344
262 345
262 346
262 347
262 348
262 349
262 350
262 357
262 395
262 396
262 397
262 398
262 399
262 400
262 446
262 459
263 289
263 290
263 291
263 292
263 293
263 294
263 296
263 297
263 298
263 299
263 302
263 303
263 304
263 305
263 306
263 307
263 308
263 309
263 310
263 311
263 312
263 313
263 315
263 316
263 317
263 318
263 319
263 320
263 321
263 322
263 323
263 370
263 371
263 372
263 373
263 374
263 375
263 377
263 378
263 379
263 380
263 427
263 428
263 429
263 430
263 431
263 433
263 434
263 435
263 436
263 437
263 438
263 439
263 440
263 441
263 442
263 443
263 444
263 445
263 446
263 447
263 448
263 450
263 451
263 452
263 453
263 454
263 455
263 456
263 457
263 458
263 481
263 482
263 483
263 484
263 485
263 486
263 488
263 489
263 490
263 491
264 265
264 266
264 287
264 301
264 313
264 328
264 342
264 358
264 366
264 386
264 389
264 417
264 425
264 448
264 466
264 479
264 493
265 266
265 288
265 300
265 302
265 303
265 304
265 305
265 306
265 307
265 308
265 309
265 310
265 311
265 312
265 314
265 315
265 316
265 317
265 318
265 319
265 320
265 321
265 322
265 323
265 324
265 325
265 326
265 327
265 329
265 337
265 338
265 339
265 340
265 341
265 343
265 344
265 345
265 346
265 347
265 348
265 349
265 350
265 351
265 352
265 353
265 354
265 355
265 356
265 357
265 359
265 360
265 361
265 362
265 363
265 364
265 365
265 367
265 368
265 369
265 381
265 382
265 383
265 384
265 385
265 387
265 388
265 389
265 390
265 413
265 414
265 415
265 416
265 418
265 419
265 420
265 421
265 422
265 423
265 424
265 426
265 440
265 441
265 442
265 443
265 444
265 445
265 446
265 447
265 449
265 450
265 451
265 452
265 453
265 454
265 455
265 456
265 457
265 458
265 459
265 460
265 461
265 462
265 463
265 464
265 465
265 467
265 468
265 469
265 470
265 471
265 472
265 473
265 474
265 492
265 494
266 287
266 301
266 313
266 328
266 342
266 358
266 366
266 381
266 382
266 383
266 384
266 385
266 386
266 387
266 388
266 390
266 417
266 425
266 448
266 466
266 479
266 493
267 268
267 269
267 270
267 271
267 272
267 273
267 274
267 275
267 276
267 286
267 289
267 291
267 292
267 293
267 294
267 295
267 296
267 297
267 298
267 299
267 302
267 303
267 305
267 306
267 307
267 308
267 309
267 310
267 311
267 312
267 313
267 314
267 315
267 316
267 317
267 318
267 319
267 320
267 321
267 322
267 323
267 370
267 372
267 373
267 374
267 375
267 376
267 377
267 378
267 379
267 380
267 403
267 404
267 405
267 406
267 407
267 408
267 409
267 410
267 411
267 412
267 414
267 427
267 429
267 430
267 431
267 432
267 433
267 434
267 435
267 436
267 437
267 438
267 439
267 441
267 442
267 443
267 444
267 445
267 446
267 447
267 448
267 449
267 450
267 451
267 452
267 453
267 454
267 455
267 456
267 457
267 458
267 473
267 476
267 478
267 485
268 269
268 270
268 271
268 272
268 273
268 274
268 275
268 276
268 286
268 289
268 290
268 292
268 293
268 294
268 295
268 296
268 297
268 298
268 299
268 302
268 303
268 304
268 305
268 307
268 308
268 309
268 310
268 311
268 312
268 313
268 314
268 315
268 316
268 317
268 318
268 319
268 320
268 321
268 322
268 323
268 370
268 371
268 373
268 374
268 375
268 376
268 377
268 378
268 379
268 380
268 402
268 404
268 405
268 406
268 407
268 408
268 409
268 410
268 411
268 412
268 413
268 415
268 416
268 417
268 418
268 419
268 420
268 421
268 422
268 427
268 428
268 430
268 431
268 432
268 433
268 434
268 435
268 436
268 437
268 438
268 439
268 440
268 442
268 443
268 444
268 445
268 446
268 447
268 448
268 449
268 450
268 451
268 452
268 453
268 454
268 455
268 456
268 457
268 458
268 473
268 476
268 478
268 485
269 270
269 271
269 272
269 273
269 274
269 275
269 276
269 286
269 289
269 290
269 291
269 292
269 294
269 295
269 296
269 297
269 298
269 299
269 302
269 303
269 304
269 305
269 306
269 307
269 308
269 309
269 311
269 312
269 313
269 314
269 315
269 316
269 317
269 318
269 319
269 320
269 321
269 322
269 323
269 370
269 371
269 372
269 373
269 375
269 376
269 377
269 378
269 379
269 380
269 402
269 403
269 404
269 406
269 407
269 408
269 409
269 410
269 411
269 412
269 414
269 427
269 428
269 429
269 430
269 432
269 433
269 434
269 435
269 436
269 437
269 438
269 439
269 440
269 441
269 443
269 444
269 445
269 446
269 447
269 448
269 449
269 450
269 451
269 452
269 453
269 454
269 455
269 456
269 457
269 458
269 473
269 476
269 478
269 485
270 271
270 272
270 273
270 274
270 275
270 276
270 286
270 289
270 290
270 291
270 292
270 293
270 295
270 296
270 297
270 298
270 299
270 302
270 303
270 304
270 305
270 306
270 307
270 308
270 309
270 310
270 311
270 313
270 314
270 315
270 316
270 317
270 318
270 319
270 320
270 321
270 322
270 323
270 370
270 371
270 372
270 373
270 374
270 376
270 377
270 378
270 379
270 380
270 402
270 403
270 404
270 405
270 407
270 408
270 409
270 410
270 411
270 412
270 414
270 428
270 429
270 431
270 433
270 435
270 436
270 437
270 438
270 439
270 440
270 441
270 442
270 443
270 444
270 445
270 446
270 448
270 449
270 450
270 451
270 452
270 453
270 454
270 455
270 456
270 457
270 458
270 473
270 476
270 478
270 481
270 482
270 483
270 484
270 486
270 487
270 488
270 489
270 490
270 491
271 272
271 273
271 274
271 275
271 276
271 286
271 290
271 291
271 293
271 294
271 296
271 297
271 298
271 299
271 302
271 303
271 304
271 305
271 306
271 307
271 308
271 309
271 310
271 311
271 312
271 313
271 314
271 315
271 317
271 318
271 319
271 320
271 321
271 322
271 323
271 371
271 372
271 374
271 375
271 377
271 378
271 379
271 380
271 402
271 403
271 405
271 406
271 409
271 410
271 411
271 412
271 414
271 427
271 428
271 429
271 430
271 431
271 432
271 434
271 435
271 436
271 437
271 438
271 439
271 440
271 441
271 442
271 447
271 453
271 454
271 455
271 458
271 473
271 476
271 478
271 485
272 273
272 274
272 275
272 276
272 286
272 289
272 290
272 291
272 292
272 293
272 294
272 295
272 297
272 298
272 299
272 302
272 303
272 304
272 305
272 306
272 307
272 308
272 309
272 310
272 311
272 312
272 313
272 314
272 315
272 316
272 318
272 319
272 320
272 321
272 322
272 323
272 370
272 371
272 372
272 373
272 374
272 375
272 376
272 378
272 379
272 380
272 402
272 403
272 405
272 406
272 409
272 410
272 411
272 412
272 414
272 427
272 428
272 429
272 430
272 431
272 432
272 433
272 434
272 436
272 437
272 438
272 439
272 440
272 441
272 442
272 447
272 453
272 454
272 455
272 458
272 473
272 476
272 478
272 485
273 274
273 275
273 276
273 286
273 289
273 290
273 291
273 292
273 293
273 294
273 295
273 296
273 298
273 299
273 302
273 303
273 304
273 305
273 306
273 307
273 308
273 309
273 310
273 311
273 312
273 313
273 314
273 315
273 316
273 317
273 318
273 319
273 320
273 322
273 323
273 370
273 371
273 372
273 373
273 374
273 375
273 376
273 377
273 379
273 380
273 402
273 403
273 404
273 405
273 406
273 407
273 408
273 410
273 411
273 412
273 414
273 427
273 428
273 429
273 430
273 431
273 432
273 433
273 434
273 435
273 437
273 438
273 439
273 440
273 441
273 442
273 443
273 444
273 445
273 446
273 447
273 448
273 449
273 450
273 451
273 452
273 454
273 455
273 456
273 457
273 458
273 473
273 476
273 478
273 485
274 275
274 276
274 286
274 290
274 291
274 293
274 294
274 296
274 297
274 298
274 299
274 302
274 303
274 304
274 305
274 306
274 307
274 308
274 309
274 310
274 311
274 312
274 313
274 314
274 315
274 316
274 317
274 318
274 319
274 320
274 321
274 323
274 370
274 371
274 372
274 373
274 374
274 375
274 376
274 377
274 378
274 380
274 402
274 403
274 404
274 405
274 406
274 407
274 408
274 409
274 411
274 412
274 414
274 427
274 428
274 429
274 430
274 431
274 432
274 433
274 434
274 435
274 436
274 438
274 439
274 440
274 441
274 442
274 443
274 444
274 445
274 446
274 447
274 448
274 449
274 450
274 451
274 452
274 453
274 455
274 456
274 457
274 458
274 473
274 476
274 478
274 485
275 276
275 280
275 281
275 282
275 283
275 284
275 285
275 289
275 290
275 291
275 292
275 293
275 294
275 295
275 296
275 297
275 299
275 304
275 306
275 310
275 312
275 316
275 317
275 321
275 322
275 323
275 370
275 371
275 372
275 373
275 374
275 375
275 376
275 377
275 378
275 379
275 402
275 403
275 404
275 405
275 406
275 407
275 408
275 409
275 410
275 412
275 414
275 427
275 428
275 429
275 430
275 431
275 432
275 433
275 434
275 435
275 436
275 437
275 439
275 440
275 441
275 442
275 443
275 444
275 445
275 446
275 447
275 448
275 449
275 450
275 451
275 452
275 453
275 454
275 456
275 457
275 458
275 459
275 460
275 461
275 462
275 463
275 464
275 465
275 466
275 467
275 468
275 469
275 470
275 471
275 472
275 474
275 475
275 477
275 485
276 286
276 289
276 290
276 291
276 292
276 293
276 294
276 295
276 296
276 297
276 298
276 302
276 303
276 304
276 305
276 306
276 307
276 308
276 309
276 310
276 311
276 312
276 313
276 314
276 315
276 316
276 317
276 318
276 319
276 320
276 321
276 322
276 371
276 372
276 374
276 375
276 377
276 378
276 379
276 380
276 402
276 403
276 404
276 405
276 406
276 407
276 408
276 409
276 410
276 411
276 414
276 427
276 428
276 429
276 430
276 431
276 432
276 433
276 434
276 435
276 436
276 437
276 438
276 440
276 441
276 442
276 443
276 444
276 445
276 446
276 447
276 448
276 449
276 450
276 451
276 452
276 453
276 454
276 455
276 456
276 457
276 473
276 476
276 478
276 485
277 278
277 279
277 282
277 284
277 319
277 337
277 338
277 339
277 340
277 341
277 342
277 343
277 345
277 346
277 347
277 348
277 349
277 350
277 351
277 352
277 353
277 354
277 355
277 356
277 357
277 358
277 360
277 361
277 362
277 407
277 413
277 414
277 415
277 416
277 417
277 419
277 420
277 421
277 422
277 434
277 450
277 451
277 459
277 460
277 461
277 462
277 463
277 464
277 465
277 466
277 468
277 469
277 470
277 471
277 472
277 473
277 474
277 481
277 482
277 483
277 484
277 485
277 486
277 487
277 489
277 490
277 491
278 279
278 280
278 281
278 283
278 284
278 285
278 286
278 319
278 344
278 347
278 359
278 360
278 402
278 403
278 404
278 405
278 406
278 408
278 409
278 410
278 411
278 412
278 413
278 414
278 415
278 416
278 417
278 418
278 420
278 421
278 422
278 427
278 428
278 429
278 430
278 431
278 432
278 433
278 435
278 436
278 437
278 438
278 439
278 440
278 441
278 442
278 443
278 444
278 445
278 446
278 447
278 448
278 449
278 451
278 452
278 453
278 454
278 455
278 456
278 457
278 458
278 459
278 460
278 461
278 462
278 463
278 464
278 465
278 466
278 467
278 469
278 470
278 471
278 472
278 473
278 474
278 488
278 490
279 280
279 281
279 282
279 283
279 285
279 286
279 302
279 303
279 304
279 305
279 306
279 307
279 308
279 309
279 310
279 311
279 312
279 313
279 314
279 315
279 316
279 317
279 318
279 320
279 321
279 322
279 323
279 337
279 338
279 339
279 340
279 341
279 342
279 343
279 344
279 345
279 346
279 348
279 349
279 350
279 351
279 352
279 353
279 354
279 355
279 356
279 357
279 358
279 359
279 361
279 362
279 407
279 413
279 414
279 415
279 416
279 417
279 418
279 419
279 420
279 422
279 434
279 440
279 441
279 442
279 443
279 444
279 445
279 446
279 447
279 448
279 449
279 450
279 452
279 453
279 454
279 455
279 456
279 457
279 458
279 467
279 468
279 481
279 482
279 483
279 484
279 485
279 486
279 487
279 488
279 489
279 491
280 281
280 282
280 283
280 284
280 285
280 286
280 298
280 302
280 304
280 305
280 306
280 307
280 308
280 309
280 310
280 311
280 312
280 313
280 314
280 315
280 316
280 317
280 318
280 319
280 320
280 321
280 322
280 323
280 347
280 360
280 380
280 407
280 411
280 414
280 415
280 416
280 417
280 418
280 419
280 420
280 421
280 422
280 434
280 438
280 450
280 451
280 455
280 459
280 461
280 462
280 463
280 464
280 465
280 466
280 467
280 468
280 469
280 470
280 471
280 472
280 473
280 474
280 476
280 478
280 482
280 483
280 484
280 485
280 486
280 487
280 488
280 489
280 490
280 491
281 282
281 283
281 284
281 285
281 286
281 298
281 303
281 318
281 319
281 320
281 347
281 360
281 380
281 407
281 411
281 413
281 419
281 420
281 421
281 422
281 434
281 438
281 450
281 451
281 455
281 459
281 460
281 461
281 462
281 463
281 464
281 466
281 467
281 468
281 469
281 470
281 471
281 472
281 473
281 474
281 476
281 478
281 481
281 482
281 483
281 484
281 485
281 487
281 488
281 489
281 490
281 491
282 283
282 284
282 285
282 286
282 298
282 303
282 318
282 319
282 320
282 347
282 360
282 380
282 402
282 403
282 404
282 405
282 406
282 408
282 409
282 410
282 411
282 412
282 413
282 414
282 415
282 416
282 417
282 418
282 420
282 421
282 422
282 427
282 428
282 429
282 430
282 431
282 432
282 433
282 435
282 436
282 437
282 438
282 439
282 440
282 441
282 442
282 443
282 444
282 445
282 446
282 447
282 448
282 449
282 451
282 452
282 453
282 454
282 455
282 456
282 457
282 458
282 459
282 460
282 461
282 462
282 463
282 464
282 465
282 466
282 467
282 469
282 470
282 471
282 472
282 473
282 474
282 476
282 478
282 481
282 486
282 489
282 490
282 491
283 284
283 285
283 286
283 298
283 302
283 303
283 304
283 305
283 306
283 307
283 308
283 309
283 310
283 311
283 312
283 313
283 314
283 315
283 316
283 317
283 319
283 320
283 321
283 322
283 323
283 347
283 360
283 380
283 407
283 411
283 413
283 414
283 415
283 416
283 417
283 418
283 419
283 421
283 422
283 434
283 438
283 450
283 451
283 455
283 459
283 460
283 461
283 462
283 463
283 464
283 465
283 466
283 467
283 468
283 469
283 471
283 472
283 473
283 474
283 476
283 478
283 481
283 482
283 483
283 484
283 485
283 486
283 487
283 488
283 490
283 491
284 285
284 286
284 298
284 302
284 303
284 304
284 305
284 306
284 307
284 308
284 309
284 310
284 311
284 312
284 313
284 314
284 315
284 316
284 317
284 318
284 320
284 321
284 322
284 323
284 337
284 338
284 339
284 340
284 341
284 342
284 343
284 344
284 345
284 346
284 348
284 349
284 350
284 351
284 352
284 353
284 354
284 355
284 356
284 357
284 358
284 359
284 361
284 362
284 380
284 407
284 411
284 413
284 414
284 415
284 416
284 417
284 418
284 419
284 420
284 422
284 434
284 438
284 440
284 441
284 442
284 443
284 444
284 445
284 446
284 447
284 448
284 449
284 450
284 452
284 453
284 454
284 455
284 456
284 457
284 458
284 460
284 465
284 468
284 470
284 471
284 473
284 476
284 478
284 481
284 482
284 483
284 484
284 485
284 486
284 487
284 488
284 489
284 491
285 286
285 298
285 302
285 303
285 304
285 305
285 306
285 307
285 308
285 309
285 310
285 311
285 312
285 313
285 314
285 315
285 316
285 317
285 318
285 319
285 321
285 322
285 323
285 347
285 360
285 380
285 407
285 411
285 413
285 414
285 415
285 416
285 417
285 418
285 419
285 420
285 421
285 434
285 438
285 450
285 451
285 455
285 459
285 460
285 461
285 462
285 463
285 464
285 465
285 466
285 467
285 468
285 469
285 470
285 472
285 473
285 474
285 476
285 478
285 481
285 482
285 483
285 484
285 485
285 486
285 487
285 488
285 489
285 490
286 289
286 290
286 291
286 292
286 293
286 294
286 295
286 296
286 297
286 299
286 303
286 318
286 319
286 320
286 347
286 360
286 370
286 371
286 372
286 373
286 374
286 375
286 376
286 377
286 378
286 379
286 402
286 403
286 404
286 405
286 406
286 407
286 408
286 409
286 410
286 412
286 413
286 419
286 420
286 421
286 422
286 427
286 428
286 429
286 430
286 431
286 432
286 433
286 434
286 435
286 436
286 437
286 439
286 440
286 441
286 442
286 443
286 444
286 445
286 446
286 447
286 448
286 449
286 450
286 451
286 452
286 453
286 454
286 456
286 457
286 458
286 459
286 460
286 461
286 462
286 463
286 464
286 465
286 466
286 467
286 468
286 469
286 470
286 471
286 472
286 474
286 475
286 477
286 481
286 486
286 489
286 490
286 491
287 288
287 300
287 302
287 303
287 304
287 305
287 306
287 307
287 308
287 309
287 310
287 311
287 312
287 314
287 315
287 316
287 317
287 318
287 319
287 320
287 321
287 322
287 323
287 324
287 325
287 326
287 327
287 329
287 337
287 338
287 339
287 340
287 341
287 343
287 344
287 345
287 346
287 347
287 348
287 349
287 350
287 351
287 352
287 353
287 354
287 355
287 356
287 357
287 359
287 360
287 361
287 362
287 363
287 364
287 365
287 367
287 368
287 369
287 381
287 382
287 383
287 384
287 385
287 387
287 388
287 389
287 390
287 413
287 414
287 415
287 416
287 418
287 419
287 420
287 421
287 422
287 423
287 424
287 426
287 440
287 441
287 442
287 443
287 444
287 445
287 446
287 447
287 449
287 450
287 451
287 452
287 453
287 454
287 455
287 456
287 457
287 458
287 459
287 460
287 461
287 462
287 463
287 464
287 465
287 467
287 468
287 469
287 470
287 471
287 472
287 473
287 474
287 480
287 492
287 494
288 301
288 313
288 328
288 342
288 358
288 366
288 386
288 417
288 425
288 448
288 466
288 479
288 493
289 290
289 291
289 292
289 293
289 294
289 295
289 296
289 297
289 298
289 299
289 303
289 304
289 305
289 306
289 307
289 308
289 309
289 310
289 311
289 312
289 313
289 314
289 315
289 316
289 317
289 318
289 319
289 320
289 321
289 322
289 323
289 352
289 363
289 371
289 372
289 373
289 374
289 375
289 376
289 377
289 378
289 379
289 380
289 391
289 402
289 403
289 404
289 405
289 406
289 409
289 411
289 412
289 414
289 428
289 429
289 430
289 431
289 432
289 433
289 434
289 435
289 436
289 437
289 438
289 439
289 440
289 441
289 442
289 447
289 449
289 453
289 455
289 458
289 461
289 473
289 476
289 478
289 482
289 485
289 487
290 291
290 292
290 293
290 294
290 295
290 296
290 297
290 298
290 299
290 302
290 303
290 305
290 306
290 307
290 308
290 309
290 310
290 311
290 312
290 313
290 314
290 315
290 316
290 317
290 318
290 319
290 320
290 321
290 322
290 323
290 352
290 363
290 370
290 372
290 373
290 374
290 375
290 376
290 377
290 378
290 379
290 380
290 391
290 403
290 404
290 405
290 406
290 407
290 408
290 409
290 410
290 411
290 412
290 414
290 427
290 429
290 430
290 431
290 432
290 433
290 434
290 435
290 436
290 437
290 438
290 439
290 441
290 442
290 443
290 444
290 445
290 446
290 447
290 448
290 449
290 450
290 451
290 452
290 453
290 454
290 455
290 456
290 457
290 458
290 461
290 473
290 476
290 478
290 482
290 485
290 487
291 292
291 293
291 294
291 295
291 296
291 297
291 298
291 299
291 302
291 303
291 304
291 305
291 307
291 308
291 309
291 310
291 311
291 312
291 313
291 314
291 315
291 316
291 317
291 318
291 319
291 320
291 321
291 322
291 323
291 352
291 363
291 370
291 371
291 373
291 374
291 375
291 376
291 377
291 378
291 379
291 380
291 391
291 402
291 404
291 405
291 406
291 407
291 408
291 409
291 410
291 411
291 412
291 413
291 415
291 416
291 417
291 418
291 419
291 420
291 421
291 422
291 427
291 428
291 430
291 431
291 432
291 433
291 434
291 435
291 436
291 437
291 438
291 439
291 440
291 442
291 443
291 444
291 445
291 446
291 447
291 448
291 449
291 450
291 451
291 452
291 453
291 454
291 455
291 456
291 457
291 458
291 461
291 473
291 476
291 478
291 482
291 485
291 487
292 293
292 294
292 295
292 296
292 297
292 298
292 299
292 302
292 303
292 304
292 305
292 306
292 307
292 309
292 310
292 311
292 312
292 313
292 314
292 315
292 316
292 317
292 318
292 319
292 320
292 321
292 322
292 323
292 353
292 354
292 355
292 356
292 357
292 358
292 359
292 360
292 361
292 362
292 364
292 365
292 366
292 367
292 368
292 369
292 370
292 371
292 372
292 374
292 375
292 376
292 377
292 378
292 379
292 380
292 392
292 393
292 394
292 402
292 403
292 405
292 406
292 407
292 408
292 409
292 410
292 411
292 412
292 414
292 427
292 428
292 429
292 431
292 432
292 433
292 434
292 435
292 436
292 437
292 438
292 439
292 440
292 441
292 442
292 447
292 449
292 453
292 455
292 458
292 459
292 460
292 462
292 463
292 464
292 465
292 466
292 467
292 468
292 469
292 470
292 471
292 472
292 473
292 474
292 476
292 478
292 481
292 483
292 484
292 485
292 486
292 487
292 488
292 489
292 490
292 491
293 294
293 295
293 296
293 297
293 298
293 299
293 302
293 303
293 304
293 305
293 306
293 307
293 308
293 309
293 311
293 312
293 313
293 314
293 315
293 316
293 317
293 318
293 319
293 320
293 321
293 322
293 323
293 352
293 363
293 370
293 371
293 372
293 373
293 375
293 376
293 377
293 378
293 379
293 380
293 391
293 402
293 403
293 404
293 406
293 407
293 408
293 409
293 410
293 411
293 412
293 414
293 427
293 428
293 429
293 430
293 432
293 433
293 434
293 435
293 436
293 437
293 438
293 439
293 440
293 441
293 443
293 444
293 445
293 446
293 447
293 448
293 449
293 450
293 451
293 452
293 453
293 454
293 455
293 456
293 457
293 458
293 461
293 473
293 476
293 478
293 482
293 485
293 487
294 295
294 296
294 297
294 298
294 299
294 302
294 303
294 304
294 305
294 306
294 307
294 308
294 309
294 310
294 311
294 313
294 314
294 315
294 316
294 317
294 318
294 319
294 320
294 321
294 322
294 323
294 352
294 363
294 370
294 371
294 372
294 373
294 374
294 376
294 377
294 378
294 379
294 380
294 391
294 402
294 403
294 404
294 405
294 407
294 408
294 409
294 410
294 411
294 412
294 414
294 427
294 428
294 429
294 430
294 431
294 432
294 435
294 436
294 438
294 439
294 440
294 441
294 442
294 443
294 444
294 445
294 446
294 448
294 449
294 450
294 451
294 452
294 453
294 454
294 455
294 456
294 457
294 458
294 461
294 473
294 476
294 478
294 481
294 482
294 483
294 484
294 486
294 487
294 488
294 489
294 490
294 491
295 296
295 297
295 298
295 299
295 302
295 303
295 304
295 305
295 306
295 307
295 308
295 309
295 310
295 311
295 312
295 313
295 315
295 316
295 317
295 318
295 319
295 320
295 321
295 322
295 323
295 352
295 363
295 370
295 371
295 372
295 373
295 374
295 375
295 377
295 378
295 379
295 380
295 391
295 402
295 403
295 404
295 405
295 406
295 409
295 411
295 412
295 414
295 427
295 428
295 429
295 430
295 431
295 433
295 434
295 435
295 436
295 437
295 438
295 439
295 440
295 441
295 442
295 443
295 444
295 445
295 446
295 447
295 448
295 450
295 451
295 452
295 453
295 454
295 455
295 456
295 457
295 458
295 461
295 473
295 476
295 478
295 481
295 482
295 483
295 484
295 485
295 486
295 488
295 489
295 490
295 491
296 297
296 298
296 299
296 302
296 303
296 304
296 305
296 306
296 307
296 308
296 309
296 310
296 311
296 312
296 313
296 314
296 315
296 316
296 318
296 319
296 320
296 321
296 322
296 323
296 352
296 363
296 370
296 371
296 372
296 373
296 374
296 375
296 376
296 378
296 379
296 380
296 391
296 402
296 403
296 404
296 405
296 406
296 409
296 411
296 412
296 414
296 427
296 428
296 429
296 430
296 431
296 432
296 433
296 434
296 436
296 437
296 438
296 439
296 440
296 441
296 442
296 447
296 449
296 453
296 455
296 458
296 461
296 473
296 476
296 478
296 482
296 485
296 487
297 298
297 299
297 302
297 303
297 304
297 305
297 306
297 307
297 308
297 309
297 310
297 311
297 312
297 313
297 314
297 315
297 316
297 317
297 318
297 319
297 320
297 322
297 323
297 352
297 363
297 370
297 371
297 372
297 373
297 374
297 375
297 376
297 377
297 379
297 380
297 391
297 402
297 403
297 404
297 405
297 406
297 407
297 408
297 410
297 411
297 412
297 414
297 427
297 428
297 429
297 430
297 431
297 432
297 433
297 434
297 435
297 437
297 438
297 439
297 440
297 441
297 442
297 443
297 444
297 445
297 446
297 447
297 448
297 449
297 450
297 451
297 452
297 454
297 455
297 456
297 457
297 458
297 461
297 473
297 476
297 478
297 482
297 485
297 487
298 299
298 302
298 304
298 306
298 308
298 310
298 312
298 314
298 317
298 321
298 323
298 352
298 363
298 370
298 371
298 372
298 373
298 374
298 375
298 376
298 377
298 378
298 379
298 391
298 402
298 403
298 404
298 405
298 406
298 407
298 408
298 409
298 410
298 412
298 414
298 427
298 428
298 429
298 430
298 431
298 432
298 433
298 434
298 435
298 436
298 437
298 439
298 440
298 441
298 442
298 443
298 444
298 445
298 446
298 447
298 448
298 449
298 450
298 451
298 452
298 453
298 454
298 456
298 457
298 458
298 459
298 460
298 461
298 462
298 463
298 464
298 465
298 466
298 467
298 468
298 469
298 470
298 471
298 472
298 474
298 475
298 477
298 482
298 485
298 487
299 302
299 303
299 304
299 305
299 306
299 307
299 308
299 309
299 310
299 311
299 312
299 313
299 314
299 315
299 316
299 317
299 318
299 319
299 320
299 321
299 322
299 352
299 363
299 370
299 371
299 372
299 373
299 374
299 375
299 376
299 377
299 378
299 380
299 391
299 402
299 403
299 404
299 405
299 406
299 407
299 408
299 409
299 410
299 411
299 414
299 427
299 428
299 429
299 430
299 431
299 432
299 433
299 434
299 435
299 436
299 437
299 438
299 440
299 441
299 442
299 443
299 444
299 445
299 446
299 447
299 448
299 449
299 450
299 451
299 452
299 453
299 454
299 455
299 456
299 457
299 461
299 473
299 476
299 478
299 482
299 485
299 487
300 301
300 302
300 303
300 304
300 305
300 306
300 307
300 308
300 309
300 310
300 312
300 313
300 314
300 315
300 316
300 317
300 318
300 319
300 320
300 321
300 322
300 323
300 328
300 337
300 338
300 339
300 341
300 342
300 343
300 344
300 345
300 346
300 347
300 348
300 349
300 350
300 351
300 352
300 353
300 355
300 356
300 357
300 358
300 359
300 360
300 361
300 362
300 366
300 386
300 413
300 414
300 415
300 417
300 418
300 419
300 420
300 421
300 422
300 423
300 425
300 426
300 448
300 459
300 460
300 461
300 462
300 463
300 465
300 466
300 467
300 468
300 469
300 470
300 471
300 472
300 473
300 474
300 479
300 493
300 494
301 302
301 303
301 304
301 305
301 306
301 307
301 308
301 309
301 310
301 311
301 312
301 314
301 315
301 316
301 317
301 318
301 319
301 320
301 321
301 322
301 323
301 324
301 325
301 326
301 327
301 329
301 337
301 338
301 339
301 340
301 341
301 343
301 344
301 345
301 346
301 347
301 348
301 349
301 350
301 351
301 352
301 353
301 354
301 355
301 356
301 357
301 359
301 360
301 361
301 362
301 363
301 364
301 365
301 367
301 368
301 369
301 381
301 382
301 383
301 384
301 385
301 387
301 388
301 389
301 390
301 413
301 414
301 415
301 416
301 418
301 419
301 420
301 421
301 422
301 423
301 424
301 426
301 440
301 441
301 442
301 443
301 444
301 445
301 446
301 447
301 449
301 450
301 451
301 452
301 453
301 454
301 455
301 456
301 457
301 458
301 459
301 460
301 461
301 462
301 463
301 464
301 465
301 467
301 468
301 469
301 470
301 471
301 472
301 473
301 474
301 492
301 494
302 303
302 304
302 305
302 306
302 307
302 308
302 309
302 310
302 311
302 312
302 313
302 314
302 315
302 316
302 317
302 318
302 319
302 320
302 321
302 322
302 323
302 328
302 340
302 342
302 347
302 352
302 354
302 358
302 360
302 363
302 366
302 371
302 372
302 373
302 374
302 375
302 376
302 377
302 378
302 379
302 380
302 386
302 391
302 402
302 403
302 404
302 405
302 406
302 409
302 410
302 412
302 413
302 414
302 415
302 416
302 417
302 420
302 421
302 422
302 424
302 425
302 428
302 429
302 430
302 431
302 432
302 433
302 434
302 435
302 436
302 437
302 438
302 439
302 440
302 441
302 442
302 447
302 448
302 449
302 451
302 453
302 454
302 458
302 460
302 461
302 462
302 464
302 466
302 470
302 471
302 475
302 477
302 479
302 481
302 482
302 483
302 485
302 487
302 489
302 490
302 491
302 492
302 493
303 304
303 305
303 306
303 307
303 308
303 309
303 310
303 311
303 312
303 313
303 314
303 315
303 316
303 317
303 318
303 319
303 320
303 321
303 322
303 323
303 328
303 340
303 342
303 347
303 352
303 354
303 358
303 360
303 363
303 366
303 370
303 371
303 372
303 373
303 374
303 375
303 376
303 377
303 378
303 379
303 386
303 391
303 402
303 403
303 404
303 405
303 406
303 409
303 410
303 412
303 414
303 415
303 416
303 417
303 418
303 419
303 420
303 421
303 422
303 424
303 425
303 427
303 428
303 429
303 430
303 431
303 432
303 433
303 435
303 436
303 437
303 439
303 440
303 441
303 442
303 447
303 448
303 449
303 451
303 453
303 454
303 458
303 459
303 461
303 462
303 463
303 464
303 465
303 466
303 467
303 468
303 469
303 470
303 471
303 472
303 473
303 474
303 475
303 477
303 479
303 482
303 483
303 484
303 485
303 486
303 487
303 488
303 489
303 490
303 491
303 492
303 493
304 305
304 306
304 307
304 308
304 309
304 310
304 311
304 312
304 313
304 314
304 315
304 316
304 317
304 318
304 319
304 320
304 321
304 322
304 323
304 328
304 340
304 342
304 347
304 352
304 354
304 358
304 360
304 363
304 366
304 370
304 372
304 373
304 374
304 375
304 376
304 377
304 378
304 379
304 380
304 386
304 391
304 403
304 404
304 405
304 406
304 407
304 408
304 409
304 410
304 411
304 412
304 413
304 414
304 415
304 416
304 417
304 420
304 421
304 422
304 424
304 425
304 427
304 429
304 430
304 431
304 432
304 433
304 434
304 435
304 436
304 437
304 438
304 439
304 441
304 442
304 443
304 444
304 445
304 446
304 447
304 448
304 449
304 450
304 451
304 452
304 453
304 454
304 455
304 456
304 457
304 458
304 460
304 461
304 462
304 464
304 466
304 470
304 471
304 475
304 477
304 479
304 481
304 482
304 483
304 485
304 487
304 489
304 490
304 491
304 492
304 493
305 306
305 307
305 308
305 309
305 310
305 311
305 312
305 313
305 314
305 315
305 316
305 317
305 318
305 319
305 320
305 321
305 322
305 323
305 328
305 340
305 342
305 347
305 352
305 354
305 358
305 360
305 363
305 366
305 370
305 371
305 372
305 373
305 374
305 375
305 376
305 377
305 378
305 379
305 386
305 391
305 402
305 403
305 404
305 405
305 406
305 409
305 410
305 412
305 413
305 414
305 415
305 416
305 417
305 420
305 421
305 422
305 424
305 425
305 427
305 428
305 429
305 430
305 431
305 432
305 433
305 435
305 436
305 437
305 439
305 440
305 441
305 442
305 447
305 448
305 449
305 451
305 453
305 454
305 458
305 460
305 461
305 462
305 464
305 466
305 470
305 471
305 475
305 477
305 479
305 481
305 482
305 483
305 485
305 487
305 489
305 490
305 491
305 492
305 493
306 307
306 308
306 309
306 310
306 311
306 312
306 313
306 314
306 315
306 316
306 317
306 318
306 319
306 320
306 321
306 322
306 323
306 328
306 340
306 342
306 347
306 352
306 354
306 358
306 360
306 363
306 366
306 370
306 371
306 373
306 374
306 375
306 376
306 377
306 378
306 379
306 380
306 386
306 391
306 402
306 404
306 405
306 406
306 407
306 408
306 409
306 410
306 411
306 412
306 413
306 415
306 416
306 417
306 418
306 419
306 420
306 421
306 422
306 424
306 425
306 427
306 428
306 430
306 431
306 432
306 433
306 434
306 435
306 436
306 437
306 438
306 439
306 440
306 442
306 443
306 444
306 445
306 446
306 447
306 448
306 449
306 450
306 451
306 452
306 453
306 454
306 455
306 456
306 457
306 458
306 460
306 461
306 462
306 464
306 466
306 470
306 471
306 475
306 477
306 479
306 481
306 482
306 483
306 485
306 487
306 489
306 490
306 491
306 492
306 493
307 308
307 309
307 310
307 311
307 312
307 313
307 314
307 315
307 316
307 317
307 318
307 319
307 320
307 321
307 322
307 323
307 328
307 340
307 342
307 347
307 352
307 354
307 358
307 360
307 363
307 366
307 370
307 371
307 372
307 373
307 374
307 375
307 376
307 377
307 378
307 379
307 386
307 391
307 402
307 403
307 404
307 405
307 406
307 409
307 410
307 412
307 413
307 414
307 415
307 416
307 417
307 420
307 421
307 422
307 424
307 425
307 427
307 428
307 429
307 430
307 431
307 432
307 433
307 435
307 436
307 437
307 439
307 440
307 441
307 442
307 447
307 448
307 449
307 451
307 453
307 454
307 458
307 460
307 461
307 462
307 464
307 466
307 470
307 471
307 475
307 478
307 479
307 481
307 482
307 483
307 485
307 487
307 489
307 490
307 491
307 492
307 493
308 309
308 310
308 311
308 312
308 313
308 314
308 315
308 316
308 317
308 318
308 319
308 320
308 321
308 322
308 323
308 328
308 340
308 342
308 347
308 353
308 354
308 355
308 356
308 357
308 358
308 359
308 360
308 361
308 362
308 364
308 365
308 366
308 367
308 368
308 369
308 370
308 371
308 372
308 374
308 375
308 376
308 377
308 378
308 379
308 380
308 386
308 392
308 393
308 394
308 402
308 403
308 405
308 406
308 407
308 408
308 409
308 410
308 411
308 412
308 413
308 414
308 415
308 416
308 417
308 420
308 421
308 422
308 424
308 425
308 427
308 428
308 429
308 431
308 432
308 433
308 434
308 435
308 436
308 437
308 438
308 439
308 440
308 441
308 442
308 447
308 448
308 449
308 451
308 453
308 454
308 458
308 459
308 460
308 462
308 463
308 464
308 465
308 466
308 467
308 468
308 469
308 470
308 471
308 472
308 473
308 474
308 475
308 477
308 479
308 481
308 483
308 484
308 485
308 486
308 487
308 488
308 489
308 490
308 491
308 492
308 493
309 310
309 311
309 312
309 313
309 314
309 315
309 316
309 317
309 318
309 319
309 320
309 321
309 322
309 323
309 328
309 340
309 342
309 347
309 352
309 354
309 358
309 360
309 363
309 366
309 370
309 371
309 372
309 373
309 374
309 375
309 376
309 377
309 378
309 379
309 386
309 391
309 402
309 403
309 404
309 405
309 406
309 409
309 410
309 412
309 413
309 414
309 416
309 417
309 418
309 419
309 420
309 421
309 422
309 424
309 425
309 427
309 428
309 429
309 430
309 431
309 432
309 433
309 435
309 436
309 437
309 439
309 440
309 441
309 442
309 447
309 448
309 449
309 451
309 453
309 454
309 458
309 459
309 460
309 461
309 463
309 464
309 465
309 466
309 467
309 468
309 469
309 470
309 471
309 472
309 473
309 474
309 475
309 477
309 479
309 481
309 482
309 484
309 485
309 486
309 487
309 488
309 489
309 490
309 491
309 492
309 493
310 311
310 312
310 313
310 314
310 315
310 316
310 317
310 318
310 319
310 320
310 321
310 322
310 323
310 328
310 340
310 342
310 347
310 352
310 354
310 358
310 360
310 363
310 366
310 370
310 371
310 372
310 373
310 375
310 376
310 377
310 378
310 379
310 380
310 386
310 391
310 402
310 403
310 404
310 406
310 407
310 408
310 409
310 410
310 411
310 412
310 413
310 414
310 415
310 416
310 417
310 420
310 421
310 422
310 424
310 425
310 427
310 428
310 429
310 430
310 432
310 433
310 434
310 435
310 436
310 437
310 438
310 439
310 440
310 441
310 443
310 444
310 445
310 446
310 447
310 448
310 449
310 450
310 451
310 452
310 453
310 454
310 455
310 456
310 457
310 458
310 460
310 461
310 462
310 464
310 466
310 470
310 471
310 475
310 477
310 479
310 481
310 482
310 483
310 485
310 487
310 489
310 490
310 491
310 492
310 493
311 312
311 313
311 314
311 315
311 316
311 317
311 318
311 319
311 320
311 321
311 322
311 323
311 328
311 337
311 338
311 339
311 341
311 342
311 343
311 344
311 345
311 346
311 347
311 348
311 349
311 350
311 351
311 352
311 353
311 355
311 356
311 357
311 358
311 359
311 360
311 361
311 362
311 363
311 366
311 370
311 371
311 372
311 373
311 374
311 375
311 376
311 377
311 378
311 379
311 386
311 391
311 402
311 403
311 404
311 405
311 406
311 409
311 410
311 412
311 413
311 414
311 415
311 417
311 418
311 419
311 420
311 421
311 422
311 423
311 425
311 426
311 427
311 428
311 429
311 430
311 431
311 432
311 433
311 435
311 436
311 437
311 439
311 440
311 441
311 442
311 447
311 448
311 449
311 451
311 453
311 454
311 458
311 459
311 460
311 461
311 462
311 463
311 465
311 466
311 467
311 468
311 469
311 470
311 471
311 472
311 473
311 474
311 475
311 477
311 479
311 481
311 482
311 483
311 485
311 487
311 489
311 490
311 491
311 493
311 494
312 313
312 314
312 315
312 316
312 317
312 318
312 319
312 320
312 321
312 322
312 323
312 328
312 340
312 342
312 347
312 352
312 354
312 358
312 360
312 363
312 366
312 370
312 371
312 372
312 373
312 374
312 376
312 377
312 378
312 379
312 380
312 386
312 391
312 402
312 403
312 404
312 405
312 407
312 408
312 409
312 410
312 411
312 412
312 413
312 414
312 415
312 416
312 417
312 420
312 421
312 422
312 424
312 425
312 427
312 428
312 429
312 430
312 431
312 432
312 433
312 435
312 436
312 437
312 439
312 440
312 441
312 442
312 443
312 444
312 445
312 446
312 448
312 449
312 450
312 451
312 452
312 453
312 454
312 455
312 456
312 457
312 458
312 460
312 461
312 462
312 464
312 466
312 470
312 471
312 475
312 477
312 479
312 481
312 482
312 483
312 484
312 486
312 487
312 488
312 489
312 490
312 491
312 492
312 493
313 314
313 315
313 316
313 317
313 318
313 319
313 320
313 321
313 322
313 323
313 324
313 325
313 326
313 327
313 329
313 337
313 338
313 339
313 340
313 341
313 343
313 344
313 345
313 346
313 347
313 348
313 349
313 350
313 351
313 352
313 353
313 354
313 355
313 356
313 357
313 359
313 360
313 361
313 362
313 363
313 364
313 365
313 367
313 368
313 369
313 370
313 371
313 372
313 373
313 374
313 375
313 376
313 377
313 378
313 379
313 381
313 382
313 383
313 384
313 385
313 387
313 388
313 389
313 390
313 391
313 402
313 403
313 404
313 405
313 406
313 409
313 410
313 412
313 413
313 414
313 415
313 416
313 418
313 419
313 420
313 421
313 422
313 423
313 424
313 426
313 427
313 428
313 429
313 430
313 431
313 432
313 433
313 435
313 436
313 437
313 439
313 440
313 441
313 442
313 443
313 444
313 445
313 446
313 447
313 449
313 450
313 451
313 452
313 453
313 454
313 455
313 456
313 457
313 458
313 459
313 460
313 461
313 462
313 463
313 464
313 465
313 467
313 468
313 469
313 470
313 471
313 472
313 473
313 474
313 475
313 477
313 481
313 482
313 483
313 485
313 487
313 489
313 490
313 491
313 492
313 494
314 315
314 316
314 317
314 318
314 319
314 320
314 321
314 322
314 323
314 328
314 340
314 342
314 347
314 352
314 354
314 358
314 360
314 363
314 366
314 370
314 371
314 372
314 373
314 374
314 375
314 377
314 378
314 379
314 380
314 386
314 391
314 402
314 403
314 404
314 405
314 406
314 409
314 410
314 412
314 413
314 414
314 415
314 416
314 417
314 420
314 421
314 422
314 424
314 425
314 427
314 428
314 429
314 430
314 431
314 433
314 434
314 435
314 436
314 437
314 438
314 439
314 440
314 441
314 442
314 443
314 444
314 445
314 446
314 447
314 448
314 450
314 451
314 452
314 453
314 454
314 455
314 456
314 457
314 458
314 460
314 461
314 462
314 464
314 466
314 470
314 471
314 475
314 477
314 479
314 481
314 482
314 483
314 484
314 485
314 486
314 488
314 489
314 490
314 491
314 492
314 493
315 316
315 317
315 318
315 319
315 320
315 321
315 322
315 323
315 328
315 340
315 342
315 347
315 352
315 354
315 358
315 360
315 363
315 366
315 370
315 371
315 372
315 373
315 374
315 375
315 376
315 377
315 378
315 379
315 386
315 391
315 402
315 403
315 404
315 405
315 406
315 409
315 410
315 412
315 413
315 414
315 415
315 416
315 417
315 420
315 421
315 422
315 424
315 425
315 427
315 428
315 429
315 430
315 431
315 432
315 433
315 435
315 436
315 437
315 439
315 440
315 441
315 442
315 447
315 448
315 449
315 451
315 453
315 454
315 458
315 460
315 461
315 462
315 464
315 466
315 470
315 471
315 476
315 477
315 479
315 481
315 482
315 483
315 485
315 487
315 489
315 490
315 491
315 492
315 493
316 317
316 318
316 319
316 320
316 321
316 322
316 323
316 328
316 340
316 342
316 347
316 352
316 354
316 358
316 360
316 363
316 366
316 370
316 371
316 372
316 373
316 374
316 375
316 376
316 377
316 378
316 379
316 386
316 391
316 402
316 403
316 404
316 405
316 406
316 409
316 410
316 412
316 413
316 414
316 415
316 416
316 417
316 420
316 421
316 422
316 424
316 425
316 427
316 428
316 429
316 430
316 431
316 432
316 434
316 435
316 436
316 437
316 438
316 439
316 440
316 441
316 442
316 447
316 448
316 449
316 451
316 453
316 454
316 458
316 460
316 461
316 462
316 464
316 466
316 470
316 471
316 475
316 477
316 479
316 481
316 482
316 483
316 485
316 487
316 489
316 490
316 491
316 492
316 493
317 318
317 319
317 320
317 321
317 322
317 323
317 328
317 340
317 342
317 347
317 352
317 354
317 358
317 360
317 363
317 366
317 370
317 371
317 372
317 373
317 374
317 375
317 376
317 378
317 379
317 380
317 386
317 391
317 402
317 403
317 404
317 405
317 406
317 409
317 410
317 412
317 413
317 414
317 415
317 416
317 417
317 420
317 421
317 422
317 424
317 425
317 427
317 428
317 429
317 430
317 431
317 432
317 433
317 434
317 436
317 437
317 438
317 439
317 440
317 441
317 442
317 447
317 448
317 449
317 451
317 453
317 454
317 458
317 460
317 461
317 462
317 464
317 466
317 470
317 471
317 475
317 477
317 479
317 481
317 482
317 483
317 485
317 487
317 489
317 490
317 491
317 492
317 493
318 319
318 320
318 321
318 322
318 323
318 328
318 340
318 342
318 347
318 352
318 354
318 358
318 360
318 363
318 366
318 370
318 371
318 372
318 373
318 374
318 375
318 376
318 377
318 378
318 379
318 386
318 391
318 402
318 403
318 404
318 405
318 406
318 409
318 410
318 412
318 413
318 414
318 415
318 416
318 417
318 418
318 419
318 421
318 422
318 424
318 425
318 427
318 428
318 429
318 430
318 431
318 432
318 433
318 435
318 436
318 437
318 439
318 440
318 441
318 442
318 447
318 448
318 449
318 451
318 453
318 454
318 458
318 459
318 460
318 461
318 462
318 463
318 464
318 465
318 466
318 467
318 468
318 469
318 471
318 472
318 473
318 474
318 475
318 477
318 479
318 481
318 482
318 483
318 484
318 485
318 486
318 487
318 488
318 490
318 491
318 492
318 493
319 320
319 321
319 322
319 323
319 328
319 337
319 338
319 339
319 340
319 341
319 342
319 343
319 344
319 345
319 346
319 348
319 349
319 350
319 351
319 352
319 353
319 354
319 355
319 356
319 357
319 358
319 359
319 361
319 362
319 363
319 366
319 370
319 371
319 372
319 373
319 374
319 375
319 376
319 377
319 378
319 379
319 386
319 391
319 402
319 403
319 404
319 405
319 406
319 409
319 410
319 412
319 413
319 414
319 415
319 416
319 417
319 418
319 419
319 420
319 422
319 424
319 425
319 427
319 428
319 429
319 430
319 431
319 432
319 433
319 435
319 436
319 437
319 439
319 440
319 441
319 442
319 443
319 444
319 445
319 446
319 447
319 448
319 449
319 450
319 452
319 453
319 454
319 455
319 456
319 457
319 458
319 460
319 461
319 462
319 464
319 466
319 470
319 471
319 475
319 477
319 479
319 481
319 482
319 483
319 484
319 485
319 486
319 487
319 488
319 489
319 491
319 492
319 493
320 321
320 322
320 323
320 328
320 340
320 342
320 347
320 352
320 354
320 358
320 360
320 363
320 366
320 370
320 371
320 372
320 373
320 374
320 375
320 376
320 377
320 378
320 379
320 386
320 391
320 402
320 403
320 404
320 405
320 406
320 409
320 410
320 412
320 413
320 414
320 415
320 416
320 417
320 418
320 419
320 420
320 421
320 424
320 425
320 427
320 428
320 429
320 430
320 431
320 432
320 433
320 435
320 436
320 437
320 439
320 440
320 441
320 442
320 447
320 448
320 449
320 451
320 453
320 454
320 458
320 459
320 460
320 461
320 462
320 463
320 464
320 465
320 466
320 467
320 468
320 469
320 470
320 472
320 473
320 474
320 475
320 477
320 479
320 481
320 482
320 483
320 484
320 485
320 486
320 487
320 488
320 489
320 490
320 492
320 493
321 322
321 323
321 328
321 340
321 342
321 347
321 352
321 354
321 358
321 360
321 363
321 366
321 370
321 371
321 372
321 373
321 374
321 375
321 376
321 377
321 379
321 380
321 386
321 391
321 402
321 403
321 404
321 405
321 406
321 407
321 408
321 410
321 411
321 412
321 413
321 414
321 415
321 416
321 417
321 420
321 421
321 422
321 424
321 425
321 427
321 428
321 429
321 430
321 431
321 432
321 433
321 434
321 435
321 437
321 438
321 439
321 440
321 441
321 442
321 443
321 444
321 445
321 446
321 447
321 448
321 449
321 450
321 451
321 452
321 454
321 455
321 456
321 457
321 458
321 460
321 461
321 462
321 464
321 466
321 470
321 471
321 475
321 477
321 479
321 481
321 482
321 483
321 485
321 487
321 489
321 490
321 491
321 492
321 493
322 323
322 328
322 340
322 342
322 347
322 352
322 354
322 358
322 360
322 363
322 366
322 370
322 371
322 372
322 373
322 374
322 375
322 376
322 377
322 378
322 380
322 386
322 391
322 402
322 403
322 404
322 405
322 406
322 407
322 408
322 409
322 411
322 412
322 413
322 414
322 415
322 416
322 417
322 420
322 421
322 422
322 424
322 425
322 427
322 428
322 429
322 430
322 431
322 432
322 433
322 434
322 435
322 436
322 438
322 439
322 440
322 441
322 442
322 443
322 444
322 445
322 446
322 447
322 448
322 449
322 450
322 451
322 452
322 453
322 455
322 456
322 457
322 458
322 460
322 461
322 462
322 464
322 466
322 470
322 471
322 475
322 477
322 479
322 481
322 482
322 483
322 485
322 487
322 489
322 490
322 491
322 492
322 493
323 328
323 340
323 342
323 347
323 352
323 354
323 358
323 360
323 363
323 366
323 370
323 371
323 372
323 373
323 374
323 375
323 376
323 377
323 378
323 379
323 386
323 391
323 402
323 403
323 404
323 405
323 406
323 407
323 408
323 409
323 410
323 411
323 413
323 414
323 415
323 416
323 417
323 420
323 421
323 422
323 424
323 425
323 427
323 428
323 429
323 430
323 431
323 432
323 433
323 434
323 435
323 436
323 437
323 438
323 440
323 441
323 442
323 443
323 444
323 445
323 446
323 447
323 448
323 449
323 450
323 451
323 452
323 453
323 454
323 455
323 456
323 457
323 460
323 461
323 462
323 464
323 466
323 470
323 471
323 475
323 477
323 479
323 481
323 482
323 483
323 485
323 487
323 489
323 490
323 491
323 492
323 493
324 325
324 326
324 327
324 328
324 329
324 338
324 339
324 340
324 341
324 342
324 343
324 344
324 345
324 346
324 347
324 348
324 349
324 350
324 351
324 358
324 366
324 386
324 417
324 425
324 448
324 466
324 479
324 493
325 326
325 327
325 328
325 329
325 337
325 342
325 358
325 366
325 386
325 417
325 425
325 448
325 466
325 479
325 493
326 327
326 328
326 329
326 337
326 342
326 358
326 366
326 386
326 417
326 425
326 448
326 466
326 479
326 493
327 328
327 329
327 337
327 342
327 358
327 366
327 386
327 417
327 425
327 448
327 466
327 479
327 493
328 329
328 337
328 338
328 339
328 340
328 341
328 343
328 344
328 345
328 346
328 347
328 348
328 349
328 350
328 351
328 352
328 353
328 354
328 355
328 356
328 357
328 359
328 360
328 361
328 362
328 363
328 364
328 365
328 367
328 368
328 369
328 381
328 382
328 383
328 384
328 385
328 387
328 388
328 389
328 390
328 413
328 414
328 415
328 416
328 418
328 419
328 420
328 421
328 422
328 423
328 424
328 426
328 440
328 441
328 442
328 443
328 444
328 445
328 446
328 447
328 449
328 450
328 451
328 452
328 453
328 454
328 455
328 456
328 457
328 458
328 459
328 460
328 461
328 462
328 463
328 464
328 465
328 467
328 468
328 469
328 470
328 471
328 472
328 473
328 474
328 492
328 494
329 337
329 342
329 358
329 366
329 386
329 417
329 425
329 448
329 466
329 479
329 493
330 331
330 332
330 333
330 334
330 335
330 336
330 339
330 341
330 343
330 349
330 350
330 351
330 357
330 396
330 397
330 398
330 399
330 400
330 401
330 446
330 460
330 461
330 462
330 463
330 464
330 465
330 466
330 467
330 468
330 469
330 470
330 471
330 472
330 473
330 474
331 332
331 333
331 334
331 335
331 336
331 337
331 338
331 340
331 341
331 342
331 343
331 344
331 345
331 346
331 347
331 348
331 349
331 350
331 351
331 357
331 395
331 396
331 398
331 399
331 400
331 401
331 446
331 459
332 333
332 334
332 335
332 336
332 337
332 338
332 339
332 340
332 342
332 343
332 344
332 345
332 346
332 347
332 348
332 349
332 350
332 351
332 352
332 353
332 354
332 355
332 356
332 358
332 359
332 360
332 361
332 362
332 395
332 396
332 397
332 399
332 400
332 401
332 440
332 441
332 442
332 443
332 444
332 445
332 447
332 448
332 449
332 450
332 451
332 452
332 453
332 454
332 455
332 456
332 457
332 458
332 459
333 334
333 335
333 336
333 337
333 338
333 339
333 340
333 341
333 342
333 344
333 345
333 346
333 347
333 348
333 349
333 350
333 351
333 357
333 395
333 396
333 397
333 398
333 400
333 401
333 446
333 459
334 335
334 336
334 337
334 338
334 339
334 340
334 341
334 342
334 343
334 344
334 345
334 346
334 347
334 348
334 350
334 351
334 357
334 395
334 396
334 397
334 398
334 399
334 401
334 446
334 459
335 336
335 337
335 338
335 339
335 340
335 341
335 342
335 343
335 344
335 345
335 346
335 347
335 348
335 349
335 351
335 357
335 395
335 397
335 398
335 399
335 400
335 401
335 446
335 459
336 337
336 338
336 339
336 340
336 341
336 342
336 343
336 344
336 345
336 346
336 347
336 348
336 349
336 350
336 357
336 395
336 396
336 397
336 398
336 399
336 400
336 446
336 459
337 338
337 339
337 340
337 341
337 342
337 343
337 344
337 345
337 346
337 347
337 348
337 349
337 350
337 351
337 354
337 357
337 358
337 359
337 360
337 366
337 386
337 396
337 397
337 398
337 399
337 400
337 401
337 416
337 417
337 418
337 421
337 424
337 425
337 446
337 448
337 451
337 464
337 466
337 467
337 479
337 488
337 490
337 492
337 493
338 339
338 340
338 341
338 342
338 343
338 344
338 345
338 346
338 347
338 348
338 349
338 350
338 351
338 354
338 357
338 358
338 359
338 360
338 366
338 386
338 395
338 397
338 398
338 399
338 400
338 401
338 416
338 417
338 418
338 421
338 424
338 425
338 446
338 448
338 451
338 464
338 466
338 467
338 479
338 488
338 490
338 492
338 493
339 340
339 341
339 342
339 343
339 344
339 345
339 346
339 347
339 348
339 349
339 350
339 351
339 354
339 357
339 358
339 359
339 360
339 366
339 386
339 395
339 396
339 398
339 399
339 400
339 401
339 416
339 417
339 418
339 421
339 424
339 425
339 446
339 448
339 451
339 464
339 466
339 467
339 479
339 488
339 490
339 492
339 493
340 341
340 342
340 343
340 344
340 345
340 346
340 347
340 348
340 349
340 350
340 351
340 352
340 353
340 355
340 356
340 357
340 358
340 359
340 360
340 361
340 362
340 366
340 386
340 396
340 397
340 398
340 399
340 400
340 401
340 413
340 414
340 415
340 417
340 418
340 419
340 420
340 421
340 422
340 423
340 425
340 426
340 446
340 448
340 451
340 459
340 460
340 461
340 462
340 463
340 465
340 466
340 467
340 468
340 469
340 470
340 471
340 472
340 473
340 474
340 479
340 488
340 490
340 493
340 494
341 342
341 343
341 344
341 345
341 346
341 347
341 348
341 349
341 350
341 351
341 352
341 353
341 354
341 355
341 356
341 358
341 359
341 360
341 361
341 362
341 366
341 386
341 395
341 396
341 397
341 399
341 400
341 401
341 416
341 417
341 418
341 421
341 424
341 425
341 440
341 441
341 442
341 443
341 444
341 445
341 447
341 448
341 449
341 450
341 451
341 452
341 453
341 454
341 455
341 456
341 457
341 458
341 464
341 466
341 467
341 479
341 488
341 490
341 492
341 493
342 343
342 344
342 345
342 346
342 347
342 348
342 349
342 350
342 351
342 352
342 353
342 354
342 355
342 356
342 357
342 359
342 360
342 361
342 362
342 363
342 364
342 365
342 367
342 368
342 369
342 381
342 382
342 383
342 384
342 385
342 387
342 388
342 389
342 390
342 396
342 397
342 398
342 399
342 400
342 401
342 413
342 414
342 415
342 416
342 418
342 419
342 420
342 421
342 422
342 423
342 424
342 426
342 440
342 441
342 442
342 443
342 444
342 445
342 446
342 447
342 449
342 450
342 451
342 452
342 453
342 454
342 455
342 456
342 457
342 458
342 459
342 460
342 461
342 462
342 463
342 464
342 465
342 467
342 468
342 469
342 470
342 471
342 472
342 473
342 474
342 488
342 490
342 492
342 494
343 344
343 345
343 346
343 347
343 348
343 349
343 350
343 351
343 354
343 357
343 358
343 359
343 360
343 366
343 386
343 395
343 396
343 397
343 398
343 400
343 401
343 416
343 417
343 418
343 421
343 424
343 425
343 446
343 448
343 451
343 464
343 466
343 467
343 479
343 488
343 490
343 492
343 493
344 345
344 346
344 347
344 348
344 349
344 350
344 351
344 352
344 353
344 354
344 355
344 356
344 357
344 358
344 360
344 361
344 362
344 366
344 386
344 396
344 397
344 398
344 399
344 400
344 401
344 413
344 414
344 415
344 416
344 417
344 419
344 420
344 421
344 422
344 424
344 425
344 446
344 448
344 451
344 459
344 460
344 461
344 462
344 463
344 464
344 465
344 466
344 468
344 469
344 470
344 471
344 472
344 473
344 474
344 479
344 481
344 482
344 483
344 484
344 485
344 486
344 487
344 489
344 490
344 491
344 492
344 493
345 346
345 347
345 348
345 349
345 350
345 351
345 354
345 357
345 358
345 359
345 360
345 366
345 386
345 396
345 397
345 398
345 399
345 400
345 401
345 416
345 417
345 418
345 421
345 424
345 425
345 446
345 448
345 451
345 464
345 466
345 467
345 479
345 488
345 490
345 492
345 493
346 347
346 348
346 349
346 350
346 351
346 354
346 357
346 358
346 359
346 360
346 366
346 386
346 396
346 397
346 398
346 399
346 400
346 401
346 416
346 417
346 418
346 421
346 424
346 425
346 446
346 448
346 451
346 464
346 466
346 467
346 479
346 488
346 490
346 492
346 493
347 348
347 349
347 350
347 351
347 352
347 353
347 354
347 355
347 356
347 357
347 358
347 359
347 361
347 362
347 366
347 386
347 396
347 397
347 398
347 399
347 400
347 401
347 413
347 414
347 415
347 416
347 417
347 418
347 419
347 420
347 422
347 424
347 425
347 440
347 441
347 442
347 443
347 444
347 445
347 446
347 447
347 448
347 449
347 450
347 452
347 453
347 454
347 455
347 456
347 457
347 458
347 464
347 466
347 467
347 479
347 481
347 482
347 483
347 484
347 485
347 486
347 487
347 488
347 489
347 491
347 492
347 493
348 349
348 350
348 351
348 354
348 357
348 358
348 359
348 360
348 366
348 386
348 396
348 397
348 398
348 399
348 400
348 401
348 416
348 417
348 418
348 421
348 424
348 425
348 446
348 448
348 451
348 464
348 466
348 467
348 479
348 488
348 490
348 492
348 493
349 350
349 351
349 354
349 357
349 358
349 359
349 360
349 366
349 386
349 395
349 396
349 397
349 398
349 399
349 401
349 416
349 417
349 418
349 421
349 424
349 425
349 446
349 448
349 451
349 464
349 466
349 467
349 479
349 488
349 490
349 492
349 493
350 351
350 354
350 357
350 358
350 359
350 360
350 366
350 386
350 396
350 397
350 398
350 399
350 400
350 401
350 416
350 417
350 418
350 421
350 424
350 425
350 446
350 448
350 451
350 464
350 466
350 467
350 479
350 488
350 490
350 492
350 493
351 354
351 357
351 358
351 359
351 360
351 366
351 386
351 395
351 396
351 397
351 398
351 399
351 400
351 416
351 417
351 418
351 421
351 424
351 425
351 446
351 448
351 451
351 464
351 466
351 467
351 479
351 488
351 490
351 492
351 493
352 353
352 354
352 355
352 356
352 357
352 358
352 359
352 360
352 361
352 362
352 364
352 365
352 366
352 367
352 368
352 369
352 370
352 371
352 372
352 374
352 375
352 376
352 377
352 378
352 379
352 380
352 386
352 392
352 393
352 394
352 398
352 402
352 403
352 405
352 406
352 407
352 408
352 409
352 410
352 411
352 412
352 416
352 417
352 418
352 421
352 424
352 425
352 427
352 428
352 429
352 431
352 432
352 433
352 434
352 435
352 436
352 437
352 438
352 439
352 444
352 445
352 446
352 448
352 451
352 457
352 459
352 460
352 462
352 463
352 464
352 465
352 466
352 467
352 468
352 469
352 470
352 471
352 472
352 473
352 474
352 479
352 481
352 483
352 484
352 485
352 486
352 487
352 488
352 489
352 490
352 491
352 492
352 493
353 354
353 355
353 356
353 357
353 358
353 359
353 360
353 361
353 362
353 363
353 365
353 366
353 367
353 368
353 369
353 373
353 386
353 391
353 392
353 394
353 398
353 404
353 416
353 417
353 418
353 421
353 424
353 425
353 430
353 440
353 441
353 442
353 443
353 445
353 446
353 447
353 448
353 449
353 450
353 451
353 452
353 453
353 454
353 455
353 456
353 457
353 458
353 461
353 464
353 466
353 467
353 479
353 482
353 488
353 490
353 492
353 493
354 355
354 356
354 357
354 358
354 359
354 360
354 361
354 362
354 363
354 364
354 366
354 369
354 373
354 386
354 391
354 392
354 394
354 398
354 404
354 413
354 414
354 415
354 417
354 418
354 419
354 420
354 421
354 422
354 423
354 425
354 426
354 430
354 444
354 445
354 446
354 448
354 451
354 457
354 459
354 460
354 461
354 462
354 463
354 465
354 466
354 467
354 468
354 469
354 470
354 471
354 472
354 473
354 474
354 479
354 482
354 488
354 490
354 493
354 494
355 356
355 357
355 358
355 359
355 360
355 361
355 362
355 363
355 364
355 366
355 369
355 373
355 386
355 391
355 393
355 394
355 398
355 404
355 416
355 417
355 418
355 421
355 424
355 425
355 430
355 440
355 441
355 442
355 443
355 444
355 446
355 447
355 448
355 449
355 450
355 451
355 452
355 453
355 454
355 455
355 456
355 457
355 458
355 461
355 464
355 466
355 467
355 479
355 482
355 488
355 490
355 492
355 493
356 357
356 358
356 359
356 360
356 361
356 362
356 363
356 364
356 366
356 369
356 373
356 386
356 391
356 392
356 394
356 398
356 404
356 416
356 417
356 418
356 421
356 424
356 425
356 430
356 444
356 445
356 446
356 448
356 451
356 457
356 461
356 464
356 466
356 467
356 479
356 482
356 488
356 490
356 492
356 493
357 358
357 359
357 360
357 361
357 362
357 363
357 364
357 366
357 369
357 373
357 386
357 391
357 392
357 394
357 395
357 396
357 397
357 399
357 400
357 401
357 404
357 416
357 417
357 418
357 421
357 424
357 425
357 430
357 440
357 441
357 442
357 443
357 444
357 445
357 447
357 448
357 449
357 450
357 451
357 452
357 453
357 454
357 455
357 456
357 457
357 458
357 461
357 464
357 466
357 467
357 479
357 482
357 488
357 490
357 492
357 493
358 359
358 360
358 361
358 362
358 363
358 364
358 365
358 367
358 368
358 369
358 373
358 381
358 382
358 383
358 384
358 385
358 387
358 388
358 389
358 390
358 391
358 392
358 394
358 398
358 404
358 413
358 414
358 415
358 416
358 418
358 419
358 420
358 421
358 422
358 423
358 424
358 426
358 430
358 440
358 441
358 442
358 443
358 444
358 445
358 446
358 447
358 449
358 450
358 451
358 452
358 453
358 454
358 455
358 456
358 457
358 458
358 459
358 460
358 461
358 462
358 463
358 464
358 465
358 467
358 468
358 469
358 470
358 471
358 472
358 473
358 474
358 482
358 488
358 490
358 492
358 494
359 360
359 361
359 362
359 363
359 364
359 366
359 369
359 373
359 386
359 391
359 392
359 394
359 398
359 404
359 413
359 414
359 415
359 416
359 417
359 419
359 420
359 421
359 422
359 424
359 425
359 430
359 444
359 445
359 446
359 448
359 451
359 457
359 459
359 460
359 461
359 462
359 463
359 464
359 465
359 466
359 468
359 469
359 470
359 471
359 472
359 473
359 474
359 479
359 481
359 482
359 483
359 484
359 485
359 486
359 487
359 489
359 490
359 491
359 492
359 493
360 361
360 362
360 363
360 364
360 366
360 369
360 373
360 386
360 391
360 392
360 394
360 398
360 404
360 413
360 414
360 415
360 416
360 417
360 418
360 419
360 420
360 422
360 424
360 425
360 430
360 440
360 441
360 442
360 443
360 444
360 445
360 446
360 447
360 448
360 449
360 450
360 452
360 453
360 454
360 455
360 456
360 457
360 458
360 461
360 464
360 466
360 467
360 479
360 481
360 482
360 483
360 484
360 485
360 486
360 487
360 488
360 489
360 491
360 492
360 493
361 362
361 363
361 364
361 366
361 369
361 373
361 386
361 391
361 392
361 394
361 398
361 404
361 416
361 417
361 418
361 421
361 424
361 425
361 430
361 444
361 445
361 446
361 448
361 451
361 457
361 461
361 464
361 466
361 467
361 479
361 482
361 488
361 490
361 492
361 493
362 363
362 364
362 365
362 366
362 367
362 368
362 373
362 386
362 391
362 392
362 393
362 398
362 404
362 416
362 417
362 418
362 421
362 424
362 425
362 430
362 440
362 441
362 442
362 443
362 444
362 445
362 446
362 447
362 448
362 449
362 450
362 451
362 452
362 453
362 454
362 455
362 456
362 458
362 461
362 464
362 466
362 467
362 479
362 482
362 488
362 490
362 492
362 493
363 364
363 365
363 366
363 367
363 368
363 369
363 370
363 371
363 372
363 374
363 375
363 376
363 377
363 378
363 379
363 380
363 386
363 392
363 393
363 394
363 402
363 403
363 405
363 406
363 407
363 408
363 409
363 410
363 411
363 412
363 417
363 425
363 427
363 428
363 429
363 431
363 432
363 433
363 434
363 435
363 436
363 437
363 438
363 439
363 444
363 448
363 452
363 457
363 459
363 460
363 462
363 463
363 464
363 465
363 466
363 467
363 468
363 469
363 470
363 471
363 472
363 473
363 474
363 479
363 481
363 483
363 484
363 485
363 486
363 487
363 488
363 489
363 490
363 491
363 493
363 494
364 365
364 366
364 367
364 368
364 369
364 373
364 386
364 391
364 393
364 394
364 404
364 417
364 425
364 430
364 440
364 441
364 442
364 443
364 445
364 446
364 447
364 448
364 449
364 450
364 451
364 452
364 453
364 454
364 455
364 456
364 457
364 458
364 461
364 466
364 472
364 479
364 482
364 493
364 494
365 366
365 367
365 368
365 369
365 373
365 386
365 391
365 393
365 394
365 404
365 417
365 425
365 430
365 444
365 448
365 452
365 457
365 461
365 466
365 472
365 479
365 482
365 493
365 494
366 367
366 368
366 369
366 373
366 381
366 382
366 383
366 384
366 385
366 387
366 388
366 389
366 390
366 391
366 393
366 394
366 404
366 413
366 414
366 415
366 416
366 418
366 419
366 420
366 421
366 422
366 423
366 424
366 426
366 430
366 440
366 441
366 442
366 443
366 444
366 445
366 446
366 447
366 449
366 450
366 451
366 452
366 453
366 454
366 455
366 456
366 457
366 458
366 459
366 460
366 461
366 462
366 463
366 464
366 465
366 467
366 468
366 469
366 470
366 471
366 472
366 473
366 474
366 482
366 492
366 494
367 368
367 369
367 373
367 386
367 391
367 393
367 394
367 404
367 417
367 425
367 430
367 444
367 448
367 452
367 457
367 461
367 466
367 472
367 479
367 482
367 493
367 494
368 369
368 373
368 386
368 391
368 392
368 394
368 404
368 417
368 425
368 430
368 440
368 441
368 442
368 443
368 444
368 445
368 446
368 447
368 448
368 449
368 450
368 451
368 453
368 454
368 455
368 456
368 457
368 458
368 459
368 460
368 461
368 462
368 463
368 464
368 465
368 466
368 467
368 468
368 469
368 470
368 471
368 473
368 474
368 479
368 482
368 492
368 493
369 373
369 386
369 391
369 392
369 393
369 404
369 417
369 425
369 430
369 440
369 441
369 442
369 443
369 444
369 445
369 446
369 447
369 448
369 449
369 450
369 451
369 452
369 453
369 454
369 455
369 456
369 458
369 461
369 466
369 472
369 479
369 482
369 493
369 494
370 371
370 372
370 373
370 374
370 375
370 376
370 377
370 378
370 379
370 380
370 391
370 402
370 403
370 404
370 405
370 406
370 409
370 410
370 411
370 414
370 428
370 429
370 430
370 431
370 432
370 433
370 434
370 435
370 436
370 437
370 438
370 439
370 440
370 441
370 442
370 447
370 449
370 453
370 454
370 455
370 461
370 473
370 476
370 478
370 482
370 485
370 487
371 372
371 373
371 374
371 375
371 376
371 377
371 378
371 379
371 380
371 391
371 403
371 404
371 405
371 406
371 407
371 408
371 409
371 410
371 411
371 412
371 414
371 427
371 429
371 430
371 431
371 432
371 433
371 434
371 435
371 436
371 437
371 438
371 439
371 441
371 442
371 443
371 444
371 445
371 446
371 447
371 448
371 449
371 450
371 451
371 452
371 453
371 454
371 455
371 456
371 457
371 458
371 461
371 473
371 476
371 478
371 482
371 485
371 487
372 373
372 374
372 375
372 376
372 377
372 378
372 379
372 380
372 391
372 402
372 404
372 405
372 406
372 407
372 408
372 409
372 410
372 411
372 412
372 413
372 415
372 416
372 417
372 418
372 419
372 420
372 421
372 422
372 427
372 428
372 430
372 431
372 432
372 433
372 434
372 435
372 436
372 437
372 438
372 439
372 440
372 442
372 443
372 444
372 445
372 446
372 447
372 448
372 449
372 450
372 451
372 452
372 453
372 454
372 455
372 456
372 457
372 458
372 461
372 473
372 476
372 478
372 482
372 485
372 487
373 374
373 375
373 376
373 377
373 378
373 379
373 380
373 392
373 393
373 394
373 402
373 403
373 405
373 406
373 407
373 408
373 409
373 410
373 411
373 412
373 414
373 427
373 428
373 429
373 431
373 432
373 433
373 434
373 435
373 436
373 437
373 438
373 439
373 440
373 441
373 442
373 447
373 449
373 453
373 454
373 455
373 459
373 460
373 462
373 463
373 464
373 465
373 466
373 467
373 468
373 469
373 470
373 471
373 472
373 473
373 474
373 476
373 478
373 481
373 483
373 484
373 485
373 486
373 487
373 488
373 489
373 490
373 491
374 375
374 376
374 377
374 378
374 379
374 380
374 391
374 402
374 403
374 404
374 406
374 407
374 408
374 409
374 410
374 411
374 412
374 414
374 427
374 428
374 429
374 430
374 432
374 433
374 434
374 435
374 436
374 437
374 438
374 439
374 440
374 441
374 443
374 444
374 445
374 446
374 447
374 448
374 449
374 450
374 451
374 452
374 453
374 454
374 455
374 456
374 457
374 458
374 461
374 473
374 476
374 478
374 482
374 485
374 487
375 376
375 377
375 378
375 379
375 380
375 391
375 402
375 403
375 404
375 405
375 407
375 408
375 409
375 410
375 411
375 412
375 414
375 427
375 428
375 429
375 430
375 431
375 432
375 435
375 436
375 437
375 438
375 440
375 441
375 442
375 443
375 444
375 445
375 446
375 448
375 449
375 450
375 451
375 452
375 453
375 454
375 455
375 456
375 457
375 458
375 461
375 473
375 476
375 478
375 481
375 482
375 483
375 484
375 486
375 487
375 488
375 489
375 490
375 491
376 377
376 378
376 379
376 380
376 391
376 402
376 403
376 404
376 405
376 406
376 409
376 410
376 411
376 414
376 427
376 428
376 429
376 430
376 431
376 433
376 434
376 435
376 436
376 437
376 438
376 439
376 440
376 441
376 442
376 443
376 444
376 445
376 446
376 447
376 448
376 450
376 451
376 452
376 453
376 454
376 455
376 456
376 457
376 458
376 461
376 473
376 476
376 478
376 481
376 482
376 483
376 484
376 485
376 486
376 488
376 489
376 490
376 491
377 378
377 379
377 380
377 391
377 402
377 403
377 404
377 405
377 406
377 409
377 410
377 411
377 414
377 427
377 428
377 429
377 430
377 431
377 432
377 433
377 434
377 436
377 437
377 438
377 439
377 440
377 441
377 442
377 447
377 449
377 453
377 454
377 455
377 461
377 473
377 476
377 478
377 482
377 485
377 487
378 379
378 380
378 391
378 402
378 403
378 404
378 405
378 406
378 407
378 408
378 410
378 411
378 412
378 414
378 427
378 428
378 429
378 430
378 431
378 432
378 433
378 434
378 435
378 437
378 438
378 439
378 440
378 441
378 442
378 443
378 444
378 445
378 446
378 447
378 448
378 449
378 450
378 451
378 452
378 454
378 455
378 456
378 457
378 458
378 461
378 473
378 476
378 478
378 482
378 485
378 487
379 380
379 391
379 402
379 403
379 404
379 405
379 406
379 407
379 408
379 409
379 411
379 412
379 414
379 427
379 428
379 429
379 430
379 431
379 432
379 433
379 434
379 435
379 436
379 438
379 439
379 440
379 441
379 442
379 443
379 444
379 445
379 446
379 447
379 448
379 449
379 450
379 451
379 452
379 453
379 455
379 456
379 457
379 458
379 461
379 473
379 476
379 478
379 482
379 485
379 487
380 391
380 402
380 403
380 404
380 405
380 406
380 407
380 408
380 409
380 410
380 412
380 414
380 427
380 428
380 429
380 430
380 431
380 432
380 433
380 434
380 435
380 436
380 437
380 439
380 440
380 441
380 442
380 443
380 444
380 445
380 446
380 447
380 448
380 449
380 450
380 451
380 452
380 453
380 454
380 456
380 457
380 458
380 459
380 460
380 461
380 462
380 463
380 464
380 465
380 466
380 467
380 468
380 469
380 470
380 471
380 472
380 474
380 475
380 477
380 482
380 485
380 487
381 382
381 383
381 384
381 385
381 386
381 387
381 388
381 389
381 390
381 417
381 425
381 448
381 466
381 479
381 493
382 383
382 384
382 385
382 386
382 387
382 388
382 389
382 390
382 417
382 425
382 448
382 466
382 479
382 493
383 384
383 385
383 386
383 387
383 388
383 389
383 390
383 417
383 425
383 448
383 466
383 479
383 493
384 385
384 386
384 387
384 388
384 389
384 390
384 417
384 425
384 448
384 466
384 479
384 493
385 386
385 387
385 388
385 389
385 390
385 417
385 425
385 448
385 466
385 479
385 493
386 387
386 388
386 389
386 390
386 413
386 414
386 415
386 416
386 418
386 419
386 420
386 421
386 422
386 423
386 424
386 426
386 440
386 441
386 442
386 443
386 444
386 445
386 446
386 447
386 449
386 450
386 451
386 452
386 453
386 454
386 455
386 456
386 457
386 458
386 459
386 460
386 461
386 462
386 463
386 464
386 465
386 467
386 468
386 469
386 470
386 471
386 472
386 473
386 474
386 492
386 494
387 388
387 389
387 390
387 417
387 425
387 448
387 466
387 479
387 493
388 389
388 390
388 417
388 425
388 448
388 466
388 479
388 493
389 390
389 417
389 425
389 448
389 466
389 479
389 493
390 417
390 425
390 448
390 466
390 479
390 493
391 392
391 393
391 394
391 402
391 403
391 405
391 406
391 407
391 408
391 409
391 410
391 411
391 412
391 427
391 428
391 429
391 431
391 432
391 433
391 434
391 435
391 436
391 437
391 438
391 439
391 445
391 452
391 457
391 459
391 460
391 462
391 463
391 464
391 465
391 466
391 467
391 468
391 469
391 470
391 471
391 472
391 473
391 474
391 481
391 483
391 484
391 485
391 486
391 487
391 488
391 489
391 490
391 491
391 494
392 393
392 394
392 404
392 430
392 440
392 441
392 442
392 443
392 444
392 446
392 447
392 448
392 449
392 450
392 451
392 452
392 453
392 454
392 455
392 456
392 457
392 458
392 461
392 472
392 482
392 494
393 394
393 404
393 430
393 440
393 441
393 442
393 443
393 444
393 445
393 446
393 447
393 448
393 449
393 450
393 451
393 453
393 454
393 455
393 456
393 457
393 458
393 459
393 460
393 461
393 462
393 463
393 464
393 465
393 466
393 467
393 468
393 469
393 470
393 471
393 473
393 474
393 482
393 492
393 493
394 404
394 430
394 440
394 441
394 442
394 443
394 444
394 445
394 446
394 447
394 448
394 449
394 450
394 451
394 452
394 453
394 454
394 455
394 456
394 458
394 461
394 472
394 482
394 494
395 396
395 397
395 398
395 399
395 400
395 401
395 446
395 460
395 461
395 462
395 463
395 464
395 465
395 466
395 467
395 468
395 469
395 470
395 471
395 472
395 473
395 474
396 397
396 398
396 399
396 400
396 401
396 446
396 459
397 398
397 399
397 400
397 401
397 446
397 459
398 399
398 400
398 401
398 440
398 441
398 442
398 443
398 444
398 445
398 447
398 448
398 449
398 450
398 451
398 452
398 453
398 454
398 455
398 456
398 457
398 458
398 459
399 400
399 401
399 446
399 459
400 401
400 446
400 459
401 446
401 459
402 403
402 404
402 405
402 406
402 407
402 408
402 409
402 410
402 411
402 412
402 414
402 419
402 427
402 429
402 430
402 431
402 432
402 433
402 434
402 435
402 436
402 437
402 438
402 439
402 441
402 442
402 443
402 444
402 445
402 446
402 447
402 448
402 449
402 450
402 451
402 452
402 453
402 454
402 455
402 456
402 457
402 458
402 461
402 468
402 473
402 476
402 478
402 482
402 485
403 404
403 405
403 406
403 407
403 408
403 409
403 410
403 411
403 412
403 413
403 415
403 416
403 417
403 418
403 419
403 420
403 421
403 422
403 427
403 428
403 430
403 431
403 432
403 433
403 434
403 435
403 436
403 437
403 438
403 439
403 440
403 442
403 443
403 444
403 445
403 446
403 447
403 448
403 449
403 450
403 451
403 452
403 453
403 454
403 455
403 456
403 457
403 458
403 461
403 468
403 473
403 476
403 478
403 482
403 485
404 405
404 406
404 407
404 408
404 409
404 410
404 411
404 412
404 414
404 419
404 427
404 428
404 429
404 431
404 432
404 433
404 434
404 435
404 436
404 437
404 438
404 439
404 440
404 441
404 442
404 447
404 450
404 453
404 454
404 455
404 458
404 459
404 460
404 462
404 463
404 464
404 465
404 466
404 467
404 468
404 469
404 470
404 471
404 472
404 473
404 474
404 476
404 478
404 481
404 483
404 484
404 485
404 486
404 487
404 488
404 489
404 490
404 491
405 406
405 407
405 408
405 409
405 410
405 411
405 412
405 414
405 419
405 427
405 428
405 429
405 430
405 432
405 433
405 434
405 435
405 436
405 437
405 438
405 439
405 440
405 441
405 443
405 444
405 445
405 446
405 447
405 448
405 449
405 450
405 451
405 452
405 453
405 454
405 455
405 456
405 457
405 458
405 461
405 468
405 473
405 476
405 478
405 482
405 485
406 407
406 408
406 409
406 410
406 411
406 412
406 414
406 419
406 428
406 429
406 430
406 431
406 434
406 436
406 437
406 438
406 439
406 440
406 441
406 442
406 443
406 444
406 445
406 446
406 448
406 449
406 450
406 451
406 452
406 453
406 454
406 455
406 456
406 457
406 458
406 461
406 468
406 473
406 476
406 478
406 481
406 482
406 483
406 484
406 486
406 487
406 488
406 489
406 490
406 491
407 408
407 409
407 410
407 411
407 412
407 413
407 414
407 415
407 416
407 417
407 418
407 420
407 421
407 422
407 427
407 428
407 429
407 430
407 431
407 432
407 433
407 435
407 436
407 437
407 438
407 439
407 440
407 441
407 442
407 443
407 444
407 445
407 446
407 447
407 448
407 449
407 451
407 452
407 453
407 454
407 455
407 456
407 457
407 458
407 459
407 460
407 461
407 462
407 463
407 464
407 465
407 466
407 467
407 469
407 470
407 471
407 472
407 473
407 474
407 476
407 478
407 482
407 485
408 409
408 410
408 411
408 412
408 414
408 419
408 428
408 429
408 430
408 431
408 434
408 436
408 437
408 438
408 439
408 440
408 441
408 442
408 447
408 450
408 453
408 454
408 455
408 458
408 461
408 468
408 473
408 476
408 478
408 482
408 485
409 410
409 411
409 412
409 414
409 419
409 427
409 428
409 429
409 430
409 431
409 432
409 433
409 434
409 435
409 437
409 438
409 439
409 440
409 441
409 442
409 443
409 444
409 445
409 446
409 447
409 448
409 449
409 450
409 451
409 452
409 454
409 455
409 456
409 457
409 458
409 461
409 468
409 473
409 476
409 478
409 482
409 485
410 411
410 412
410 414
410 419
410 427
410 428
410 429
410 430
410 431
410 432
410 433
410 434
410 435
410 436
410 438
410 439
410 440
410 441
410 442
410 443
410 444
410 445
410 446
410 447
410 448
410 449
410 450
410 451
410 452
410 453
410 455
410 456
410 457
410 458
410 461
410 468
410 473
410 476
410 478
410 482
410 485
411 412
411 414
411 419
411 427
411 428
411 429
411 430
411 431
411 432
411 433
411 434
411 435
411 436
411 437
411 439
411 440
411 441
411 442
411 443
411 444
411 445
411 446
411 447
411 448
411 449
411 450
411 451
411 452
411 453
411 454
411 456
411 457
411 458
411 459
411 460
411 461
411 462
411 463
411 464
411 465
411 466
411 467
411 468
411 469
411 470
411 471
411 472
411 474
411 475
411 477
411 482
411 485
412 414
412 419
412 427
412 428
412 429
412 430
412 431
412 432
412 433
412 434
412 435
412 436
412 437
412 438
412 440
412 441
412 442
412 443
412 444
412 445
412 446
412 447
412 448
412 449
412 450
412 451
412 452
412 453
412 454
412 455
412 456
412 457
412 461
412 468
412 473
412 476
412 478
412 482
412 485
413 414
413 415
413 416
413 417
413 418
413 419
413 420
413 421
413 422
413 424
413 425
413 429
413 434
413 441
413 448
413 450
413 451
413 459
413 461
413 462
413 463
413 464
413 465
413 466
413 467
413 468
413 469
413 470
413 471
413 472
413 473
413 474
413 479
413 482
413 483
413 484
413 485
413 486
413 487
413 488
413 489
413 490
413 491
413 492
413 493
414 415
414 416
414 417
414 418
414 419
414 420
414 421
414 422
414 424
414 425
414 427
414 428
414 430
414 431
414 432
414 433
414 434
414 435
414 436
414 437
414 438
414 439
414 440
414 442
414 443
414 444
414 445
414 446
414 447
414 448
414 449
414 450
414 451
414 452
414 453
414 454
414 455
414 456
414 457
414 458
414 460
414 462
414 464
414 466
414 467
414 468
414 470
414 471
414 479
414 481
414 483
414 488
414 489
414 490
414 491
414 492
414 493
415 416
415 417
415 418
415 419
415 420
415 421
415 422
415 424
415 425
415 429
415 434
415 441
415 448
415 450
415 451
415 459
415 460
415 461
415 463
415 464
415 465
415 466
415 467
415 468
415 469
415 470
415 471
415 472
415 473
415 474
415 479
415 481
415 482
415 484
415 485
415 486
415 487
415 488
415 489
415 490
415 491
415 492
415 493
416 417
416 418
416 419
416 420
416 421
416 422
416 423
416 425
416 426
416 429
416 434
416 441
416 448
416 450
416 451
416 459
416 460
416 461
416 462
416 463
416 465
416 466
416 467
416 468
416 469
416 470
416 471
416 472
416 473
416 474
416 479
416 481
416 483
416 488
416 489
416 490
416 491
416 493
416 494
417 418
417 419
417 420
417 421
417 422
417 423
417 424
417 426
417 429
417 434
417 440
417 441
417 442
417 443
417 444
417 445
417 446
417 447
417 449
417 450
417 451
417 452
417 453
417 454
417 455
417 456
417 457
417 458
417 459
417 460
417 461
417 462
417 463
417 464
417 465
417 467
417 468
417 469
417 470
417 471
417 472
417 473
417 474
417 481
417 483
417 488
417 489
417 490
417 491
417 492
417 494
418 419
418 420
418 421
418 422
418 424
418 425
418 429
418 434
418 441
418 448
418 450
418 451
418 459
418 460
418 461
418 462
418 463
418 464
418 465
418 466
418 468
418 469
418 470
418 471
418 472
418 473
418 474
418 479
418 481
418 482
418 483
418 484
418 485
418 486
418 487
418 489
418 490
418 491
418 492
418 493
419 420
419 421
419 422
419 424
419 425
419 427
419 428
419 429
419 430
419 431
419 432
419 433
419 435
419 436
419 437
419 438
419 439
419 440
419 441
419 442
419 443
419 444
419 445
419 446
419 447
419 448
419 449
419 451
419 452
419 453
419 454
419 455
419 456
419 457
419 458
419 459
419 460
419 461
419 462
419 463
419 464
419 465
419 466
419 467
419 469
419 470
419 471
419 472
419 473
419 474
419 479
419 481
419 483
419 488
419 489
419 490
419 491
419 492
419 493
420 421
420 422
420 424
420 425
420 429
420 434
420 441
420 448
420 450
420 451
420 459
420 460
420 461
420 462
420 463
420 464
420 465
420 466
420 467
420 468
420 469
420 471
420 472
420 473
420 474
420 479
420 481
420 482
420 483
420 484
420 485
420 486
420 487
420 488
420 490
420 491
420 492
420 493
421 422
421 424
421 425
421 429
421 434
421 440
421 441
421 442
421 443
421 444
421 445
421 446
421 447
421 448
421 449
421 450
421 452
421 453
421 454
421 455
421 456
421 457
421 458
421 460
421 462
421 464
421 466
421 467
421 468
421 470
421 471
421 479
421 481
421 482
421 483
421 484
421 485
421 486
421 487
421 488
421 489
421 491
421 492
421 493
422 424
422 425
422 429
422 434
422 441
422 448
422 450
422 451
422 459
422 460
422 461
422 462
422 463
422 464
422 465
422 466
422 467
422 468
422 469
422 470
422 472
422 473
422 474
422 479
422 481
422 482
422 483
422 484
422 485
422 486
422 487
422 488
422 489
422 490
422 492
422 493
423 424
423 425
423 426
423 448
423 464
423 466
423 479
423 492
423 493
424 425
424 426
424 448
424 459
424 460
424 461
424 462
424 463
424 465
424 466
424 467
424 468
424 469
424 470
424 471
424 472
424 473
424 474
424 479
424 493
424 494
425 426
425 440
425 441
425 442
425 443
425 444
425 445
425 446
425 447
425 449
425 450
425 451
425 452
425 453
425 454
425 455
425 456
425 457
425 458
425 459
425 460
425 461
425 462
425 463
425 464
425 465
425 467
425 468
425 469
425 470
425 471
425 472
425 473
425 474
425 492
425 494
426 448
426 464
426 466
426 479
426 492
426 493
427 428
427 429
427 430
427 431
427 432
427 433
427 434
427 435
427 436
427 437
427 438
427 439
427 440
427 441
427 442
427 449
427 450
427 453
427 454
427 455
427 458
427 461
427 468
427 473
427 476
427 478
427 482
427 487
428 429
428 430
428 431
428 432
428 433
428 434
428 435
428 436
428 437
428 438
428 439
428 441
428 442
428 443
428 444
428 445
428 446
428 447
428 448
428 449
428 450
428 451
428 452
428 453
428 454
428 455
428 456
428 457
428 458
428 461
428 468
428 473
428 476
428 478
428 482
428 487
429 430
429 431
429 432
429 433
429 434
429 435
429 436
429 437
429 438
429 439
429 440
429 442
429 443
429 444
429 445
429 446
429 447
429 448
429 449
429 450
429 451
429 452
429 453
429 454
429 455
429 456
429 457
429 458
429 461
429 468
429 473
429 476
429 478
429 482
429 487
430 431
430 432
430 433
430 434
430 435
430 436
430 437
430 438
430 439
430 440
430 441
430 442
430 449
430 450
430 453
430 454
430 455
430 458
430 459
430 460
430 462
430 463
430 464
430 465
430 466
430 467
430 468
430 469
430 470
430 471
430 472
430 473
430 474
430 476
430 478
430 481
430 483
430 484
430 485
430 486
430 487
430 488
430 489
430 490
430 491
431 432
431 433
431 434
431 435
431 436
431 437
431 438
431 439
431 440
431 441
431 443
431 444
431 445
431 446
431 447
431 448
431 449
431 450
431 451
431 452
431 453
431 454
431 455
431 456
431 457
431 458
431 461
431 468
431 473
431 476
431 478
431 482
431 487
432 433
432 434
432 435
432 436
432 437
432 438
432 439
432 440
432 441
432 442
432 443
432 444
432 445
432 446
432 447
432 448
432 450
432 451
432 452
432 453
432 454
432 455
432 456
432 457
432 458
432 461
432 468
432 473
432 476
432 478
432 481
432 482
432 483
432 484
432 485
432 486
432 488
432 489
432 490
432 491
433 434
433 435
433 436
433 437
433 438
433 439
433 440
433 441
433 442
433 449
433 450
433 453
433 454
433 455
433 458
433 461
433 468
433 473
433 476
433 478
433 482
433 487
434 435
434 436
434 437
434 438
434 439
434 440
434 441
434 442
434 443
434 444
434 445
434 446
434 447
434 448
434 449
434 451
434 452
434 453
434 454
434 455
434 456
434 457
434 458
434 459
434 460
434 461
434 462
434 463
434 464
434 465
434 466
434 467
434 469
434 470
434 471
434 472
434 473
434 474
434 476
434 478
434 482
434 487
435 436
435 437
435 438
435 439
435 440
435 441
435 442
435 449
435 450
435 453
435 454
435 455
435 458
435 461
435 468
435 473
435 476
435 478
435 482
435 487
436 437
436 438
436 439
436 440
436 441
436 442
436 443
436 444
436 445
436 446
436 447
436 448
436 449
436 450
436 451
436 452
436 454
436 455
436 456
436 457
436 458
436 461
436 468
436 473
436 476
436 478
436 482
436 487
437 438
437 439
437 440
437 441
437 442
437 443
437 444
437 445
437 446
437 447
437 448
437 449
437 450
437 451
437 452
437 453
437 455
437 456
437 457
437 458
437 461
437 468
437 473
437 476
437 478
437 482
437 487
438 439
438 440
438 441
438 442
438 443
438 444
438 445
438 446
438 447
438 448
438 449
438 450
438 451
438 452
438 453
438 454
438 456
438 457
438 458
438 459
438 460
438 461
438 462
438 463
438 464
438 465
438 466
438 467
438 468
438 469
438 470
438 471
438 472
438 474
438 475
438 477
438 482
438 487
439 440
439 441
439 442
439 443
439 444
439 445
439 446
439 447
439 448
439 449
439 450
439 451
439 452
439 453
439 454
439 455
439 456
439 457
439 461
439 468
439 473
439 476
439 478
439 482
439 487
440 441
440 442
440 443
440 444
440 445
440 446
440 447
440 448
440 449
440 450
440 451
440 452
440 453
440 454
440 455
440 456
440 457
440 458
440 466
440 468
440 472
440 473
440 474
440 476
440 478
440 479
440 485
440 487
440 490
440 493
440 494
441 442
441 443
441 444
441 445
441 446
441 447
441 448
441 449
441 450
441 451
441 452
441 453
441 454
441 455
441 456
441 457
441 458
441 466
441 468
441 472
441 473
441 474
441 476
441 478
441 479
441 485
441 487
441 490
441 493
441 494
442 443
442 444
442 445
442 446
442 447
442 448
442 449
442 450
442 451
442 452
442 453
442 454
442 455
442 456
442 457
442 458
442 466
442 468
442 472
442 473
442 474
442 476
442 478
442 479
442 485
442 487
442 490
442 493
442 494
443 444
443 445
443 446
443 447
443 448
443 449
443 450
443 451
443 452
443 453
443 454
443 455
443 456
443 457
443 458
443 466
443 468
443 472
443 473
443 474
443 476
443 478
443 479
443 485
443 487
443 490
443 493
443 494
444 445
444 446
444 447
444 448
444 449
444 450
444 451
444 452
444 453
444 454
444 455
444 456
444 457
444 458
444 466
444 468
444 472
444 473
444 474
444 476
444 478
444 479
444 485
444 487
444 490
444 493
444 494
445 446
445 447
445 448
445 449
445 450
445 451
445 452
445 453
445 454
445 455
445 456
445 457
445 458
445 466
445 468
445 472
445 473
445 474
445 476
445 478
445 479
445 485
445 487
445 490
445 493
445 494
446 447
446 448
446 449
446 450
446 451
446 452
446 453
446 454
446 455
446 456
446 457
446 458
446 466
446 468
446 472
446 473
446 474
446 476
446 478
446 479
446 485
446 487
446 490
446 493
446 494
447 448
447 449
447 450
447 451
447 452
447 453
447 454
447 455
447 456
447 457
447 458
447 466
447 468
447 472
447 473
447 474
447 476
447 478
447 479
447 481
447 482
447 483
447 484
447 486
447 487
447 488
447 489
447 490
447 491
447 493
447 494
448 449
448 450
448 451
448 452
448 453
448 454
448 455
448 456
448 457
448 458
448 459
448 460
448 461
448 462
448 463
448 464
448 465
448 467
448 468
448 469
448 470
448 471
448 472
448 473
448 474
448 476
448 478
448 485
448 487
448 490
448 492
448 494
449 450
449 451
449 452
449 453
449 454
449 455
449 456
449 457
449 458
449 466
449 468
449 472
449 473
449 474
449 476
449 478
449 479
449 481
449 482
449 483
449 484
449 485
449 486
449 488
449 489
449 490
449 491
449 493
449 494
450 451
450 452
450 453
450 454
450 455
450 456
450 457
450 458
450 459
450 460
450 461
450 462
450 463
450 464
450 465
450 466
450 467
450 469
450 470
450 471
450 472
450 473
450 474
450 476
450 478
450 479
450 485
450 487
450 490
450 493
450 494
451 452
451 453
451 454
451 455
451 456
451 457
451 458
451 466
451 468
451 472
451 473
451 474
451 476
451 478
451 479
451 481
451 482
451 483
451 484
451 485
451 486
451 487
451 488
451 489
451 491
451 493
451 494
452 453
452 454
452 455
452 456
452 457
452 458
452 459
452 460
452 461
452 462
452 463
452 464
452 465
452 466
452 467
452 468
452 469
452 470
452 471
452 473
452 474
452 476
452 478
452 479
452 485
452 487
452 490
452 492
452 493
453 454
453 455
453 456
453 457
453 458
453 466
453 468
453 472
453 473
453 474
453 476
453 478
453 479
453 485
453 487
453 490
453 493
453 494
454 455
454 456
454 457
454 458
454 466
454 468
454 472
454 473
454 474
454 476
454 478
454 479
454 485
454 487
454 490
454 493
454 494
455 456
455 457
455 458
455 459
455 460
455 461
455 462
455 463
455 464
455 465
455 466
455 467
455 468
455 469
455 470
455 471
455 472
455 474
455 475
455 477
455 479
455 485
455 487
455 490
455 493
455 494
456 457
456 458
456 459
456 460
456 461
456 462
456 463
456 464
456 465
456 466
456 467
456 468
456 469
456 470
456 471
456 472
456 473
456 476
456 478
456 479
456 485
456 487
456 490
456 493
456 494
457 458
457 466
457 468
457 472
457 473
457 474
457 476
457 478
457 479
457 485
457 487
457 490
457 493
457 494
458 466
458 468
458 472
458 473
458 474
458 476
458 478
458 479
458 485
458 487
458 490
458 493
458 494
459 460
459 461
459 462
459 463
459 464
459 465
459 466
459 467
459 468
459 469
459 470
459 471
459 472
459 473
459 474
459 476
459 478
459 479
459 481
459 482
459 483
459 484
459 486
459 488
459 489
459 491
459 492
459 493
459 494
460 461
460 462
460 463
460 464
460 465
460 466
460 467
460 468
460 469
460 470
460 471
460 472
460 473
460 474
460 476
460 478
460 479
460 482
460 483
460 484
460 485
460 486
460 487
460 488
460 489
460 490
460 491
460 492
460 493
460 494
461 462
461 463
461 464
461 465
461 466
461 467
461 468
461 469
461 470
461 471
461 472
461 473
461 474
461 476
461 478
461 479
461 481
461 483
461 484
461 485
461 486
461 487
461 488
461 489
461 490
461 491
461 492
461 493
461 494
462 463
462 464
462 465
462 466
462 467
462 468
462 469
462 470
462 471
462 472
462 473
462 474
462 476
462 478
462 479
462 481
462 482
462 484
462 485
462 486
462 487
462 488
462 489
462 490
462 491
462 492
462 493
462 494
463 464
463 465
463 466
463 467
463 468
463 469
463 470
463 471
463 472
463 473
463 474
463 476
463 478
463 479
463 481
463 482
463 483
463 485
463 486
463 487
463 488
463 489
463 490
463 491
463 492
463 493
463 494
464 465
464 466
464 467
464 468
464 469
464 470
464 471
464 472
464 473
464 474
464 476
464 478
464 479
464 481
464 482
464 483
464 484
464 486
464 488
464 489
464 491
464 493
464 494
465 466
465 467
465 468
465 469
465 470
465 471
465 472
465 473
465 474
465 476
465 478
465 479
465 481
465 482
465 483
465 484
465 485
465 487
465 488
465 489
465 490
465 491
465 492
465 493
465 494
466 467
466 468
466 469
466 470
466 471
466 472
466 473
466 474
466 476
466 478
466 481
466 482
466 483
466 484
466 486
466 488
466 489
466 491
466 492
466 494
467 468
467 469
467 470
467 471
467 472
467 473
467 474
467 476
467 478
467 479
467 481
467 482
467 483
467 484
467 485
467 486
467 487
467 489
467 490
467 491
467 492
467 493
467 494
468 469
468 470
468 471
468 472
468 473
468 474
468 476
468 478
468 479
468 481
468 482
468 483
468 484
468 486
468 488
468 489
468 491
468 492
468 493
468 494
469 470
469 471
469 472
469 473
469 474
469 476
469 478
469 479
469 481
469 482
469 483
469 484
469 486
469 488
469 489
469 491
469 492
469 493
469 494
470 471
470 472
470 473
470 474
470 476
470 478
470 479
470 481
470 482
470 483
470 484
470 485
470 486
470 487
470 488
470 490
470 491
470 492
470 493
470 494
471 472
471 473
471 474
471 476
471 478
471 479
471 481
471 482
471 483
471 484
471 485
471 486
471 487
471 488
471 489
471 490
471 492
471 493
471 494
472 473
472 474
472 476
472 478
472 479
472 481
472 482
472 483
472 484
472 486
472 488
472 489
472 491
472 492
472 493
473 474
473 475
473 477
473 479
473 481
473 482
473 483
473 484
473 486
473 488
473 489
473 491
473 492
473 493
473 494
474 476
474 478
474 479
474 481
474 482
474 483
474 484
474 486
474 488
474 489
474 491
474 492
474 493
474 494
475 476
475 478
476 477
477 478
479 492
479 494
481 482
481 483
481 484
481 485
481 486
481 487
481 488
481 489
481 490
481 491
482 483
482 484
482 485
482 486
482 487
482 488
482 489
482 490
482 491
483 484
483 485
483 486
483 487
483 488
483 489
483 490
483 491
484 485
484 486
484 487
484 488
484 489
484 490
484 491
485 486
485 487
485 488
485 489
485 490
485 491
486 487
486 488
486 489
486 490
486 491
487 488
487 489
487 490
487 491
488 489
488 490
488 491
489 490
489 491
490 491
492 493
492 494
493 494
