472:43861
0 1
0 2
0 3
0 4
0 5
0 6
0 7
0 8
0 9
0 10
0 11
0 12
0 13
0 14
0 15
0 17
0 18
0 19
0 20
0 36
0 37
0 38
0 39
0 41
0 42
0 43
0 44
0 45
0 46
0 59
0 60
0 61
0 62
0 63
0 64
0 65
0 66
0 67
0 68
0 69
0 81
0 82
0 83
0 84
0 85
0 86
0 87
0 88
0 89
0 97
0 98
0 99
0 100
0 101
0 102
0 103
0 104
0 105
0 106
0 107
0 108
0 109
0 110
0 111
0 112
0 114
0 117
0 119
0 122
0 124
0 127
0 129
0 133
0 135
0 138
0 140
0 150
0 152
0 174
0 175
0 176
0 177
0 178
0 179
0 180
0 181
0 183
0 184
0 185
0 186
0 187
0 188
0 189
0 190
0 191
0 198
0 199
0 200
0 201
0 202
0 203
0 204
0 205
0 207
0 210
0 212
0 217
0 219
0 222
0 224
0 228
0 230
0 233
0 235
0 240
0 242
0 245
0 247
0 250
0 252
0 255
0 257
0 260
0 264
0 269
0 270
0 271
0 272
0 273
0 274
0 276
0 277
0 278
0 279
0 280
0 281
0 282
0 283
0 284
0 285
0 286
0 288
0 289
0 290
0 291
0 292
0 309
0 311
0 314
0 316
0 332
0 334
0 350
0 352
0 354
0 356
0 360
0 361
0 362
0 363
0 364
0 365
0 367
0 368
0 369
0 370
0 371
0 372
0 373
0 374
0 375
0 378
0 382
0 385
0 388
0 391
0 405
0 406
0 407
0 408
0 409
0 410
0 411
0 420
0 422
0 424
0 426
0 428
0 430
0 432
0 434
0 443
0 445
0 449
0 451
1 2
1 3
1 4
1 5
1 6
1 7
1 8
1 9
1 10
1 11
1 12
1 13
1 14
1 15
1 16
1 18
1 19
1 20
1 35
1 40
1 42
1 43
1 44
1 45
1 47
1 48
1 49
1 50
1 58
1 60
1 61
1 62
1 63
1 64
1 65
1 66
1 67
1 68
1 69
1 80
1 82
1 83
1 84
1 85
1 86
1 87
1 88
1 89
1 96
1 98
1 100
1 102
1 104
1 106
1 108
1 110
1 113
1 114
1 115
1 116
1 117
1 118
1 119
1 120
1 121
1 122
1 124
1 127
1 129
1 133
1 135
1 138
1 140
1 150
1 152
1 173
1 175
1 176
1 177
1 178
1 179
1 180
1 181
1 182
1 184
1 187
1 189
1 197
1 199
1 200
1 201
1 202
1 203
1 204
1 205
1 207
1 210
1 212
1 217
1 219
1 222
1 224
1 228
1 230
1 233
1 235
1 240
1 242
1 245
1 247
1 250
1 252
1 255
1 257
1 261
1 262
1 263
1 264
1 265
1 266
1 267
1 268
1 271
1 275
1 278
1 281
1 284
1 287
1 289
1 309
1 311
1 314
1 316
1 333
1 334
1 335
1 336
1 337
1 351
1 352
1 353
1 354
1 355
1 356
1 357
1 358
1 359
1 361
1 362
1 363
1 364
1 365
1 366
1 368
1 370
1 372
1 376
1 377
1 378
1 379
1 380
1 381
1 383
1 384
1 385
1 386
1 387
1 388
1 389
1 390
1 391
1 392
1 393
1 404
1 408
1 421
1 422
1 423
1 424
1 425
1 426
1 427
1 428
1 429
1 430
1 431
1 432
1 433
1 434
1 435
1 443
1 445
1 449
1 451
2 3
2 4
2 5
2 6
2 7
2 8
2 9
2 10
2 11
2 12
2 13
2 14
2 15
2 16
2 17
2 35
2 40
2 41
2 43
2 44
2 45
2 46
2 58
2 59
2 61
2 62
2 64
2 65
2 67
2 68
2 80
2 81
2 83
2 84
2 85
2 86
2 87
2 88
2 89
2 96
2 97
2 99
2 100
2 101
2 102
2 103
2 104
2 105
2 106
2 107
2 108
2 109
2 110
2 111
2 112
2 114
2 117
2 119
2 122
2 124
2 127
2 129
2 133
2 135
2 138
2 140
2 151
2 152
2 153
2 154
2 155
2 156
2 173
2 174
2 176
2 177
2 178
2 179
2 180
2 181
2 182
2 183
2 185
2 186
2 187
2 188
2 189
2 190
2 191
2 197
2 198
2 201
2 202
2 205
2 207
2 210
2 212
2 217
2 219
2 222
2 224
2 228
2 230
2 233
2 235
2 241
2 242
2 243
2 244
2 245
2 246
2 247
2 248
2 249
2 250
2 251
2 252
2 253
2 254
2 255
2 256
2 257
2 258
2 259
2 260
2 264
2 268
2 271
2 275
2 278
2 281
2 284
2 287
2 288
2 290
2 291
2 292
2 310
2 311
2 312
2 313
2 314
2 315
2 316
2 317
2 318
2 319
2 332
2 334
2 350
2 352
2 354
2 356
2 359
2 360
2 362
2 363
2 366
2 367
2 369
2 370
2 371
2 372
2 373
2 374
2 375
2 378
2 382
2 385
2 388
2 391
2 404
2 408
2 420
2 422
2 424
2 426
2 428
2 430
2 432
2 434
2 444
2 445
2 446
2 447
2 448
2 449
2 450
2 451
2 452
2 453
2 454
3 4
3 5
3 6
3 7
3 8
3 9
3 10
3 11
3 12
3 13
3 14
3 15
3 16
3 17
3 35
3 40
3 41
3 42
3 44
3 45
3 46
3 58
3 59
3 61
3 62
3 64
3 65
3 67
3 68
3 80
3 81
3 82
3 84
3 85
3 86
3 87
3 88
3 89
3 96
3 98
3 100
3 102
3 104
3 106
3 108
3 110
3 112
3 113
3 115
3 116
3 117
3 118
3 119
3 120
3 121
3 122
3 124
3 127
3 129
3 133
3 135
3 138
3 140
3 150
3 151
3 153
3 154
3 155
3 156
3 173
3 174
3 175
3 177
3 178
3 179
3 180
3 181
3 182
3 184
3 187
3 189
3 197
3 198
3 201
3 202
3 205
3 207
3 210
3 212
3 217
3 219
3 222
3 224
3 228
3 230
3 233
3 235
3 240
3 241
3 243
3 244
3 245
3 246
3 247
3 248
3 249
3 250
3 251
3 252
3 253
3 254
3 255
3 256
3 257
3 258
3 259
3 260
3 264
3 268
3 271
3 275
3 278
3 281
3 284
3 287
3 289
3 309
3 310
3 312
3 313
3 314
3 315
3 316
3 317
3 318
3 319
3 332
3 333
3 335
3 336
3 337
3 350
3 351
3 353
3 354
3 355
3 356
3 357
3 358
3 359
3 360
3 362
3 363
3 366
3 368
3 370
3 372
3 375
3 378
3 382
3 385
3 388
3 391
3 404
3 408
3 420
3 421
3 423
3 424
3 425
3 426
3 427
3 428
3 429
3 430
3 431
3 432
3 433
3 434
3 435
3 443
3 444
3 446
3 447
3 448
3 449
3 450
3 451
3 452
3 453
3 454
4 5
4 6
4 7
4 8
4 9
4 10
4 11
4 12
4 13
4 14
4 15
4 16
4 17
4 35
4 40
4 41
4 42
4 43
4 46
4 58
4 59
4 60
4 62
4 63
4 64
4 65
4 66
4 67
4 68
4 69
4 80
4 81
4 82
4 83
4 85
4 86
4 87
4 88
4 96
4 97
4 98
4 99
4 101
4 102
4 103
4 104
4 105
4 106
4 107
4 108
4 109
4 110
4 111
4 112
4 114
4 117
4 119
4 123
4 124
4 125
4 126
4 127
4 128
4 129
4 130
4 131
4 132
4 133
4 134
4 135
4 136
4 137
4 138
4 139
4 140
4 141
4 142
4 143
4 150
4 152
4 173
4 174
4 175
4 176
4 178
4 179
4 180
4 181
4 182
4 184
4 187
4 189
4 197
4 198
4 201
4 202
4 206
4 207
4 208
4 209
4 210
4 211
4 212
4 213
4 214
4 215
4 216
4 217
4 219
4 222
4 224
4 228
4 230
4 233
4 235
4 240
4 242
4 245
4 247
4 250
4 252
4 255
4 257
4 260
4 264
4 268
4 269
4 270
4 272
4 273
4 274
4 275
4 276
4 277
4 279
4 280
4 281
4 282
4 283
4 284
4 285
4 286
4 287
4 289
4 309
4 311
4 314
4 316
4 332
4 334
4 350
4 352
4 354
4 356
4 359
4 360
4 361
4 363
4 364
4 365
4 366
4 367
4 368
4 369
4 371
4 372
4 373
4 374
4 375
4 378
4 382
4 385
4 388
4 391
4 404
4 408
4 420
4 422
4 424
4 426
4 428
4 430
4 432
4 434
4 443
4 445
4 449
4 451
5 6
5 7
5 8
5 9
5 10
5 11
5 12
5 13
5 14
5 15
5 16
5 17
5 35
5 40
5 41
5 42
5 43
5 46
5 58
5 59
5 60
5 61
5 63
5 64
5 65
5 66
5 67
5 68
5 69
5 80
5 81
5 82
5 83
5 85
5 86
5 87
5 88
5 96
5 98
5 100
5 102
5 104
5 106
5 108
5 110
5 112
5 114
5 117
5 119
5 122
5 123
5 125
5 126
5 127
5 128
5 129
5 130
5 131
5 132
5 133
5 134
5 135
5 136
5 137
5 138
5 139
5 140
5 141
5 142
5 143
5 150
5 152
5 173
5 174
5 175
5 176
5 177
5 179
5 180
5 181
5 182
5 184
5 187
5 189
5 197
5 198
5 201
5 202
5 205
5 206
5 208
5 209
5 210
5 211
5 212
5 213
5 214
5 215
5 216
5 217
5 219
5 222
5 224
5 228
5 230
5 233
5 235
5 240
5 242
5 245
5 247
5 250
5 252
5 255
5 257
5 260
5 264
5 268
5 271
5 275
5 278
5 281
5 284
5 287
5 289
5 309
5 311
5 314
5 316
5 332
5 334
5 350
5 351
5 352
5 353
5 355
5 356
5 357
5 358
5 359
5 360
5 361
5 362
5 364
5 365
5 366
5 368
5 370
5 372
5 375
5 376
5 377
5 379
5 380
5 381
5 382
5 383
5 384
5 386
5 387
5 388
5 389
5 390
5 391
5 392
5 393
5 404
5 408
5 420
5 421
5 422
5 423
5 425
5 426
5 427
5 428
5 429
5 430
5 431
5 432
5 433
5 434
5 435
5 443
5 445
5 449
5 451
6 7
6 8
6 9
6 10
6 11
6 12
6 13
6 14
6 15
6 16
6 17
6 35
6 40
6 41
6 42
6 43
6 46
6 58
6 59
6 61
6 62
6 64
6 65
6 67
6 68
6 80
6 81
6 82
6 83
6 85
6 86
6 87
6 88
6 96
6 97
6 98
6 99
6 100
6 101
6 103
6 104
6 105
6 106
6 107
6 108
6 109
6 110
6 111
6 112
6 114
6 117
6 119
6 122
6 123
6 124
6 125
6 126
6 128
6 129
6 130
6 131
6 132
6 133
6 134
6 135
6 136
6 137
6 138
6 139
6 140
6 141
6 142
6 143
6 150
6 152
6 173
6 174
6 175
6 176
6 177
6 178
6 180
6 181
6 182
6 184
6 187
6 189
6 197
6 198
6 201
6 202
6 205
6 206
6 207
6 208
6 209
6 211
6 212
6 213
6 214
6 215
6 216
6 217
6 219
6 222
6 224
6 228
6 230
6 233
6 235
6 240
6 241
6 242
6 243
6 244
6 246
6 247
6 248
6 249
6 250
6 251
6 252
6 253
6 254
6 255
6 256
6 257
6 258
6 259
6 260
6 264
6 268
6 271
6 275
6 278
6 281
6 284
6 287
6 289
6 309
6 310
6 311
6 312
6 313
6 315
6 316
6 317
6 318
6 319
6 332
6 334
6 350
6 352
6 354
6 356
6 359
6 360
6 362
6 363
6 366
6 367
6 368
6 369
6 370
6 371
6 373
6 374
6 375
6 378
6 382
6 385
6 388
6 391
6 404
6 408
6 420
6 422
6 424
6 426
6 428
6 430
6 432
6 434
6 443
6 445
6 449
6 451
7 8
7 9
7 10
7 11
7 12
7 13
7 14
7 15
7 16
7 17
7 35
7 40
7 41
7 42
7 43
7 46
7 58
7 59
7 61
7 62
7 64
7 65
7 67
7 68
7 80
7 81
7 82
7 83
7 85
7 86
7 87
7 88
7 96
7 98
7 100
7 102
7 104
7 106
7 108
7 110
7 112
7 114
7 117
7 119
7 122
7 123
7 124
7 125
7 126
7 127
7 128
7 130
7 131
7 132
7 133
7 134
7 135
7 136
7 137
7 138
7 139
7 140
7 141
7 142
7 143
7 150
7 152
7 173
7 174
7 175
7 176
7 177
7 178
7 179
7 181
7 182
7 184
7 187
7 189
7 197
7 198
7 201
7 202
7 205
7 206
7 207
7 208
7 209
7 210
7 211
7 213
7 214
7 215
7 216
7 217
7 219
7 222
7 224
7 228
7 230
7 233
7 235
7 240
7 241
7 242
7 243
7 244
7 245
7 246
7 248
7 249
7 250
7 251
7 252
7 253
7 254
7 255
7 256
7 257
7 258
7 259
7 260
7 264
7 268
7 271
7 275
7 278
7 281
7 284
7 287
7 289
7 309
7 310
7 311
7 312
7 313
7 314
7 315
7 317
7 318
7 319
7 332
7 334
7 350
7 351
7 352
7 353
7 354
7 355
7 357
7 358
7 359
7 360
7 362
7 363
7 366
7 368
7 370
7 372
7 375
7 378
7 382
7 385
7 388
7 391
7 404
7 408
7 420
7 421
7 422
7 423
7 424
7 425
7 427
7 428
7 429
7 430
7 431
7 432
7 433
7 434
7 435
7 443
7 445
7 449
7 451
8 9
8 10
8 11
8 12
8 13
8 14
8 15
8 16
8 17
8 35
8 40
8 41
8 42
8 43
8 46
8 58
8 59
8 60
8 61
8 62
8 63
8 65
8 66
8 67
8 68
8 69
8 80
8 81
8 82
8 83
8 84
8 86
8 87
8 88
8 89
8 96
8 97
8 98
8 99
8 100
8 101
8 102
8 103
8 105
8 106
8 107
8 108
8 109
8 110
8 111
8 112
8 114
8 117
8 119
8 122
8 124
8 127
8 129
8 133
8 135
8 138
8 140
8 150
8 152
8 173
8 174
8 175
8 176
8 177
8 178
8 179
8 180
8 182
8 183
8 184
8 185
8 186
8 188
8 189
8 190
8 191
8 197
8 198
8 199
8 200
8 202
8 203
8 204
8 205
8 207
8 210
8 212
8 218
8 219
8 220
8 221
8 222
8 223
8 224
8 225
8 226
8 227
8 228
8 229
8 230
8 231
8 232
8 233
8 234
8 235
8 236
8 237
8 238
8 239
8 240
8 242
8 245
8 247
8 250
8 252
8 255
8 257
8 260
8 264
8 268
8 271
8 275
8 276
8 277
8 278
8 279
8 280
8 282
8 283
8 284
8 285
8 286
8 287
8 289
8 309
8 311
8 314
8 316
8 332
8 334
8 350
8 352
8 354
8 356
8 359
8 360
8 362
8 363
8 366
8 368
8 370
8 372
8 375
8 378
8 382
8 385
8 388
8 391
8 404
8 405
8 406
8 407
8 409
8 410
8 411
8 420
8 422
8 424
8 426
8 428
8 430
8 432
8 434
8 443
8 445
8 449
8 451
9 10
9 11
9 12
9 13
9 14
9 15
9 16
9 17
9 35
9 40
9 41
9 42
9 43
9 46
9 58
9 59
9 60
9 61
9 62
9 63
9 64
9 66
9 67
9 68
9 69
9 80
9 81
9 82
9 83
9 84
9 85
9 87
9 88
9 89
9 96
9 98
9 100
9 102
9 104
9 106
9 108
9 110
9 112
9 113
9 114
9 115
9 116
9 118
9 119
9 120
9 121
9 122
9 124
9 127
9 129
9 133
9 135
9 138
9 140
9 150
9 152
9 173
9 174
9 175
9 176
9 177
9 178
9 179
9 180
9 182
9 184
9 187
9 189
9 197
9 198
9 199
9 200
9 201
9 203
9 204
9 205
9 207
9 210
9 212
9 217
9 218
9 220
9 221
9 222
9 223
9 224
9 225
9 226
9 227
9 228
9 229
9 230
9 231
9 232
9 233
9 234
9 235
9 236
9 237
9 238
9 239
9 240
9 242
9 245
9 247
9 250
9 252
9 255
9 257
9 260
9 261
9 262
9 263
9 265
9 266
9 267
9 268
9 271
9 275
9 278
9 281
9 284
9 287
9 289
9 309
9 311
9 314
9 316
9 332
9 334
9 350
9 352
9 354
9 356
9 359
9 360
9 362
9 363
9 366
9 368
9 370
9 372
9 375
9 378
9 382
9 383
9 384
9 385
9 386
9 387
9 389
9 390
9 391
9 392
9 393
9 404
9 408
9 420
9 421
9 422
9 423
9 424
9 425
9 426
9 427
9 429
9 430
9 431
9 432
9 433
9 434
9 435
9 443
9 445
9 449
9 451
10 11
10 12
10 13
10 14
10 15
10 16
10 17
10 35
10 40
10 41
10 42
10 43
10 46
10 58
10 59
10 61
10 62
10 64
10 65
10 67
10 68
10 80
10 81
10 82
10 83
10 84
10 85
10 86
10 88
10 89
10 96
10 97
10 98
10 99
10 100
10 101
10 102
10 103
10 104
10 105
10 107
10 108
10 109
10 110
10 111
10 112
10 114
10 117
10 119
10 122
10 124
10 127
10 129
10 133
10 135
10 138
10 140
10 150
10 152
10 173
10 174
10 175
10 176
10 177
10 178
10 179
10 180
10 182
10 183
10 184
10 185
10 186
10 187
10 188
10 190
10 191
10 197
10 198
10 201
10 202
10 205
10 207
10 210
10 212
10 217
10 218
10 219
10 220
10 221
10 223
10 224
10 225
10 226
10 227
10 228
10 229
10 230
10 231
10 232
10 233
10 234
10 235
10 236
10 237
10 238
10 239
10 240
10 241
10 242
10 243
10 244
10 245
10 246
10 247
10 248
10 249
10 251
10 252
10 253
10 254
10 255
10 256
10 257
10 258
10 259
10 260
10 264
10 268
10 271
10 275
10 278
10 281
10 284
10 287
10 289
10 309
10 311
10 314
10 316
10 332
10 334
10 350
10 352
10 354
10 356
10 359
10 360
10 362
10 363
10 366
10 368
10 370
10 372
10 375
10 378
10 382
10 385
10 388
10 391
10 404
10 408
10 420
10 422
10 424
10 426
10 428
10 430
10 432
10 434
10 443
10 444
10 445
10 446
10 447
10 448
10 450
10 451
10 452
10 453
10 454
11 12
11 13
11 14
11 15
11 16
11 17
11 35
11 40
11 41
11 42
11 43
11 46
11 58
11 59
11 61
11 62
11 64
11 65
11 67
11 68
11 80
11 81
11 82
11 83
11 84
11 85
11 86
11 87
11 89
11 96
11 98
11 100
11 102
11 104
11 106
11 108
11 110
11 112
11 113
11 114
11 115
11 116
11 117
11 118
11 120
11 121
11 122
11 124
11 127
11 129
11 133
11 135
11 138
11 140
11 150
11 152
11 173
11 174
11 175
11 176
11 177
11 178
11 179
11 180
11 182
11 184
11 187
11 189
11 197
11 198
11 201
11 202
11 205
11 207
11 210
11 212
11 217
11 218
11 219
11 220
11 221
11 222
11 223
11 225
11 226
11 227
11 228
11 229
11 230
11 231
11 232
11 233
11 234
11 235
11 236
11 237
11 238
11 239
11 240
11 241
11 242
11 243
11 244
11 245
11 246
11 247
11 248
11 249
11 250
11 251
11 253
11 254
11 255
11 256
11 257
11 258
11 259
11 260
11 264
11 268
11 271
11 275
11 278
11 281
11 284
11 287
11 289
11 309
11 311
11 314
11 316
11 332
11 334
11 350
11 352
11 354
11 356
11 359
11 360
11 362
11 363
11 366
11 368
11 370
11 372
11 375
11 378
11 382
11 385
11 388
11 391
11 404
11 408
11 420
11 421
11 422
11 423
11 424
11 425
11 426
11 427
11 428
11 429
11 431
11 432
11 433
11 434
11 435
11 443
11 444
11 445
11 446
11 447
11 448
11 449
11 450
11 452
11 453
11 454
12 13
12 14
12 15
12 16
12 17
12 35
12 40
12 41
12 42
12 43
12 46
12 58
12 59
12 60
12 61
12 62
12 63
12 64
12 65
12 66
12 68
12 69
12 80
12 81
12 82
12 83
12 85
12 86
12 87
12 88
12 96
12 97
12 98
12 99
12 100
12 101
12 102
12 103
12 104
12 105
12 106
12 107
12 109
12 110
12 111
12 112
12 114
12 117
12 119
12 122
12 123
12 124
12 125
12 126
12 127
12 128
12 129
12 130
12 131
12 132
12 134
12 135
12 136
12 137
12 138
12 139
12 140
12 141
12 142
12 143
12 150
12 152
12 173
12 174
12 175
12 176
12 177
12 178
12 179
12 180
12 182
12 184
12 187
12 189
12 197
12 198
12 201
12 202
12 205
12 207
12 210
12 212
12 217
12 218
12 219
12 220
12 221
12 222
12 223
12 224
12 225
12 226
12 227
12 229
12 230
12 231
12 232
12 233
12 234
12 235
12 236
12 237
12 238
12 239
12 240
12 242
12 245
12 247
12 250
12 252
12 255
12 257
12 260
12 264
12 268
12 271
12 275
12 276
12 277
12 278
12 279
12 280
12 281
12 282
12 283
12 285
12 286
12 287
12 289
12 309
12 311
12 314
12 316
12 332
12 334
12 350
12 352
12 354
12 356
12 359
12 360
12 362
12 363
12 366
12 368
12 370
12 372
12 375
12 378
12 382
12 385
12 388
12 391
12 404
12 408
12 420
12 422
12 424
12 426
12 428
12 430
12 432
12 434
12 443
12 445
12 449
12 451
13 14
13 15
13 16
13 17
13 35
13 40
13 41
13 42
13 43
13 46
13 58
13 59
13 60
13 61
13 62
13 63
13 64
13 65
13 66
13 67
13 69
13 80
13 81
13 82
13 83
13 85
13 86
13 87
13 88
13 96
13 98
13 100
13 102
13 104
13 106
13 108
13 110
13 112
13 114
13 117
13 119
13 122
13 123
13 124
13 125
13 126
13 127
13 128
13 129
13 130
13 131
13 132
13 133
13 134
13 136
13 137
13 138
13 139
13 140
13 141
13 142
13 143
13 150
13 152
13 173
13 174
13 175
13 176
13 177
13 178
13 179
13 180
13 182
13 184
13 187
13 189
13 197
13 198
13 201
13 202
13 205
13 207
13 210
13 212
13 217
13 218
13 219
13 220
13 221
13 222
13 223
13 224
13 225
13 226
13 227
13 228
13 229
13 231
13 232
13 233
13 234
13 235
13 236
13 237
13 238
13 239
13 240
13 242
13 245
13 247
13 250
13 252
13 255
13 257
13 260
13 264
13 268
13 271
13 275
13 278
13 281
13 284
13 287
13 289
13 309
13 311
13 314
13 316
13 332
13 334
13 350
13 352
13 354
13 356
13 359
13 360
13 362
13 363
13 366
13 368
13 370
13 372
13 375
13 378
13 382
13 383
13 384
13 385
13 386
13 387
13 388
13 389
13 390
13 392
13 393
13 404
13 408
13 420
13 421
13 422
13 423
13 424
13 425
13 426
13 427
13 428
13 429
13 430
13 431
13 433
13 434
13 435
13 443
13 445
13 449
13 451
14 15
14 16
14 17
14 35
14 40
14 41
14 42
14 43
14 46
14 58
14 59
14 61
14 62
14 64
14 65
14 67
14 68
14 80
14 81
14 82
14 83
14 85
14 86
14 87
14 88
14 96
14 97
14 98
14 99
14 100
14 101
14 102
14 103
14 104
14 105
14 106
14 107
14 108
14 109
14 111
14 112
14 114
14 117
14 119
14 122
14 123
14 124
14 125
14 126
14 127
14 128
14 129
14 130
14 131
14 132
14 133
14 134
14 135
14 136
14 137
14 139
14 140
14 141
14 142
14 143
14 150
14 152
14 173
14 174
14 175
14 176
14 177
14 178
14 179
14 180
14 182
14 184
14 187
14 189
14 197
14 198
14 201
14 202
14 205
14 207
14 210
14 212
14 217
14 218
14 219
14 220
14 221
14 222
14 223
14 224
14 225
14 226
14 227
14 228
14 229
14 230
14 231
14 232
14 234
14 235
14 236
14 237
14 238
14 239
14 240
14 241
14 242
14 243
14 244
14 245
14 246
14 247
14 248
14 249
14 250
14 251
14 252
14 253
14 254
14 256
14 257
14 258
14 259
14 260
14 264
14 268
14 271
14 275
14 278
14 281
14 284
14 287
14 289
14 309
14 311
14 314
14 316
14 332
14 334
14 350
14 352
14 354
14 356
14 359
14 360
14 362
14 363
14 366
14 368
14 370
14 372
14 375
14 378
14 382
14 385
14 388
14 391
14 404
14 408
14 420
14 422
14 424
14 426
14 428
14 430
14 432
14 434
14 443
14 445
14 449
14 451
15 16
15 17
15 35
15 40
15 41
15 42
15 43
15 46
15 58
15 59
15 61
15 62
15 64
15 65
15 67
15 68
15 80
15 81
15 82
15 83
15 85
15 86
15 87
15 88
15 96
15 98
15 100
15 102
15 104
15 106
15 108
15 110
15 112
15 114
15 117
15 119
15 122
15 123
15 124
15 125
15 126
15 127
15 128
15 129
15 130
15 131
15 132
15 133
15 134
15 135
15 136
15 137
15 138
15 139
15 141
15 142
15 143
15 150
15 152
15 173
15 174
15 175
15 176
15 177
15 178
15 179
15 180
15 182
15 184
15 187
15 189
15 197
15 198
15 201
15 202
15 205
15 207
15 210
15 212
15 217
15 218
15 219
15 220
15 221
15 222
15 223
15 224
15 225
15 226
15 227
15 228
15 229
15 230
15 231
15 232
15 233
15 234
15 236
15 237
15 238
15 239
15 240
15 241
15 242
15 243
15 244
15 245
15 246
15 247
15 248
15 249
15 250
15 251
15 252
15 253
15 254
15 255
15 256
15 258
15 259
15 260
15 264
15 268
15 271
15 275
15 278
15 281
15 284
15 287
15 289
15 309
15 311
15 314
15 316
15 332
15 334
15 350
15 352
15 354
15 356
15 359
15 360
15 362
15 363
15 366
15 368
15 370
15 372
15 375
15 378
15 382
15 385
15 388
15 391
15 404
15 408
15 420
15 421
15 422
15 423
15 424
15 425
15 426
15 427
15 428
15 429
15 430
15 431
15 432
15 433
15 435
15 443
15 445
15 449
15 451
16 17
16 18
16 19
16 20
16 23
16 24
16 25
16 34
16 36
16 37
16 38
16 39
16 41
16 42
16 43
16 44
16 45
16 46
16 48
16 49
16 50
16 53
16 57
16 59
16 60
16 61
16 62
16 63
16 64
16 65
16 66
16 67
16 68
16 69
16 74
16 81
16 82
16 83
16 84
16 85
16 86
16 87
16 88
16 89
16 94
16 95
16 97
16 98
16 99
16 100
16 101
16 102
16 103
16 104
16 105
16 106
16 107
16 108
16 109
16 110
16 111
16 112
16 116
16 148
16 149
16 155
16 156
16 174
16 175
16 176
16 177
16 178
16 179
16 180
16 181
16 183
16 184
16 185
16 186
16 187
16 188
16 189
16 190
16 191
16 194
16 195
16 196
16 198
16 199
16 200
16 201
16 202
16 203
16 204
16 216
16 260
16 262
16 263
16 269
16 270
16 271
16 272
16 273
16 274
16 276
16 277
16 278
16 279
16 280
16 281
16 282
16 283
16 284
16 285
16 286
16 288
16 289
16 290
16 291
16 292
16 319
16 322
16 332
16 336
16 337
16 340
16 350
16 358
16 360
16 361
16 362
16 363
16 364
16 365
16 367
16 368
16 369
16 370
16 371
16 372
16 373
16 374
16 375
16 377
16 381
16 382
16 384
16 398
16 405
16 406
16 407
16 408
16 409
16 410
16 411
16 414
16 415
16 420
16 438
16 442
16 448
16 463
16 466
16 467
17 18
17 19
17 20
17 23
17 24
17 25
17 34
17 35
17 37
17 38
17 39
17 40
17 42
17 43
17 44
17 45
17 47
17 48
17 49
17 50
17 53
17 57
17 58
17 60
17 61
17 62
17 63
17 64
17 65
17 66
17 67
17 68
17 69
17 74
17 80
17 82
17 83
17 84
17 85
17 86
17 87
17 88
17 89
17 94
17 95
17 96
17 113
17 114
17 115
17 116
17 117
17 118
17 119
17 120
17 121
17 148
17 149
17 155
17 156
17 173
17 175
17 176
17 177
17 178
17 179
17 180
17 181
17 182
17 186
17 194
17 195
17 196
17 197
17 199
17 200
17 201
17 202
17 203
17 204
17 216
17 261
17 262
17 263
17 264
17 265
17 266
17 267
17 268
17 270
17 274
17 275
17 277
17 287
17 291
17 292
17 319
17 322
17 333
17 334
17 335
17 336
17 337
17 340
17 351
17 352
17 353
17 354
17 355
17 356
17 357
17 358
17 359
17 361
17 362
17 363
17 364
17 365
17 366
17 374
17 376
17 377
17 378
17 379
17 380
17 381
17 383
17 384
17 385
17 386
17 387
17 388
17 389
17 390
17 391
17 392
17 393
17 398
17 404
17 406
17 407
17 414
17 415
17 421
17 422
17 423
17 424
17 425
17 426
17 427
17 428
17 429
17 430
17 431
17 432
17 433
17 434
17 435
17 438
17 442
17 448
17 463
17 466
17 467
18 19
18 20
18 21
18 22
18 24
18 25
18 34
18 35
18 36
18 38
18 39
18 40
18 41
18 44
18 45
18 46
18 47
18 49
18 50
18 51
18 52
18 54
18 55
18 56
18 57
18 58
18 59
18 61
18 62
18 63
18 64
18 65
18 66
18 67
18 68
18 69
18 74
18 80
18 81
18 84
18 94
18 95
18 96
18 112
18 116
18 148
18 149
18 155
18 156
18 173
18 174
18 181
18 182
18 186
18 192
18 193
18 195
18 196
18 197
18 198
18 200
18 201
18 202
18 203
18 204
18 216
18 260
18 261
18 263
18 264
18 265
18 266
18 267
18 268
18 269
18 271
18 272
18 273
18 274
18 275
18 276
18 278
18 279
18 280
18 281
18 282
18 283
18 284
18 285
18 286
18 287
18 291
18 292
18 319
18 320
18 321
18 323
18 324
18 325
18 326
18 327
18 328
18 329
18 330
18 331
18 332
18 336
18 337
18 338
18 339
18 341
18 342
18 343
18 344
18 345
18 346
18 347
18 348
18 349
18 350
18 358
18 359
18 360
18 362
18 363
18 364
18 365
18 366
18 374
18 375
18 376
18 378
18 379
18 380
18 381
18 382
18 383
18 385
18 386
18 387
18 388
18 389
18 390
18 391
18 392
18 393
18 398
18 404
18 405
18 407
18 408
18 409
18 410
18 411
18 412
18 413
18 415
18 416
18 417
18 418
18 419
18 420
18 436
18 437
18 439
18 440
18 441
18 442
18 448
18 463
18 464
18 465
18 467
18 468
18 469
18 470
18 471
19 20
19 21
19 22
19 23
19 25
19 34
19 35
19 36
19 37
19 39
19 40
19 41
19 42
19 43
19 45
19 46
19 47
19 48
19 50
19 53
19 57
19 58
19 59
19 60
19 70
19 71
19 72
19 73
19 75
19 76
19 77
19 78
19 79
19 80
19 81
19 82
19 83
19 85
19 86
19 87
19 88
19 89
19 90
19 91
19 92
19 93
19 95
19 96
19 112
19 113
19 114
19 115
19 117
19 118
19 119
19 120
19 121
19 144
19 145
19 146
19 147
19 149
19 150
19 151
19 152
19 153
19 154
19 156
19 173
19 174
19 181
19 182
19 183
19 184
19 185
19 187
19 188
19 189
19 190
19 191
19 192
19 193
19 194
19 196
19 197
19 198
19 199
19 201
19 202
19 203
19 204
19 216
19 260
19 261
19 262
19 264
19 265
19 266
19 267
19 268
19 270
19 274
19 275
19 277
19 287
19 288
19 289
19 290
19 292
19 319
19 322
19 332
19 333
19 334
19 335
19 337
19 340
19 350
19 358
19 359
19 360
19 361
19 365
19 366
19 374
19 375
19 377
19 381
19 382
19 384
19 394
19 395
19 396
19 397
19 399
19 400
19 401
19 402
19 403
19 404
19 405
19 406
19 408
19 409
19 410
19 411
19 412
19 413
19 414
19 416
19 417
19 418
19 419
19 420
19 438
19 442
19 443
19 444
19 445
19 446
19 447
19 449
19 450
19 451
19 452
19 453
19 454
19 463
19 464
19 465
19 466
19 468
19 469
19 470
19 471
20 21
20 22
20 23
20 24
20 26
20 27
20 28
20 29
20 30
20 31
20 32
20 33
20 35
20 36
20 37
20 38
20 40
20 41
20 42
20 43
20 44
20 46
20 47
20 48
20 49
20 51
20 52
20 53
20 54
20 55
20 56
20 58
20 59
20 60
20 74
20 80
20 81
20 84
20 90
20 91
20 92
20 93
20 94
20 96
20 112
20 116
20 144
20 145
20 146
20 147
20 148
20 150
20 151
20 152
20 153
20 154
20 155
20 173
20 174
20 175
20 176
20 177
20 178
20 179
20 180
20 182
20 186
20 192
20 193
20 194
20 195
20 197
20 198
20 199
20 200
20 205
20 206
20 207
20 208
20 209
20 210
20 211
20 212
20 213
20 214
20 215
20 260
20 262
20 263
20 268
20 269
20 270
20 271
20 272
20 273
20 275
20 277
20 287
20 288
20 289
20 290
20 291
20 309
20 310
20 311
20 312
20 313
20 314
20 315
20 316
20 317
20 318
20 322
20 332
20 333
20 334
20 335
20 336
20 340
20 350
20 351
20 352
20 353
20 354
20 355
20 356
20 357
20 359
20 360
20 361
20 362
20 363
20 364
20 366
20 367
20 368
20 369
20 370
20 371
20 372
20 373
20 375
20 376
20 377
20 378
20 379
20 380
20 382
20 384
20 398
20 404
20 406
20 407
20 414
20 415
20 420
20 436
20 437
20 438
20 439
20 440
20 441
20 448
20 455
20 456
20 457
20 458
20 459
20 460
20 461
20 462
20 466
20 467
21 22
21 23
21 24
21 25
21 27
21 28
21 29
21 30
21 31
21 32
21 33
21 34
21 36
21 37
21 38
21 39
21 44
21 45
21 48
21 49
21 50
21 52
21 53
21 54
21 55
21 56
21 57
21 60
21 71
21 72
21 73
21 74
21 75
21 76
21 77
21 78
21 79
21 84
21 91
21 92
21 93
21 94
21 95
21 97
21 116
21 145
21 146
21 147
21 148
21 149
21 155
21 156
21 158
21 159
21 160
21 161
21 162
21 163
21 164
21 165
21 166
21 167
21 168
21 169
21 170
21 171
21 172
21 181
21 183
21 186
21 193
21 194
21 195
21 196
21 199
21 200
21 216
21 262
21 263
21 269
21 270
21 274
21 276
21 277
21 288
21 291
21 292
21 294
21 295
21 296
21 297
21 298
21 299
21 300
21 301
21 302
21 303
21 304
21 305
21 306
21 307
21 308
21 319
21 321
21 322
21 323
21 324
21 325
21 326
21 327
21 328
21 329
21 330
21 331
21 336
21 337
21 339
21 340
21 341
21 342
21 343
21 344
21 345
21 346
21 347
21 348
21 349
21 358
21 361
21 365
21 367
21 374
21 377
21 381
21 384
21 395
21 396
21 397
21 398
21 399
21 400
21 401
21 402
21 403
21 405
21 406
21 407
21 413
21 414
21 415
21 416
21 417
21 418
21 419
21 437
21 438
21 439
21 440
21 441
21 442
21 448
21 456
21 457
21 458
21 459
21 460
21 461
21 462
21 463
21 465
21 466
21 467
21 468
21 469
21 470
21 471
22 23
22 24
22 25
22 26
22 34
22 35
22 37
22 38
22 39
22 44
22 45
22 48
22 49
22 50
22 51
22 53
22 57
22 60
22 70
22 74
22 84
22 90
22 92
22 93
22 94
22 95
22 96
22 98
22 99
22 100
22 101
22 102
22 103
22 104
22 105
22 106
22 107
22 108
22 109
22 110
22 111
22 116
22 144
22 148
22 149
22 155
22 156
22 157
22 181
22 182
22 184
22 185
22 186
22 187
22 188
22 189
22 190
22 191
22 192
22 194
22 195
22 196
22 199
22 200
22 216
22 262
22 263
22 268
22 270
22 271
22 272
22 273
22 274
22 275
22 277
22 278
22 279
22 280
22 281
22 282
22 283
22 284
22 285
22 286
22 287
22 289
22 290
22 291
22 292
22 293
22 295
22 296
22 297
22 298
22 299
22 300
22 301
22 302
22 303
22 304
22 305
22 306
22 307
22 308
22 319
22 320
22 322
22 323
22 324
22 325
22 326
22 327
22 328
22 329
22 330
22 331
22 336
22 337
22 338
22 340
22 358
22 361
22 365
22 366
22 368
22 369
22 370
22 371
22 372
22 373
22 374
22 377
22 381
22 384
22 394
22 396
22 397
22 398
22 399
22 400
22 401
22 402
22 403
22 404
22 406
22 407
22 408
22 409
22 410
22 411
22 412
22 414
22 415
22 416
22 417
22 418
22 419
22 436
22 438
22 439
22 440
22 441
22 442
22 448
22 455
22 457
22 458
22 459
22 460
22 461
22 462
22 463
22 464
22 466
22 467
23 24
23 25
23 26
23 34
23 35
23 36
23 38
23 39
23 44
23 45
23 46
23 47
23 49
23 50
23 51
23 52
23 54
23 55
23 56
23 57
23 58
23 59
23 61
23 62
23 63
23 64
23 65
23 66
23 67
23 68
23 69
23 70
23 74
23 84
23 90
23 91
23 94
23 95
23 97
23 116
23 144
23 148
23 149
23 155
23 156
23 157
23 181
23 183
23 186
23 192
23 193
23 195
23 196
23 197
23 198
23 200
23 201
23 202
23 203
23 204
23 216
23 260
23 261
23 263
23 264
23 265
23 266
23 267
23 268
23 269
23 271
23 272
23 273
23 274
23 275
23 276
23 278
23 279
23 280
23 281
23 282
23 283
23 284
23 285
23 286
23 288
23 291
23 292
23 293
23 294
23 319
23 320
23 321
23 323
23 324
23 325
23 326
23 327
23 328
23 329
23 330
23 331
23 336
23 337
23 338
23 339
23 341
23 342
23 343
23 344
23 345
23 346
23 347
23 348
23 349
23 358
23 359
23 360
23 362
23 363
23 364
23 365
23 367
23 374
23 375
23 376
23 378
23 379
23 380
23 381
23 382
23 383
23 385
23 386
23 387
23 388
23 389
23 390
23 391
23 392
23 393
23 394
23 395
23 398
23 404
23 405
23 407
23 408
23 409
23 410
23 411
23 412
23 413
23 415
23 416
23 417
23 418
23 419
23 436
23 437
23 439
23 440
23 441
23 442
23 448
23 455
23 456
23 463
23 464
23 465
23 467
23 468
23 469
23 470
23 471
24 25
24 26
24 34
24 35
24 36
24 37
24 39
24 40
24 41
24 42
24 43
24 45
24 46
24 47
24 48
24 50
24 51
24 53
24 57
24 60
24 70
24 71
24 72
24 73
24 75
24 76
24 77
24 78
24 79
24 80
24 81
24 82
24 83
24 85
24 86
24 87
24 88
24 89
24 90
24 91
24 92
24 93
24 95
24 97
24 112
24 113
24 114
24 115
24 117
24 118
24 119
24 120
24 121
24 144
24 145
24 146
24 147
24 149
24 150
24 151
24 152
24 153
24 154
24 156
24 157
24 181
24 182
24 183
24 184
24 185
24 187
24 188
24 189
24 190
24 191
24 192
24 193
24 194
24 196
24 197
24 198
24 199
24 201
24 202
24 203
24 204
24 216
24 260
24 261
24 262
24 264
24 265
24 266
24 267
24 269
24 270
24 274
24 276
24 277
24 287
24 288
24 289
24 290
24 292
24 293
24 294
24 319
24 320
24 321
24 322
24 332
24 333
24 334
24 335
24 337
24 338
24 340
24 358
24 361
24 365
24 367
24 374
24 377
24 381
24 384
24 394
24 395
24 396
24 397
24 399
24 400
24 401
24 402
24 403
24 404
24 405
24 406
24 408
24 409
24 410
24 411
24 412
24 413
24 414
24 416
24 417
24 418
24 419
24 436
24 437
24 438
24 442
24 443
24 444
24 445
24 446
24 447
24 449
24 450
24 451
24 452
24 453
24 454
24 455
24 456
24 463
24 464
24 465
24 466
24 468
24 469
24 470
24 471
25 26
25 27
25 28
25 29
25 30
25 31
25 32
25 33
25 35
25 36
25 37
25 38
25 40
25 41
25 42
25 43
25 44
25 46
25 47
25 48
25 49
25 51
25 52
25 53
25 54
25 55
25 56
25 60
25 70
25 74
25 84
25 90
25 91
25 92
25 93
25 94
25 97
25 116
25 144
25 145
25 146
25 147
25 148
25 150
25 151
25 152
25 153
25 154
25 155
25 157
25 173
25 174
25 175
25 176
25 177
25 178
25 179
25 180
25 183
25 186
25 192
25 193
25 194
25 195
25 199
25 200
25 205
25 206
25 207
25 208
25 209
25 210
25 211
25 212
25 213
25 214
25 215
25 262
25 263
25 268
25 269
25 270
25 271
25 272
25 273
25 276
25 277
25 287
25 288
25 289
25 290
25 291
25 293
25 294
25 309
25 310
25 311
25 312
25 313
25 314
25 315
25 316
25 317
25 318
25 320
25 321
25 322
25 332
25 333
25 334
25 335
25 336
25 338
25 340
25 350
25 351
25 352
25 353
25 354
25 355
25 356
25 357
25 359
25 360
25 361
25 362
25 363
25 364
25 366
25 367
25 368
25 369
25 370
25 371
25 372
25 373
25 375
25 376
25 377
25 378
25 379
25 380
25 384
25 394
25 395
25 398
25 405
25 406
25 407
25 412
25 413
25 414
25 415
25 436
25 437
25 438
25 439
25 440
25 441
25 448
25 455
25 456
25 457
25 458
25 459
25 460
25 461
25 462
25 464
25 466
25 467
26 27
26 28
26 29
26 30
26 31
26 32
26 33
26 34
26 39
26 45
26 47
26 50
26 52
26 53
26 54
26 55
26 56
26 57
26 71
26 72
26 73
26 74
26 75
26 76
26 77
26 78
26 79
26 91
26 92
26 93
26 94
26 95
26 113
26 115
26 123
26 125
26 128
26 130
26 145
26 146
26 147
26 148
26 149
26 151
26 153
26 156
26 158
26 159
26 160
26 161
26 162
26 163
26 164
26 165
26 166
26 167
26 168
26 169
26 170
26 171
26 172
26 181
26 193
26 194
26 195
26 196
26 206
26 208
26 211
26 213
26 216
26 241
26 243
26 246
26 248
26 261
26 274
26 292
26 294
26 295
26 296
26 297
26 298
26 299
26 300
26 301
26 302
26 303
26 304
26 305
26 306
26 307
26 308
26 310
26 312
26 315
26 317
26 319
26 321
26 322
26 323
26 324
26 325
26 326
26 327
26 328
26 329
26 330
26 331
26 333
26 335
26 337
26 339
26 340
26 341
26 342
26 343
26 344
26 345
26 346
26 347
26 348
26 349
26 351
26 353
26 355
26 357
26 358
26 365
26 374
26 376
26 379
26 381
26 383
26 386
26 395
26 396
26 397
26 398
26 399
26 400
26 401
26 402
26 403
26 413
26 414
26 415
26 416
26 417
26 418
26 419
26 421
26 423
26 425
26 427
26 437
26 438
26 439
26 440
26 441
26 442
26 444
26 446
26 456
26 457
26 458
26 459
26 460
26 461
26 462
26 463
26 465
26 466
26 467
26 468
26 469
26 470
26 471
27 28
27 29
27 30
27 31
27 32
27 33
27 34
27 39
27 45
27 46
27 48
27 49
27 50
27 51
27 53
27 54
27 55
27 56
27 57
27 70
27 72
27 73
27 74
27 75
27 76
27 77
27 78
27 79
27 90
27 92
27 95
27 112
27 114
27 115
27 116
27 117
27 118
27 119
27 120
27 121
27 123
27 125
27 128
27 130
27 144
27 146
27 147
27 148
27 149
27 151
27 153
27 156
27 157
27 159
27 160
27 161
27 162
27 163
27 164
27 165
27 166
27 167
27 168
27 169
27 170
27 171
27 172
27 181
27 192
27 194
27 195
27 196
27 206
27 208
27 211
27 213
27 216
27 241
27 243
27 246
27 248
27 260
27 262
27 263
27 264
27 265
27 266
27 267
27 274
27 292
27 293
27 295
27 297
27 299
27 310
27 312
27 315
27 317
27 319
27 320
27 323
27 332
27 334
27 335
27 336
27 337
27 338
27 340
27 341
27 342
27 343
27 344
27 345
27 346
27 347
27 348
27 349
27 350
27 352
27 353
27 354
27 355
27 356
27 357
27 358
27 365
27 374
27 375
27 377
27 378
27 379
27 380
27 381
27 382
27 384
27 385
27 386
27 387
27 388
27 389
27 390
27 391
27 392
27 393
27 394
27 396
27 412
27 420
27 422
27 423
27 424
27 425
27 426
27 427
27 428
27 429
27 430
27 431
27 432
27 433
27 434
27 435
27 436
27 439
27 442
27 444
27 446
27 455
27 457
27 459
27 461
27 463
27 464
27 466
27 467
27 468
27 469
27 470
27 471
28 29
28 30
28 31
28 32
28 33
28 34
28 39
28 45
28 47
28 50
28 51
28 52
28 54
28 55
28 57
28 70
28 71
28 73
28 74
28 75
28 76
28 77
28 78
28 79
28 90
28 91
28 93
28 94
28 95
28 113
28 115
28 123
28 125
28 128
28 130
28 144
28 145
28 147
28 148
28 149
28 150
28 152
28 153
28 154
28 155
28 156
28 157
28 158
28 160
28 161
28 162
28 163
28 164
28 165
28 166
28 167
28 168
28 169
28 170
28 171
28 172
28 181
28 192
28 193
28 196
28 206
28 208
28 211
28 213
28 216
28 240
28 242
28 243
28 244
28 245
28 246
28 247
28 248
28 249
28 250
28 251
28 252
28 253
28 254
28 255
28 256
28 257
28 258
28 259
28 261
28 274
28 292
28 293
28 294
28 296
28 297
28 298
28 299
28 300
28 301
28 302
28 303
28 304
28 305
28 306
28 307
28 308
28 309
28 311
28 312
28 313
28 314
28 315
28 316
28 317
28 318
28 319
28 320
28 323
28 333
28 335
28 337
28 338
28 339
28 341
28 342
28 351
28 353
28 355
28 357
28 358
28 365
28 374
28 376
28 379
28 381
28 383
28 386
28 394
28 395
28 397
28 398
28 399
28 400
28 401
28 402
28 403
28 412
28 421
28 423
28 425
28 427
28 436
28 439
28 442
28 443
28 445
28 446
28 447
28 448
28 449
28 450
28 451
28 452
28 453
28 454
28 455
28 456
28 458
28 459
28 460
28 461
28 462
28 463
28 464
28 465
29 30
29 31
29 32
29 33
29 34
29 39
29 45
29 47
29 50
29 51
29 52
29 54
29 55
29 57
29 70
29 71
29 72
29 74
29 75
29 76
29 77
29 78
29 79
29 90
29 92
29 95
29 112
29 113
29 114
29 116
29 117
29 118
29 119
29 120
29 121
29 123
29 125
29 128
29 130
29 144
29 145
29 146
29 148
29 149
29 150
29 151
29 152
29 154
29 155
29 156
29 157
29 158
29 159
29 161
29 162
29 163
29 164
29 165
29 166
29 167
29 168
29 169
29 170
29 171
29 172
29 181
29 192
29 193
29 196
29 206
29 208
29 211
29 213
29 216
29 240
29 241
29 242
29 244
29 245
29 246
29 247
29 248
29 249
29 250
29 251
29 252
29 253
29 254
29 255
29 256
29 257
29 258
29 259
29 261
29 274
29 292
29 293
29 295
29 297
29 299
29 309
29 310
29 311
29 313
29 314
29 315
29 316
29 317
29 318
29 319
29 320
29 323
29 332
29 333
29 334
29 336
29 337
29 338
29 339
29 341
29 342
29 350
29 351
29 352
29 354
29 355
29 356
29 357
29 358
29 365
29 374
29 376
29 379
29 381
29 383
29 386
29 394
29 396
29 412
29 420
29 421
29 422
29 424
29 425
29 426
29 427
29 428
29 429
29 430
29 431
29 432
29 433
29 434
29 435
29 436
29 439
29 442
29 443
29 444
29 445
29 447
29 448
29 449
29 450
29 451
29 452
29 453
29 454
29 455
29 457
29 459
29 461
29 463
29 464
29 465
30 31
30 32
30 33
30 34
30 39
30 45
30 47
30 50
30 51
30 52
30 53
30 55
30 56
30 57
30 70
30 71
30 72
30 73
30 90
30 92
30 95
30 113
30 115
30 122
30 124
30 125
30 126
30 127
30 128
30 129
30 130
30 131
30 132
30 133
30 134
30 135
30 136
30 137
30 138
30 139
30 140
30 141
30 142
30 143
30 144
30 145
30 146
30 147
30 149
30 151
30 153
30 156
30 157
30 158
30 159
30 160
30 162
30 163
30 164
30 165
30 166
30 167
30 168
30 169
30 170
30 171
30 172
30 181
30 192
30 193
30 196
30 205
30 207
30 208
30 209
30 210
30 211
30 212
30 213
30 214
30 215
30 216
30 241
30 243
30 246
30 248
30 261
30 274
30 292
30 293
30 294
30 295
30 296
30 298
30 299
30 300
30 301
30 302
30 303
30 304
30 305
30 306
30 307
30 308
30 310
30 312
30 315
30 317
30 319
30 320
30 321
30 322
30 324
30 325
30 326
30 327
30 328
30 329
30 330
30 331
30 333
30 335
30 337
30 338
30 339
30 340
30 342
30 343
30 344
30 345
30 346
30 347
30 348
30 349
30 351
30 353
30 355
30 357
30 358
30 365
30 374
30 376
30 379
30 381
30 383
30 386
30 394
30 396
30 412
30 421
30 423
30 425
30 427
30 436
30 437
30 438
30 440
30 441
30 442
30 444
30 446
30 455
30 456
30 457
30 458
30 460
30 461
30 462
30 463
30 464
30 465
31 32
31 33
31 34
31 39
31 45
31 47
31 50
31 51
31 52
31 53
31 54
31 56
31 57
31 70
31 71
31 72
31 73
31 90
31 92
31 95
31 113
31 115
31 122
31 123
31 124
31 126
31 127
31 128
31 129
31 130
31 131
31 132
31 133
31 134
31 135
31 136
31 137
31 138
31 139
31 140
31 141
31 142
31 143
31 144
31 145
31 146
31 147
31 149
31 151
31 153
31 156
31 157
31 158
31 159
31 160
31 161
31 163
31 164
31 165
31 166
31 167
31 168
31 169
31 170
31 171
31 172
31 181
31 192
31 193
31 196
31 205
31 206
31 207
31 209
31 210
31 211
31 212
31 213
31 214
31 215
31 216
31 241
31 243
31 246
31 248
31 261
31 274
31 292
31 293
31 295
31 297
31 299
31 310
31 312
31 315
31 317
31 319
31 320
31 323
31 333
31 335
31 337
31 338
31 339
31 340
31 341
31 343
31 344
31 345
31 346
31 347
31 348
31 349
31 350
31 351
31 352
31 353
31 354
31 356
31 357
31 358
31 365
31 374
31 375
31 376
31 377
31 378
31 380
31 381
31 382
31 383
31 384
31 385
31 387
31 388
31 389
31 390
31 391
31 392
31 393
31 394
31 396
31 412
31 420
31 421
31 422
31 423
31 424
31 426
31 427
31 428
31 429
31 430
31 431
31 432
31 433
31 434
31 435
31 436
31 439
31 442
31 444
31 446
31 455
31 457
31 459
31 461
31 463
31 464
31 465
32 33
32 34
32 39
32 45
32 47
32 50
32 51
32 52
32 54
32 55
32 57
32 70
32 71
32 72
32 73
32 90
32 92
32 95
32 113
32 115
32 122
32 123
32 124
32 125
32 126
32 127
32 129
32 130
32 131
32 132
32 133
32 134
32 135
32 136
32 137
32 138
32 139
32 140
32 141
32 142
32 143
32 144
32 145
32 146
32 147
32 149
32 151
32 153
32 156
32 157
32 158
32 159
32 160
32 161
32 162
32 164
32 165
32 166
32 167
32 168
32 169
32 170
32 171
32 172
32 181
32 192
32 193
32 196
32 205
32 206
32 207
32 208
32 209
32 210
32 212
32 213
32 214
32 215
32 216
32 240
32 241
32 242
32 243
32 244
32 245
32 247
32 248
32 249
32 250
32 251
32 252
32 253
32 254
32 255
32 256
32 257
32 258
32 259
32 261
32 274
32 292
32 293
32 294
32 295
32 296
32 297
32 298
32 300
32 301
32 302
32 303
32 304
32 305
32 306
32 307
32 308
32 309
32 310
32 311
32 312
32 313
32 314
32 316
32 317
32 318
32 319
32 320
32 323
32 333
32 335
32 337
32 338
32 339
32 341
32 342
32 351
32 353
32 355
32 357
32 358
32 365
32 374
32 376
32 379
32 381
32 383
32 386
32 394
32 396
32 412
32 421
32 423
32 425
32 427
32 436
32 439
32 442
32 444
32 446
32 455
32 456
32 457
32 458
32 459
32 460
32 462
32 463
32 464
32 465
33 34
33 39
33 45
33 47
33 50
33 51
33 52
33 54
33 55
33 57
33 70
33 71
33 72
33 73
33 90
33 92
33 95
33 113
33 115
33 122
33 123
33 124
33 125
33 126
33 127
33 128
33 129
33 131
33 132
33 133
33 134
33 135
33 136
33 137
33 138
33 139
33 140
33 141
33 142
33 143
33 144
33 145
33 146
33 147
33 149
33 151
33 153
33 156
33 157
33 158
33 159
33 160
33 161
33 162
33 163
33 165
33 166
33 167
33 168
33 169
33 170
33 171
33 172
33 181
33 192
33 193
33 196
33 205
33 206
33 207
33 208
33 209
33 210
33 211
33 212
33 214
33 215
33 216
33 240
33 241
33 242
33 243
33 244
33 245
33 246
33 247
33 249
33 250
33 251
33 252
33 253
33 254
33 255
33 256
33 257
33 258
33 259
33 261
33 274
33 292
33 293
33 295
33 297
33 299
33 309
33 310
33 311
33 312
33 313
33 314
33 315
33 316
33 318
33 319
33 320
33 323
33 333
33 335
33 337
33 338
33 339
33 341
33 342
33 350
33 351
33 352
33 353
33 354
33 355
33 356
33 358
33 365
33 374
33 376
33 379
33 381
33 383
33 386
33 394
33 396
33 412
33 420
33 421
33 422
33 423
33 424
33 425
33 426
33 428
33 429
33 430
33 431
33 432
33 433
33 434
33 435
33 436
33 439
33 442
33 444
33 446
33 455
33 457
33 459
33 461
33 463
33 464
33 465
34 35
34 36
34 37
34 38
34 40
34 41
34 42
34 43
34 44
34 46
34 47
34 48
34 49
34 51
34 52
34 53
34 54
34 55
34 56
34 70
34 71
34 72
34 73
34 90
34 91
34 92
34 93
34 94
34 113
34 115
34 123
34 125
34 128
34 130
34 144
34 145
34 146
34 147
34 148
34 150
34 151
34 152
34 153
34 154
34 155
34 157
34 158
34 159
34 160
34 161
34 162
34 163
34 164
34 173
34 174
34 175
34 176
34 177
34 178
34 179
34 180
34 192
34 193
34 194
34 195
34 205
34 206
34 207
34 208
34 209
34 210
34 211
34 212
34 213
34 214
34 215
34 241
34 243
34 246
34 248
34 261
34 268
34 269
34 270
34 271
34 272
34 273
34 287
34 288
34 289
34 290
34 291
34 293
34 295
34 297
34 299
34 309
34 310
34 311
34 312
34 313
34 314
34 315
34 316
34 317
34 318
34 320
34 323
34 332
34 333
34 334
34 335
34 336
34 338
34 339
34 341
34 342
34 350
34 351
34 352
34 353
34 354
34 355
34 356
34 357
34 359
34 360
34 361
34 362
34 363
34 364
34 366
34 367
34 368
34 369
34 370
34 371
34 372
34 373
34 375
34 376
34 377
34 378
34 379
34 380
34 383
34 386
34 394
34 396
34 412
34 421
34 423
34 425
34 427
34 436
34 437
34 438
34 439
34 440
34 441
34 444
34 446
34 455
34 456
34 457
34 458
34 459
34 460
34 461
34 462
34 464
34 465
35 36
35 37
35 38
35 39
35 41
35 42
35 43
35 44
35 45
35 48
35 49
35 50
35 53
35 57
35 59
35 60
35 61
35 62
35 63
35 64
35 65
35 66
35 67
35 68
35 69
35 74
35 81
35 82
35 83
35 84
35 85
35 86
35 87
35 88
35 89
35 91
35 94
35 95
35 97
35 98
35 99
35 100
35 101
35 102
35 103
35 104
35 105
35 106
35 107
35 108
35 109
35 110
35 111
35 116
35 148
35 149
35 155
35 156
35 174
35 175
35 176
35 177
35 178
35 179
35 180
35 181
35 183
35 184
35 185
35 186
35 187
35 188
35 189
35 190
35 191
35 194
35 195
35 196
35 198
35 199
35 200
35 201
35 202
35 203
35 204
35 216
35 262
35 263
35 269
35 270
35 271
35 272
35 273
35 274
35 276
35 277
35 278
35 279
35 280
35 281
35 282
35 283
35 284
35 285
35 286
35 288
35 289
35 290
35 291
35 292
35 294
35 319
35 321
35 322
35 336
35 337
35 340
35 358
35 360
35 361
35 362
35 363
35 364
35 365
35 367
35 368
35 369
35 370
35 371
35 372
35 373
35 374
35 377
35 381
35 384
35 395
35 398
35 405
35 406
35 407
35 408
35 409
35 410
35 411
35 413
35 414
35 415
35 437
35 438
35 442
35 448
35 456
35 463
35 466
35 467
36 37
36 38
36 39
36 40
36 44
36 45
36 48
36 49
36 50
36 53
36 57
36 58
36 60
36 74
36 80
36 84
36 90
36 92
36 93
36 94
36 95
36 96
36 98
36 99
36 100
36 101
36 102
36 103
36 104
36 105
36 106
36 107
36 108
36 109
36 110
36 111
36 116
36 148
36 149
36 155
36 156
36 173
36 181
36 182
36 184
36 185
36 186
36 187
36 188
36 189
36 190
36 191
36 194
36 195
36 196
36 197
36 199
36 200
36 216
36 262
36 263
36 268
36 270
36 271
36 272
36 273
36 274
36 275
36 277
36 278
36 279
36 280
36 281
36 282
36 283
36 284
36 285
36 286
36 287
36 289
36 290
36 291
36 292
36 293
36 295
36 296
36 297
36 298
36 299
36 300
36 301
36 302
36 303
36 304
36 305
36 306
36 307
36 308
36 319
36 320
36 322
36 323
36 324
36 325
36 326
36 327
36 328
36 329
36 330
36 331
36 336
36 337
36 340
36 358
36 359
36 361
36 365
36 366
36 368
36 369
36 370
36 371
36 372
36 373
36 374
36 377
36 381
36 384
36 394
36 396
36 397
36 398
36 399
36 400
36 401
36 402
36 403
36 404
36 406
36 407
36 408
36 409
36 410
36 411
36 412
36 414
36 415
36 416
36 417
36 418
36 419
36 436
36 438
36 439
36 440
36 441
36 442
36 448
36 455
36 457
36 458
36 459
36 460
36 461
36 462
36 463
36 466
36 467
37 38
37 39
37 40
37 44
37 45
37 46
37 47
37 49
37 50
37 51
37 52
37 54
37 55
37 56
37 57
37 58
37 59
37 61
37 62
37 63
37 64
37 65
37 66
37 67
37 68
37 69
37 74
37 80
37 84
37 91
37 94
37 95
37 96
37 97
37 116
37 148
37 149
37 155
37 156
37 173
37 181
37 182
37 183
37 186
37 192
37 193
37 195
37 196
37 197
37 198
37 200
37 201
37 202
37 203
37 204
37 216
37 260
37 261
37 263
37 264
37 265
37 266
37 267
37 268
37 269
37 271
37 272
37 273
37 274
37 275
37 276
37 278
37 279
37 280
37 281
37 282
37 283
37 284
37 285
37 286
37 287
37 288
37 291
37 292
37 294
37 319
37 320
37 321
37 323
37 324
37 325
37 326
37 327
37 328
37 329
37 330
37 331
37 336
37 337
37 338
37 339
37 341
37 342
37 343
37 344
37 345
37 346
37 347
37 348
37 349
37 358
37 359
37 360
37 362
37 363
37 364
37 365
37 366
37 367
37 374
37 375
37 376
37 378
37 379
37 380
37 381
37 382
37 383
37 385
37 386
37 387
37 388
37 389
37 390
37 391
37 392
37 393
37 395
37 398
37 404
37 405
37 407
37 408
37 409
37 410
37 411
37 412
37 413
37 415
37 416
37 417
37 418
37 419
37 436
37 437
37 439
37 440
37 441
37 442
37 448
37 456
37 463
37 464
37 465
37 467
37 468
37 469
37 470
37 471
38 39
38 40
38 41
38 42
38 43
38 45
38 46
38 47
38 48
38 50
38 53
38 57
38 58
38 60
38 70
38 71
38 72
38 73
38 75
38 76
38 77
38 78
38 79
38 80
38 81
38 82
38 83
38 85
38 86
38 87
38 88
38 89
38 90
38 91
38 92
38 93
38 95
38 96
38 97
38 112
38 113
38 114
38 115
38 117
38 118
38 119
38 120
38 121
38 144
38 145
38 146
38 147
38 149
38 150
38 151
38 152
38 153
38 154
38 156
38 173
38 181
38 182
38 183
38 184
38 185
38 187
38 188
38 189
38 190
38 191
38 192
38 193
38 194
38 196
38 197
38 198
38 199
38 201
38 202
38 203
38 204
38 216
38 260
38 261
38 262
38 264
38 265
38 266
38 267
38 268
38 269
38 270
38 274
38 275
38 276
38 277
38 287
38 288
38 289
38 290
38 292
38 294
38 319
38 321
38 322
38 332
38 333
38 334
38 335
38 337
38 340
38 358
38 359
38 361
38 365
38 366
38 367
38 374
38 377
38 381
38 384
38 394
38 395
38 396
38 397
38 399
38 400
38 401
38 402
38 403
38 404
38 405
38 406
38 408
38 409
38 410
38 411
38 412
38 413
38 414
38 416
38 417
38 418
38 419
38 437
38 438
38 442
38 443
38 444
38 445
38 446
38 447
38 449
38 450
38 451
38 452
38 453
38 454
38 456
38 463
38 464
38 465
38 466
38 468
38 469
38 470
38 471
39 40
39 41
39 42
39 43
39 44
39 46
39 47
39 48
39 49
39 51
39 52
39 53
39 54
39 55
39 56
39 58
39 60
39 74
39 80
39 84
39 90
39 91
39 92
39 93
39 94
39 96
39 97
39 116
39 144
39 145
39 146
39 147
39 148
39 150
39 151
39 152
39 153
39 154
39 155
39 173
39 174
39 175
39 176
39 177
39 178
39 179
39 180
39 182
39 183
39 186
39 192
39 193
39 194
39 195
39 197
39 199
39 200
39 205
39 206
39 207
39 208
39 209
39 210
39 211
39 212
39 213
39 214
39 215
39 262
39 263
39 268
39 269
39 270
39 271
39 272
39 273
39 275
39 276
39 277
39 287
39 288
39 289
39 290
39 291
39 294
39 309
39 310
39 311
39 312
39 313
39 314
39 315
39 316
39 317
39 318
39 321
39 322
39 332
39 333
39 334
39 335
39 336
39 340
39 350
39 351
39 352
39 353
39 354
39 355
39 356
39 357
39 359
39 360
39 361
39 362
39 363
39 364
39 366
39 367
39 368
39 369
39 370
39 371
39 372
39 373
39 375
39 376
39 377
39 378
39 379
39 380
39 384
39 395
39 398
39 404
39 405
39 406
39 407
39 413
39 414
39 415
39 436
39 437
39 438
39 439
39 440
39 441
39 448
39 455
39 456
39 457
39 458
39 459
39 460
39 461
39 462
39 466
39 467
40 41
40 42
40 43
40 44
40 45
40 46
40 49
40 50
40 57
40 59
40 60
40 61
40 62
40 63
40 64
40 65
40 66
40 67
40 68
40 69
40 74
40 81
40 82
40 83
40 84
40 85
40 86
40 87
40 88
40 89
40 94
40 95
40 97
40 98
40 99
40 100
40 101
40 102
40 103
40 104
40 105
40 106
40 107
40 108
40 109
40 110
40 111
40 112
40 114
40 116
40 148
40 149
40 150
40 152
40 155
40 156
40 174
40 175
40 176
40 177
40 178
40 179
40 180
40 181
40 183
40 184
40 185
40 186
40 187
40 188
40 189
40 190
40 191
40 195
40 196
40 198
40 199
40 200
40 201
40 202
40 203
40 204
40 216
40 240
40 242
40 260
40 263
40 269
40 270
40 271
40 272
40 273
40 274
40 276
40 277
40 278
40 279
40 280
40 281
40 282
40 283
40 284
40 285
40 286
40 288
40 289
40 290
40 291
40 292
40 309
40 311
40 319
40 332
40 334
40 336
40 337
40 350
40 352
40 358
40 360
40 361
40 362
40 363
40 364
40 365
40 367
40 368
40 369
40 370
40 371
40 372
40 373
40 374
40 375
40 381
40 382
40 398
40 405
40 406
40 407
40 408
40 409
40 410
40 411
40 415
40 420
40 422
40 442
40 443
40 445
40 448
40 463
40 467
41 42
41 43
41 44
41 45
41 47
41 48
41 49
41 50
41 57
41 58
41 60
41 61
41 62
41 63
41 64
41 65
41 66
41 67
41 68
41 69
41 74
41 80
41 82
41 83
41 84
41 85
41 86
41 87
41 88
41 89
41 94
41 95
41 96
41 98
41 113
41 114
41 115
41 116
41 117
41 118
41 119
41 120
41 121
41 148
41 149
41 150
41 152
41 155
41 156
41 173
41 175
41 176
41 177
41 178
41 179
41 180
41 181
41 182
41 184
41 186
41 195
41 196
41 197
41 199
41 200
41 201
41 202
41 203
41 204
41 216
41 240
41 242
41 261
41 262
41 263
41 264
41 265
41 266
41 267
41 268
41 274
41 275
41 287
41 289
41 291
41 292
41 309
41 311
41 319
41 333
41 334
41 335
41 336
41 337
41 351
41 352
41 353
41 354
41 355
41 356
41 357
41 358
41 359
41 361
41 362
41 363
41 364
41 365
41 366
41 368
41 374
41 376
41 377
41 378
41 379
41 380
41 381
41 383
41 384
41 385
41 386
41 387
41 388
41 389
41 390
41 391
41 392
41 393
41 398
41 404
41 407
41 415
41 421
41 422
41 423
41 424
41 425
41 426
41 427
41 428
41 429
41 430
41 431
41 432
41 433
41 434
41 435
41 442
41 443
41 445
41 448
41 463
41 467
42 43
42 44
42 45
42 46
42 49
42 50
42 57
42 58
42 59
42 74
42 80
42 81
42 83
42 84
42 85
42 86
42 87
42 88
42 89
42 94
42 95
42 96
42 97
42 99
42 100
42 101
42 102
42 103
42 104
42 105
42 106
42 107
42 108
42 109
42 110
42 111
42 112
42 114
42 116
42 148
42 149
42 151
42 152
42 153
42 154
42 155
42 156
42 173
42 174
42 176
42 177
42 178
42 179
42 180
42 181
42 182
42 183
42 185
42 186
42 187
42 188
42 189
42 190
42 191
42 195
42 196
42 197
42 198
42 200
42 216
42 241
42 242
42 243
42 244
42 245
42 246
42 247
42 248
42 249
42 250
42 251
42 252
42 253
42 254
42 255
42 256
42 257
42 258
42 259
42 260
42 263
42 268
42 274
42 275
42 287
42 288
42 290
42 291
42 292
42 310
42 311
42 312
42 313
42 314
42 315
42 316
42 317
42 318
42 319
42 332
42 334
42 336
42 337
42 350
42 352
42 358
42 359
42 360
42 365
42 366
42 367
42 369
42 370
42 371
42 372
42 373
42 374
42 375
42 381
42 382
42 398
42 404
42 407
42 415
42 420
42 422
42 442
42 444
42 445
42 446
42 447
42 448
42 449
42 450
42 451
42 452
42 453
42 454
42 463
42 467
43 44
43 45
43 46
43 49
43 50
43 57
43 58
43 59
43 74
43 80
43 81
43 82
43 84
43 85
43 86
43 87
43 88
43 89
43 94
43 95
43 96
43 98
43 112
43 113
43 115
43 116
43 117
43 118
43 119
43 120
43 121
43 148
43 149
43 150
43 151
43 153
43 154
43 155
43 156
43 173
43 174
43 175
43 177
43 178
43 179
43 180
43 181
43 182
43 184
43 186
43 195
43 196
43 197
43 198
43 200
43 216
43 240
43 241
43 243
43 244
43 245
43 246
43 247
43 248
43 249
43 250
43 251
43 252
43 253
43 254
43 255
43 256
43 257
43 258
43 259
43 260
43 263
43 268
43 274
43 275
43 287
43 289
43 291
43 292
43 309
43 310
43 312
43 313
43 314
43 315
43 316
43 317
43 318
43 319
43 332
43 333
43 335
43 336
43 337
43 350
43 351
43 353
43 354
43 355
43 356
43 357
43 358
43 359
43 360
43 365
43 366
43 368
43 374
43 375
43 381
43 382
43 398
43 404
43 407
43 415
43 420
43 421
43 423
43 424
43 425
43 426
43 427
43 428
43 429
43 430
43 431
43 432
43 433
43 434
43 435
43 442
43 443
43 444
43 446
43 447
43 448
43 449
43 450
43 451
43 452
43 453
43 454
43 463
43 467
44 45
44 46
44 47
44 48
44 50
44 57
44 58
44 59
44 70
44 71
44 72
44 73
44 75
44 76
44 77
44 78
44 79
44 80
44 81
44 82
44 83
44 85
44 86
44 87
44 88
44 89
44 90
44 91
44 92
44 93
44 95
44 96
44 98
44 112
44 113
44 114
44 115
44 117
44 118
44 119
44 120
44 121
44 144
44 145
44 146
44 147
44 149
44 150
44 151
44 152
44 153
44 154
44 156
44 173
44 174
44 175
44 176
44 181
44 182
44 183
44 184
44 185
44 187
44 188
44 189
44 190
44 191
44 192
44 193
44 194
44 196
44 197
44 198
44 199
44 201
44 202
44 203
44 204
44 216
44 240
44 242
44 260
44 261
44 262
44 264
44 265
44 266
44 267
44 268
44 274
44 275
44 287
44 288
44 289
44 290
44 292
44 309
44 311
44 319
44 332
44 333
44 334
44 335
44 337
44 350
44 352
44 358
44 359
44 360
44 365
44 366
44 368
44 374
44 375
44 381
44 382
44 394
44 395
44 396
44 397
44 399
44 400
44 401
44 402
44 403
44 404
44 405
44 406
44 408
44 409
44 410
44 411
44 412
44 413
44 414
44 416
44 417
44 418
44 419
44 420
44 422
44 442
44 443
44 444
44 445
44 446
44 447
44 449
44 450
44 451
44 452
44 453
44 454
44 463
44 464
44 465
44 466
44 468
44 469
44 470
44 471
45 46
45 47
45 48
45 49
45 51
45 52
45 53
45 54
45 55
45 56
45 58
45 59
45 74
45 80
45 81
45 82
45 83
45 84
45 90
45 91
45 92
45 93
45 94
45 96
45 98
45 112
45 114
45 116
45 144
45 145
45 146
45 147
45 148
45 150
45 151
45 152
45 153
45 154
45 155
45 173
45 174
45 175
45 176
45 177
45 178
45 179
45 180
45 182
45 184
45 186
45 192
45 193
45 194
45 195
45 197
45 198
45 200
45 205
45 206
45 207
45 208
45 209
45 210
45 211
45 212
45 213
45 214
45 215
45 240
45 242
45 260
45 263
45 268
45 269
45 270
45 271
45 272
45 273
45 275
45 287
45 288
45 289
45 290
45 291
45 309
45 310
45 311
45 312
45 313
45 314
45 315
45 316
45 317
45 318
45 332
45 333
45 334
45 335
45 336
45 350
45 351
45 352
45 353
45 354
45 355
45 356
45 357
45 359
45 360
45 361
45 362
45 363
45 364
45 366
45 367
45 368
45 369
45 370
45 371
45 372
45 373
45 375
45 376
45 377
45 378
45 379
45 380
45 382
45 398
45 404
45 407
45 415
45 420
45 422
45 436
45 437
45 438
45 439
45 440
45 441
45 443
45 445
45 448
45 455
45 456
45 457
45 458
45 459
45 460
45 461
45 462
45 467
46 47
46 48
46 49
46 50
46 52
46 53
46 57
46 58
46 60
46 61
46 62
46 63
46 64
46 65
46 66
46 67
46 68
46 69
46 71
46 74
46 80
46 82
46 83
46 84
46 85
46 86
46 87
46 88
46 89
46 94
46 95
46 113
46 114
46 115
46 116
46 117
46 118
46 119
46 120
46 121
46 145
46 148
46 149
46 155
46 156
46 158
46 173
46 175
46 176
46 177
46 178
46 179
46 180
46 181
46 186
46 193
46 194
46 195
46 196
46 197
46 199
46 200
46 201
46 202
46 203
46 204
46 216
46 261
46 262
46 263
46 264
46 265
46 266
46 267
46 270
46 274
46 277
46 291
46 292
46 319
46 322
46 333
46 334
46 335
46 336
46 337
46 339
46 340
46 351
46 352
46 353
46 354
46 355
46 356
46 357
46 358
46 359
46 361
46 362
46 363
46 364
46 365
46 374
46 376
46 377
46 378
46 379
46 380
46 381
46 383
46 384
46 385
46 386
46 387
46 388
46 389
46 390
46 391
46 392
46 393
46 398
46 406
46 407
46 414
46 415
46 421
46 422
46 423
46 424
46 425
46 426
46 427
46 428
46 429
46 430
46 431
46 432
46 433
46 434
46 435
46 438
46 442
46 448
46 463
46 465
46 466
46 467
47 48
47 49
47 50
47 51
47 53
47 54
47 55
47 56
47 57
47 59
47 60
47 70
47 72
47 73
47 74
47 75
47 76
47 77
47 78
47 79
47 81
47 84
47 94
47 95
47 112
47 114
47 115
47 116
47 117
47 118
47 119
47 120
47 121
47 144
47 146
47 147
47 148
47 149
47 155
47 156
47 157
47 159
47 160
47 161
47 162
47 163
47 164
47 165
47 166
47 167
47 168
47 169
47 170
47 171
47 172
47 174
47 181
47 186
47 192
47 194
47 195
47 196
47 198
47 199
47 200
47 216
47 260
47 262
47 263
47 264
47 265
47 266
47 267
47 270
47 274
47 277
47 291
47 292
47 319
47 322
47 332
47 334
47 335
47 336
47 337
47 338
47 340
47 341
47 342
47 343
47 344
47 345
47 346
47 347
47 348
47 349
47 350
47 352
47 353
47 354
47 355
47 356
47 357
47 358
47 360
47 361
47 365
47 374
47 375
47 377
47 378
47 379
47 380
47 381
47 382
47 384
47 385
47 386
47 387
47 388
47 389
47 390
47 391
47 392
47 393
47 398
47 406
47 407
47 414
47 415
47 420
47 422
47 423
47 424
47 425
47 426
47 427
47 428
47 429
47 430
47 431
47 432
47 433
47 434
47 435
47 438
47 442
47 448
47 463
47 464
47 466
47 467
47 468
47 469
47 470
47 471
48 49
48 50
48 51
48 52
48 54
48 55
48 56
48 57
48 58
48 59
48 61
48 62
48 63
48 64
48 65
48 66
48 67
48 68
48 69
48 71
48 74
48 81
48 84
48 94
48 95
48 112
48 113
48 116
48 145
48 148
48 149
48 155
48 156
48 158
48 174
48 181
48 186
48 192
48 193
48 195
48 196
48 197
48 198
48 200
48 201
48 202
48 203
48 204
48 216
48 260
48 261
48 263
48 264
48 265
48 266
48 267
48 268
48 269
48 271
48 272
48 273
48 274
48 275
48 276
48 278
48 279
48 280
48 281
48 282
48 283
48 284
48 285
48 286
48 291
48 292
48 319
48 320
48 321
48 323
48 324
48 325
48 326
48 327
48 328
48 329
48 330
48 331
48 332
48 333
48 336
48 337
48 338
48 339
48 341
48 342
48 343
48 344
48 345
48 346
48 347
48 348
48 349
48 350
48 351
48 358
48 359
48 360
48 362
48 363
48 364
48 365
48 374
48 375
48 376
48 378
48 379
48 380
48 381
48 382
48 383
48 385
48 386
48 387
48 388
48 389
48 390
48 391
48 392
48 393
48 398
48 404
48 405
48 407
48 408
48 409
48 410
48 411
48 412
48 413
48 415
48 416
48 417
48 418
48 419
48 420
48 421
48 436
48 437
48 439
48 440
48 441
48 442
48 448
48 463
48 464
48 465
48 467
48 468
48 469
48 470
48 471
49 50
49 52
49 53
49 57
49 59
49 60
49 70
49 71
49 72
49 73
49 75
49 76
49 77
49 78
49 79
49 80
49 81
49 82
49 83
49 85
49 86
49 87
49 88
49 89
49 90
49 91
49 92
49 93
49 95
49 112
49 113
49 114
49 115
49 117
49 118
49 119
49 120
49 121
49 144
49 145
49 146
49 147
49 149
49 150
49 151
49 152
49 153
49 154
49 156
49 158
49 174
49 181
49 182
49 183
49 184
49 185
49 187
49 188
49 189
49 190
49 191
49 192
49 193
49 194
49 196
49 197
49 198
49 199
49 201
49 202
49 203
49 204
49 216
49 260
49 261
49 262
49 264
49 265
49 266
49 267
49 270
49 274
49 277
49 287
49 288
49 289
49 290
49 292
49 319
49 322
49 332
49 333
49 334
49 335
49 337
49 339
49 340
49 350
49 351
49 358
49 360
49 361
49 365
49 374
49 375
49 376
49 377
49 381
49 382
49 383
49 384
49 394
49 395
49 396
49 397
49 399
49 400
49 401
49 402
49 403
49 404
49 405
49 406
49 408
49 409
49 410
49 411
49 412
49 413
49 414
49 416
49 417
49 418
49 419
49 420
49 421
49 438
49 442
49 443
49 444
49 445
49 446
49 447
49 449
49 450
49 451
49 452
49 453
49 454
49 463
49 464
49 465
49 466
49 468
49 469
49 470
49 471
50 51
50 52
50 53
50 54
50 55
50 56
50 59
50 60
50 71
50 74
50 81
50 84
50 90
50 91
50 92
50 93
50 94
50 112
50 113
50 116
50 144
50 145
50 146
50 147
50 148
50 150
50 151
50 152
50 153
50 154
50 155
50 158
50 173
50 174
50 175
50 176
50 177
50 178
50 179
50 180
50 186
50 192
50 193
50 194
50 195
50 198
50 199
50 200
50 205
50 206
50 207
50 208
50 209
50 210
50 211
50 212
50 213
50 214
50 215
50 260
50 261
50 262
50 263
50 268
50 269
50 270
50 271
50 272
50 273
50 277
50 287
50 288
50 289
50 290
50 291
50 309
50 310
50 311
50 312
50 313
50 314
50 315
50 316
50 317
50 318
50 322
50 332
50 333
50 334
50 335
50 336
50 339
50 340
50 350
50 351
50 352
50 353
50 354
50 355
50 356
50 357
50 359
50 360
50 361
50 362
50 363
50 364
50 366
50 367
50 368
50 369
50 370
50 371
50 372
50 373
50 375
50 376
50 377
50 378
50 379
50 380
50 382
50 383
50 384
50 398
50 406
50 407
50 414
50 415
50 420
50 421
50 436
50 437
50 438
50 439
50 440
50 441
50 448
50 455
50 456
50 457
50 458
50 459
50 460
50 461
50 462
50 465
50 466
50 467
51 52
51 53
51 54
51 55
51 56
51 57
51 60
51 63
51 71
51 72
51 73
51 74
51 75
51 76
51 77
51 78
51 79
51 91
51 92
51 93
51 94
51 95
51 113
51 123
51 125
51 132
51 145
51 146
51 147
51 148
51 149
51 156
51 158
51 159
51 160
51 161
51 162
51 163
51 164
51 165
51 166
51 167
51 168
51 169
51 170
51 171
51 172
51 181
51 193
51 194
51 195
51 196
51 199
51 206
51 208
51 215
51 216
51 261
51 262
51 270
51 273
51 274
51 277
51 280
51 292
51 294
51 295
51 296
51 297
51 298
51 299
51 300
51 301
51 302
51 303
51 304
51 305
51 306
51 307
51 308
51 319
51 321
51 322
51 323
51 324
51 325
51 326
51 327
51 328
51 329
51 330
51 331
51 333
51 337
51 339
51 340
51 341
51 342
51 343
51 344
51 345
51 346
51 347
51 348
51 349
51 351
51 355
51 358
51 361
51 364
51 365
51 374
51 376
51 377
51 379
51 380
51 381
51 383
51 384
51 386
51 387
51 395
51 396
51 397
51 398
51 399
51 400
51 401
51 402
51 403
51 406
51 413
51 414
51 415
51 416
51 417
51 418
51 419
51 421
51 425
51 437
51 438
51 439
51 440
51 441
51 442
51 456
51 457
51 458
51 459
51 460
51 461
51 462
51 463
51 465
51 466
51 467
51 468
51 469
51 470
51 471
52 53
52 54
52 55
52 56
52 57
52 60
52 63
52 70
52 72
52 73
52 74
52 75
52 76
52 77
52 78
52 79
52 90
52 95
52 112
52 114
52 115
52 116
52 117
52 118
52 119
52 120
52 121
52 123
52 125
52 132
52 144
52 146
52 147
52 148
52 149
52 156
52 157
52 159
52 160
52 161
52 162
52 163
52 164
52 165
52 166
52 167
52 168
52 169
52 170
52 171
52 172
52 181
52 192
52 194
52 195
52 196
52 199
52 206
52 208
52 215
52 216
52 260
52 262
52 263
52 264
52 265
52 266
52 267
52 270
52 273
52 274
52 277
52 280
52 292
52 293
52 297
52 319
52 320
52 322
52 323
52 325
52 332
52 334
52 335
52 336
52 337
52 338
52 340
52 341
52 342
52 343
52 344
52 345
52 346
52 347
52 348
52 349
52 350
52 352
52 353
52 354
52 355
52 356
52 357
52 358
52 361
52 364
52 365
52 374
52 375
52 377
52 378
52 379
52 380
52 381
52 382
52 384
52 385
52 386
52 387
52 388
52 389
52 390
52 391
52 392
52 393
52 394
52 406
52 412
52 414
52 420
52 422
52 423
52 424
52 425
52 426
52 427
52 428
52 429
52 430
52 431
52 432
52 433
52 434
52 435
52 436
52 438
52 439
52 441
52 442
52 455
52 459
52 463
52 464
52 466
52 467
52 468
52 469
52 470
52 471
53 54
53 55
53 56
53 57
53 58
53 59
53 61
53 62
53 63
53 64
53 65
53 66
53 67
53 68
53 69
53 70
53 71
53 90
53 95
53 113
53 123
53 125
53 132
53 144
53 145
53 149
53 156
53 157
53 158
53 161
53 162
53 181
53 192
53 193
53 195
53 196
53 197
53 198
53 200
53 201
53 202
53 203
53 204
53 206
53 208
53 215
53 216
53 260
53 261
53 263
53 264
53 265
53 266
53 267
53 268
53 269
53 271
53 272
53 273
53 274
53 275
53 276
53 278
53 279
53 280
53 281
53 282
53 283
53 284
53 285
53 286
53 292
53 293
53 297
53 319
53 320
53 321
53 323
53 324
53 325
53 326
53 327
53 328
53 329
53 330
53 331
53 333
53 337
53 338
53 339
53 341
53 342
53 343
53 344
53 345
53 346
53 347
53 348
53 349
53 351
53 355
53 358
53 359
53 360
53 362
53 363
53 364
53 365
53 374
53 375
53 376
53 378
53 379
53 380
53 381
53 382
53 383
53 385
53 386
53 387
53 388
53 389
53 390
53 391
53 392
53 393
53 394
53 404
53 405
53 407
53 408
53 409
53 410
53 411
53 412
53 413
53 415
53 416
53 417
53 418
53 419
53 421
53 425
53 436
53 437
53 439
53 440
53 441
53 442
53 455
53 459
53 463
53 464
53 465
53 467
53 468
53 469
53 470
53 471
54 55
54 56
54 57
54 60
54 63
54 70
54 71
54 90
54 95
54 113
54 122
54 124
54 125
54 126
54 127
54 128
54 129
54 130
54 131
54 132
54 133
54 134
54 135
54 136
54 137
54 138
54 139
54 140
54 141
54 142
54 143
54 144
54 145
54 149
54 156
54 157
54 158
54 159
54 160
54 162
54 163
54 164
54 165
54 166
54 167
54 168
54 169
54 170
54 171
54 172
54 181
54 192
54 193
54 194
54 196
54 199
54 205
54 207
54 208
54 209
54 210
54 211
54 212
54 213
54 214
54 215
54 216
54 261
54 262
54 270
54 273
54 274
54 277
54 280
54 292
54 293
54 294
54 295
54 296
54 298
54 299
54 300
54 301
54 302
54 303
54 304
54 305
54 306
54 307
54 308
54 319
54 320
54 321
54 322
54 324
54 325
54 326
54 327
54 328
54 329
54 330
54 331
54 333
54 337
54 338
54 339
54 340
54 342
54 343
54 344
54 345
54 346
54 347
54 348
54 349
54 351
54 355
54 358
54 361
54 364
54 365
54 374
54 376
54 377
54 379
54 380
54 381
54 383
54 384
54 386
54 387
54 394
54 406
54 412
54 414
54 421
54 425
54 436
54 437
54 438
54 440
54 441
54 442
54 455
54 456
54 457
54 458
54 460
54 461
54 462
54 463
54 464
54 465
54 466
55 56
55 57
55 60
55 63
55 70
55 71
55 90
55 95
55 113
55 122
55 123
55 124
55 126
55 127
55 128
55 129
55 130
55 131
55 132
55 133
55 134
55 135
55 136
55 137
55 138
55 139
55 140
55 141
55 142
55 143
55 144
55 145
55 149
55 156
55 157
55 158
55 159
55 160
55 161
55 163
55 164
55 165
55 166
55 167
55 168
55 169
55 170
55 171
55 172
55 181
55 192
55 193
55 194
55 196
55 199
55 205
55 206
55 207
55 209
55 210
55 211
55 212
55 213
55 214
55 215
55 216
55 261
55 262
55 270
55 273
55 274
55 277
55 280
55 292
55 293
55 297
55 319
55 320
55 322
55 323
55 325
55 333
55 337
55 338
55 339
55 340
55 341
55 343
55 344
55 345
55 346
55 347
55 348
55 349
55 350
55 351
55 352
55 353
55 354
55 356
55 357
55 358
55 361
55 364
55 365
55 374
55 375
55 376
55 377
55 378
55 380
55 381
55 382
55 383
55 384
55 385
55 387
55 388
55 389
55 390
55 391
55 392
55 393
55 394
55 406
55 412
55 414
55 420
55 421
55 422
55 423
55 424
55 426
55 427
55 428
55 429
55 430
55 431
55 432
55 433
55 434
55 435
55 436
55 438
55 439
55 441
55 442
55 455
55 459
55 463
55 464
55 465
55 466
56 57
56 58
56 59
56 60
56 61
56 62
56 64
56 65
56 66
56 67
56 68
56 69
56 70
56 71
56 90
56 95
56 113
56 122
56 123
56 124
56 125
56 126
56 127
56 128
56 129
56 130
56 131
56 133
56 134
56 135
56 136
56 137
56 138
56 139
56 140
56 141
56 142
56 143
56 144
56 145
56 149
56 156
56 157
56 158
56 161
56 162
56 181
56 192
56 193
56 194
56 196
56 199
56 205
56 206
56 207
56 208
56 209
56 210
56 211
56 212
56 213
56 214
56 216
56 261
56 262
56 268
56 269
56 270
56 271
56 272
56 274
56 275
56 276
56 277
56 278
56 279
56 281
56 282
56 283
56 284
56 285
56 286
56 292
56 293
56 297
56 319
56 320
56 321
56 322
56 323
56 324
56 326
56 327
56 328
56 329
56 330
56 331
56 333
56 337
56 338
56 339
56 340
56 341
56 342
56 344
56 345
56 346
56 347
56 348
56 349
56 351
56 355
56 358
56 359
56 360
56 361
56 362
56 363
56 365
56 374
56 375
56 376
56 377
56 378
56 379
56 381
56 382
56 383
56 384
56 385
56 386
56 388
56 389
56 390
56 391
56 392
56 393
56 394
56 406
56 412
56 414
56 421
56 425
56 436
56 437
56 438
56 439
56 440
56 442
56 455
56 459
56 463
56 464
56 465
56 466
57 60
57 63
57 70
57 71
57 90
57 91
57 92
57 93
57 94
57 113
57 123
57 125
57 132
57 144
57 145
57 146
57 147
57 148
57 150
57 151
57 152
57 153
57 154
57 155
57 157
57 158
57 161
57 162
57 173
57 174
57 175
57 176
57 177
57 178
57 179
57 180
57 192
57 193
57 194
57 195
57 199
57 205
57 206
57 207
57 208
57 209
57 210
57 211
57 212
57 213
57 214
57 215
57 261
57 262
57 268
57 269
57 270
57 271
57 272
57 273
57 277
57 280
57 287
57 288
57 289
57 290
57 291
57 293
57 297
57 309
57 310
57 311
57 312
57 313
57 314
57 315
57 316
57 317
57 318
57 320
57 322
57 323
57 325
57 332
57 333
57 334
57 335
57 336
57 338
57 339
57 340
57 341
57 342
57 343
57 350
57 351
57 352
57 353
57 354
57 355
57 356
57 357
57 359
57 360
57 361
57 362
57 363
57 364
57 366
57 367
57 368
57 369
57 370
57 371
57 372
57 373
57 375
57 376
57 377
57 378
57 379
57 380
57 383
57 384
57 386
57 387
57 394
57 406
57 412
57 414
57 421
57 425
57 436
57 437
57 438
57 439
57 440
57 441
57 455
57 456
57 457
57 458
57 459
57 460
57 461
57 462
57 464
57 465
57 466
58 59
58 60
58 61
58 62
58 63
58 64
58 65
58 66
58 67
58 68
58 69
58 81
58 82
58 83
58 84
58 85
58 86
58 87
58 88
58 89
58 97
58 98
58 99
58 100
58 101
58 102
58 103
58 104
58 105
58 106
58 107
58 108
58 109
58 110
58 111
58 112
58 117
58 122
58 124
58 132
58 133
58 135
58 143
58 174
58 175
58 176
58 177
58 178
58 179
58 180
58 181
58 183
58 184
58 185
58 186
58 187
58 188
58 189
58 190
58 191
58 194
58 198
58 199
58 200
58 201
58 202
58 203
58 204
58 205
58 207
58 215
58 217
58 219
58 227
58 228
58 230
58 238
58 260
58 262
58 264
58 266
58 269
58 270
58 271
58 272
58 273
58 274
58 276
58 277
58 278
58 279
58 280
58 281
58 282
58 283
58 284
58 285
58 286
58 288
58 289
58 290
58 291
58 292
58 322
58 325
58 328
58 331
58 332
58 340
58 343
58 346
58 349
58 350
58 354
58 360
58 361
58 362
58 363
58 364
58 365
58 367
58 368
58 369
58 370
58 371
58 372
58 373
58 374
58 375
58 377
58 378
58 380
58 382
58 384
58 385
58 387
58 388
58 390
58 391
58 393
58 405
58 406
58 407
58 408
58 409
58 410
58 411
58 414
58 418
58 420
58 424
58 428
58 432
58 438
58 441
58 466
58 470
59 60
59 61
59 62
59 63
59 64
59 65
59 66
59 67
59 68
59 69
59 80
59 82
59 83
59 84
59 85
59 86
59 87
59 88
59 89
59 96
59 100
59 104
59 108
59 113
59 114
59 115
59 116
59 117
59 118
59 119
59 120
59 121
59 122
59 124
59 132
59 133
59 135
59 143
59 173
59 175
59 176
59 177
59 178
59 179
59 180
59 181
59 182
59 187
59 194
59 197
59 199
59 200
59 201
59 202
59 203
59 204
59 205
59 207
59 215
59 217
59 219
59 227
59 228
59 230
59 238
59 261
59 262
59 263
59 264
59 265
59 266
59 267
59 268
59 270
59 271
59 273
59 275
59 277
59 278
59 280
59 281
59 283
59 284
59 286
59 287
59 322
59 325
59 328
59 331
59 333
59 334
59 335
59 336
59 337
59 340
59 343
59 346
59 349
59 351
59 352
59 353
59 354
59 355
59 356
59 357
59 358
59 359
59 361
59 362
59 363
59 364
59 365
59 366
59 370
59 376
59 377
59 378
59 379
59 380
59 381
59 383
59 384
59 385
59 386
59 387
59 388
59 389
59 390
59 391
59 392
59 393
59 404
59 406
59 408
59 410
59 414
59 418
59 421
59 422
59 423
59 424
59 425
59 426
59 427
59 428
59 429
59 430
59 431
59 432
59 433
59 434
59 435
59 438
59 441
59 466
59 470
60 61
60 62
60 63
60 64
60 65
60 66
60 67
60 68
60 69
60 80
60 81
60 85
60 86
60 96
60 100
60 104
60 108
60 112
60 117
60 122
60 124
60 132
60 133
60 135
60 143
60 173
60 174
60 177
60 178
60 182
60 187
60 192
60 193
60 195
60 196
60 197
60 198
60 200
60 201
60 202
60 203
60 204
60 205
60 207
60 215
60 217
60 219
60 227
60 228
60 230
60 238
60 260
60 261
60 263
60 264
60 265
60 266
60 267
60 268
60 269
60 271
60 272
60 273
60 274
60 275
60 276
60 278
60 279
60 280
60 281
60 282
60 283
60 284
60 285
60 286
60 287
60 320
60 321
60 323
60 324
60 325
60 326
60 327
60 328
60 329
60 330
60 331
60 332
60 338
60 339
60 341
60 342
60 343
60 344
60 345
60 346
60 347
60 348
60 349
60 350
60 354
60 359
60 360
60 362
60 363
60 364
60 365
60 366
60 370
60 375
60 376
60 378
60 379
60 380
60 381
60 382
60 383
60 385
60 386
60 387
60 388
60 389
60 390
60 391
60 392
60 393
60 404
60 405
60 407
60 408
60 409
60 410
60 411
60 412
60 413
60 415
60 416
60 417
60 418
60 419
60 420
60 424
60 428
60 432
60 436
60 437
60 439
60 440
60 441
60 442
60 464
60 465
60 467
60 468
60 469
60 470
60 471
61 62
61 63
61 64
61 65
61 66
61 67
61 68
61 69
61 80
61 81
61 85
61 86
61 96
61 97
61 98
61 99
61 101
61 102
61 103
61 104
61 105
61 106
61 107
61 108
61 109
61 110
61 111
61 112
61 117
61 123
61 124
61 125
61 126
61 127
61 128
61 129
61 130
61 131
61 132
61 133
61 134
61 135
61 136
61 137
61 138
61 139
61 140
61 141
61 142
61 143
61 173
61 174
61 175
61 176
61 178
61 179
61 180
61 181
61 182
61 187
61 194
61 197
61 198
61 199
61 201
61 202
61 203
61 206
61 207
61 208
61 209
61 210
61 211
61 212
61 213
61 214
61 215
61 216
61 217
61 219
61 227
61 228
61 230
61 238
61 260
61 262
61 264
61 266
61 268
61 269
61 270
61 272
61 273
61 274
61 275
61 276
61 277
61 279
61 280
61 281
61 282
61 283
61 284
61 285
61 286
61 287
61 322
61 325
61 328
61 331
61 332
61 340
61 343
61 346
61 349
61 350
61 354
61 359
61 360
61 361
61 363
61 364
61 365
61 366
61 367
61 368
61 369
61 371
61 372
61 373
61 374
61 375
61 377
61 378
61 380
61 382
61 384
61 385
61 387
61 388
61 390
61 391
61 393
61 404
61 406
61 408
61 410
61 414
61 418
61 420
61 424
61 428
61 432
61 438
61 441
61 466
61 470
62 63
62 64
62 65
62 66
62 67
62 68
62 69
62 80
62 81
62 85
62 86
62 96
62 100
62 104
62 108
62 112
62 117
62 122
62 123
62 125
62 126
62 127
62 128
62 129
62 130
62 131
62 132
62 133
62 134
62 135
62 136
62 137
62 138
62 139
62 140
62 141
62 142
62 143
62 173
62 174
62 175
62 176
62 177
62 179
62 180
62 181
62 182
62 187
62 194
62 197
62 198
62 199
62 201
62 202
62 203
62 205
62 206
62 208
62 209
62 210
62 211
62 212
62 213
62 214
62 215
62 216
62 217
62 219
62 227
62 228
62 230
62 238
62 260
62 262
62 264
62 266
62 268
62 270
62 271
62 273
62 275
62 277
62 278
62 280
62 281
62 283
62 284
62 286
62 287
62 322
62 325
62 328
62 331
62 332
62 340
62 343
62 346
62 349
62 350
62 351
62 352
62 353
62 355
62 356
62 357
62 358
62 359
62 360
62 361
62 362
62 364
62 365
62 366
62 370
62 375
62 376
62 377
62 379
62 380
62 381
62 382
62 383
62 384
62 386
62 387
62 388
62 389
62 390
62 391
62 392
62 393
62 404
62 406
62 408
62 410
62 414
62 418
62 420
62 421
62 422
62 423
62 425
62 426
62 427
62 428
62 429
62 430
62 431
62 432
62 433
62 434
62 435
62 438
62 441
62 466
62 470
63 64
63 65
63 66
63 67
63 68
63 69
63 80
63 81
63 85
63 86
63 96
63 100
63 104
63 108
63 112
63 117
63 122
63 123
63 124
63 125
63 126
63 127
63 128
63 129
63 130
63 131
63 133
63 134
63 135
63 136
63 137
63 138
63 139
63 140
63 141
63 142
63 143
63 173
63 174
63 177
63 178
63 182
63 187
63 194
63 197
63 198
63 199
63 201
63 202
63 203
63 205
63 206
63 207
63 208
63 209
63 210
63 211
63 212
63 213
63 214
63 216
63 217
63 219
63 227
63 228
63 230
63 238
63 260
63 262
63 264
63 266
63 268
63 269
63 270
63 271
63 272
63 274
63 275
63 276
63 277
63 278
63 279
63 281
63 282
63 283
63 284
63 285
63 286
63 287
63 320
63 321
63 322
63 323
63 324
63 326
63 327
63 328
63 329
63 330
63 331
63 332
63 338
63 339
63 340
63 341
63 342
63 344
63 345
63 346
63 347
63 348
63 349
63 350
63 354
63 359
63 360
63 361
63 362
63 363
63 365
63 366
63 370
63 375
63 376
63 377
63 378
63 379
63 381
63 382
63 383
63 384
63 385
63 386
63 388
63 389
63 390
63 391
63 392
63 393
63 404
63 406
63 408
63 410
63 414
63 418
63 420
63 424
63 428
63 432
63 436
63 437
63 438
63 439
63 440
63 442
63 466
63 470
64 65
64 66
64 67
64 68
64 69
64 80
64 81
64 82
64 83
64 84
64 86
64 87
64 88
64 89
64 96
64 97
64 98
64 99
64 100
64 101
64 102
64 103
64 105
64 106
64 107
64 108
64 109
64 110
64 111
64 112
64 117
64 122
64 124
64 132
64 133
64 135
64 143
64 173
64 174
64 177
64 178
64 182
64 183
64 184
64 185
64 186
64 188
64 189
64 190
64 191
64 194
64 197
64 198
64 199
64 200
64 202
64 203
64 204
64 205
64 207
64 215
64 218
64 219
64 220
64 221
64 222
64 223
64 224
64 225
64 226
64 227
64 228
64 229
64 230
64 231
64 232
64 233
64 234
64 235
64 236
64 237
64 238
64 239
64 260
64 262
64 264
64 266
64 268
64 270
64 271
64 273
64 275
64 276
64 277
64 278
64 279
64 280
64 282
64 283
64 284
64 285
64 286
64 287
64 322
64 325
64 328
64 331
64 332
64 340
64 343
64 346
64 349
64 350
64 354
64 359
64 360
64 361
64 362
64 363
64 364
64 366
64 370
64 375
64 377
64 378
64 380
64 382
64 384
64 385
64 387
64 388
64 390
64 391
64 393
64 404
64 405
64 406
64 407
64 409
64 410
64 411
64 414
64 418
64 420
64 424
64 428
64 432
64 438
64 441
64 466
64 470
65 66
65 67
65 68
65 69
65 80
65 81
65 82
65 83
65 84
65 85
65 87
65 88
65 89
65 96
65 100
65 104
65 108
65 112
65 113
65 114
65 115
65 116
65 118
65 119
65 120
65 121
65 122
65 124
65 132
65 133
65 135
65 143
65 173
65 174
65 177
65 178
65 182
65 187
65 194
65 197
65 198
65 199
65 200
65 201
65 203
65 204
65 205
65 207
65 215
65 217
65 218
65 220
65 221
65 222
65 223
65 224
65 225
65 226
65 227
65 228
65 229
65 230
65 231
65 232
65 233
65 234
65 235
65 236
65 237
65 238
65 239
65 260
65 261
65 262
65 263
65 265
65 266
65 267
65 268
65 270
65 271
65 273
65 275
65 277
65 278
65 280
65 281
65 283
65 284
65 286
65 287
65 322
65 325
65 328
65 331
65 332
65 340
65 343
65 346
65 349
65 350
65 354
65 359
65 360
65 361
65 362
65 363
65 364
65 366
65 370
65 375
65 377
65 378
65 380
65 382
65 383
65 384
65 385
65 386
65 387
65 389
65 390
65 391
65 392
65 393
65 404
65 406
65 408
65 410
65 414
65 418
65 420
65 421
65 422
65 423
65 424
65 425
65 426
65 427
65 429
65 430
65 431
65 432
65 433
65 434
65 435
65 438
65 441
65 466
65 470
66 67
66 68
66 69
66 80
66 81
66 85
66 86
66 96
66 100
66 104
66 108
66 112
66 117
66 122
66 124
66 132
66 133
66 135
66 143
66 173
66 174
66 177
66 178
66 182
66 187
66 194
66 197
66 198
66 199
66 200
66 201
66 202
66 204
66 205
66 207
66 215
66 217
66 218
66 219
66 220
66 221
66 222
66 223
66 224
66 225
66 226
66 228
66 229
66 230
66 231
66 232
66 233
66 234
66 235
66 236
66 237
66 238
66 239
66 260
66 261
66 262
66 263
66 264
66 265
66 267
66 268
66 270
66 271
66 273
66 275
66 276
66 277
66 278
66 279
66 280
66 281
66 282
66 284
66 285
66 286
66 287
66 320
66 321
66 322
66 323
66 324
66 325
66 326
66 327
66 329
66 330
66 331
66 332
66 338
66 339
66 340
66 341
66 342
66 343
66 344
66 345
66 347
66 348
66 349
66 350
66 354
66 359
66 360
66 361
66 362
66 363
66 364
66 366
66 370
66 375
66 377
66 378
66 380
66 382
66 383
66 384
66 385
66 386
66 387
66 388
66 389
66 391
66 392
66 393
66 404
66 405
66 406
66 407
66 408
66 409
66 411
66 412
66 413
66 414
66 415
66 416
66 417
66 419
66 420
66 424
66 428
66 432
66 438
66 441
66 464
66 465
66 466
66 467
66 468
66 469
66 471
67 68
67 69
67 80
67 81
67 85
67 86
67 96
67 97
67 98
67 99
67 100
67 101
67 102
67 103
67 104
67 105
67 106
67 107
67 109
67 110
67 111
67 112
67 117
67 122
67 123
67 124
67 125
67 126
67 127
67 128
67 129
67 130
67 131
67 132
67 134
67 135
67 136
67 137
67 138
67 139
67 140
67 141
67 142
67 143
67 173
67 174
67 177
67 178
67 182
67 187
67 194
67 197
67 198
67 199
67 201
67 202
67 203
67 205
67 207
67 215
67 217
67 218
67 219
67 220
67 221
67 222
67 223
67 224
67 225
67 226
67 227
67 229
67 230
67 231
67 232
67 233
67 234
67 235
67 236
67 237
67 238
67 239
67 260
67 262
67 264
67 266
67 268
67 270
67 271
67 273
67 275
67 276
67 277
67 278
67 279
67 280
67 281
67 282
67 283
67 285
67 286
67 287
67 322
67 325
67 328
67 331
67 332
67 340
67 343
67 346
67 349
67 350
67 354
67 359
67 360
67 361
67 362
67 363
67 364
67 366
67 370
67 375
67 377
67 378
67 380
67 382
67 384
67 385
67 387
67 388
67 390
67 391
67 393
67 404
67 406
67 408
67 410
67 414
67 418
67 420
67 424
67 428
67 432
67 438
67 441
67 466
67 470
68 69
68 80
68 81
68 85
68 86
68 96
68 100
68 104
68 108
68 112
68 117
68 122
68 123
68 124
68 125
68 126
68 127
68 128
68 129
68 130
68 131
68 132
68 133
68 134
68 136
68 137
68 138
68 139
68 140
68 141
68 142
68 143
68 173
68 174
68 177
68 178
68 182
68 187
68 194
68 197
68 198
68 199
68 201
68 202
68 203
68 205
68 207
68 215
68 217
68 218
68 219
68 220
68 221
68 222
68 223
68 224
68 225
68 226
68 227
68 228
68 229
68 231
68 232
68 233
68 234
68 235
68 236
68 237
68 238
68 239
68 260
68 262
68 264
68 266
68 268
68 270
68 271
68 273
68 275
68 277
68 278
68 280
68 281
68 283
68 284
68 286
68 287
68 322
68 325
68 328
68 331
68 332
68 340
68 343
68 346
68 349
68 350
68 354
68 359
68 360
68 361
68 362
68 363
68 364
68 366
68 370
68 375
68 377
68 378
68 380
68 382
68 383
68 384
68 385
68 386
68 387
68 388
68 389
68 390
68 392
68 393
68 404
68 406
68 408
68 410
68 414
68 418
68 420
68 421
68 422
68 423
68 424
68 425
68 426
68 427
68 428
68 429
68 430
68 431
68 433
68 434
68 435
68 438
68 441
68 466
68 470
69 80
69 81
69 85
69 86
69 96
69 100
69 104
69 108
69 112
69 117
69 122
69 123
69 124
69 125
69 126
69 127
69 128
69 129
69 130
69 131
69 132
69 133
69 134
69 135
69 136
69 137
69 138
69 139
69 140
69 141
69 142
69 173
69 174
69 177
69 178
69 182
69 187
69 194
69 197
69 198
69 199
69 201
69 202
69 203
69 205
69 207
69 215
69 217
69 218
69 219
69 220
69 221
69 222
69 223
69 224
69 225
69 226
69 227
69 228
69 229
69 230
69 231
69 232
69 233
69 234
69 235
69 236
69 237
69 239
69 260
69 262
69 264
69 266
69 268
69 270
69 271
69 273
69 275
69 276
69 277
69 278
69 279
69 280
69 281
69 282
69 283
69 284
69 285
69 287
69 320
69 321
69 322
69 323
69 324
69 325
69 326
69 327
69 328
69 329
69 330
69 332
69 338
69 339
69 340
69 341
69 342
69 343
69 344
69 345
69 346
69 347
69 348
69 350
69 354
69 359
69 360
69 361
69 362
69 363
69 364
69 366
69 370
69 375
69 377
69 378
69 380
69 382
69 383
69 384
69 385
69 386
69 387
69 388
69 389
69 390
69 391
69 392
69 404
69 406
69 408
69 410
69 414
69 418
69 420
69 424
69 428
69 432
69 438
69 441
69 466
69 470
70 71
70 72
70 73
70 74
70 75
70 76
70 77
70 78
70 79
70 84
70 89
70 91
70 92
70 93
70 94
70 95
70 113
70 115
70 116
70 118
70 120
70 121
70 145
70 146
70 147
70 148
70 149
70 151
70 153
70 155
70 158
70 159
70 160
70 161
70 162
70 163
70 164
70 165
70 166
70 167
70 168
70 169
70 170
70 171
70 172
70 186
70 191
70 193
70 194
70 195
70 196
70 200
70 204
70 218
70 220
70 223
70 225
70 239
70 241
70 243
70 251
70 253
70 261
70 263
70 265
70 267
70 291
70 294
70 295
70 296
70 297
70 298
70 299
70 300
70 301
70 302
70 303
70 304
70 305
70 306
70 307
70 308
70 310
70 312
70 321
70 322
70 323
70 324
70 325
70 326
70 327
70 328
70 329
70 330
70 331
70 333
70 335
70 336
70 339
70 340
70 341
70 342
70 343
70 344
70 345
70 346
70 347
70 348
70 349
70 351
70 353
70 376
70 383
70 389
70 395
70 396
70 397
70 398
70 399
70 400
70 401
70 402
70 403
70 407
70 411
70 413
70 414
70 415
70 416
70 417
70 418
70 419
70 421
70 423
70 429
70 431
70 437
70 438
70 439
70 440
70 441
70 442
70 444
70 446
70 448
70 450
70 452
70 454
70 456
70 457
70 458
70 459
70 460
70 461
70 462
70 463
70 465
70 466
70 467
70 468
70 469
70 470
70 471
71 72
71 73
71 74
71 75
71 76
71 77
71 78
71 79
71 84
71 89
71 90
71 92
71 94
71 112
71 114
71 115
71 116
71 117
71 118
71 119
71 120
71 121
71 144
71 146
71 147
71 148
71 149
71 151
71 153
71 155
71 157
71 159
71 160
71 161
71 162
71 163
71 164
71 165
71 166
71 167
71 168
71 169
71 170
71 171
71 172
71 186
71 191
71 192
71 194
71 195
71 196
71 200
71 204
71 218
71 220
71 223
71 225
71 239
71 241
71 243
71 251
71 253
71 260
71 262
71 263
71 264
71 265
71 266
71 267
71 291
71 293
71 295
71 301
71 303
71 310
71 312
71 320
71 326
71 332
71 334
71 335
71 336
71 337
71 338
71 340
71 341
71 342
71 343
71 344
71 345
71 346
71 347
71 348
71 349
71 350
71 352
71 353
71 354
71 355
71 356
71 357
71 358
71 375
71 377
71 378
71 379
71 380
71 381
71 382
71 384
71 385
71 386
71 387
71 388
71 389
71 390
71 391
71 392
71 393
71 394
71 396
71 398
71 399
71 401
71 403
71 407
71 411
71 412
71 415
71 416
71 419
71 420
71 422
71 423
71 424
71 425
71 426
71 427
71 428
71 429
71 430
71 431
71 432
71 433
71 434
71 435
71 436
71 444
71 446
71 448
71 450
71 452
71 454
71 455
71 457
71 464
71 466
71 467
71 468
71 469
71 470
71 471
72 73
72 74
72 75
72 76
72 77
72 78
72 79
72 84
72 89
72 90
72 91
72 93
72 94
72 95
72 113
72 115
72 116
72 118
72 120
72 121
72 144
72 145
72 147
72 148
72 149
72 150
72 152
72 153
72 154
72 155
72 156
72 157
72 158
72 160
72 161
72 162
72 163
72 164
72 165
72 166
72 167
72 168
72 169
72 170
72 171
72 172
72 186
72 191
72 192
72 193
72 195
72 200
72 204
72 218
72 220
72 223
72 225
72 239
72 240
72 242
72 243
72 244
72 245
72 246
72 247
72 248
72 249
72 250
72 251
72 252
72 253
72 254
72 255
72 256
72 257
72 258
72 259
72 261
72 263
72 265
72 267
72 291
72 293
72 294
72 296
72 297
72 298
72 299
72 300
72 301
72 302
72 303
72 304
72 305
72 306
72 307
72 308
72 309
72 311
72 312
72 313
72 314
72 315
72 316
72 317
72 318
72 319
72 320
72 326
72 333
72 335
72 336
72 338
72 339
72 344
72 345
72 351
72 353
72 376
72 383
72 389
72 394
72 395
72 397
72 398
72 399
72 400
72 401
72 402
72 403
72 407
72 411
72 412
72 415
72 416
72 419
72 421
72 423
72 429
72 431
72 436
72 443
72 445
72 446
72 447
72 448
72 449
72 450
72 451
72 452
72 453
72 454
72 455
72 456
72 458
72 459
72 460
72 461
72 462
72 463
72 464
72 465
72 467
72 468
72 469
72 471
73 74
73 75
73 76
73 77
73 78
73 79
73 84
73 89
73 90
73 92
73 94
73 112
73 113
73 114
73 116
73 117
73 118
73 119
73 120
73 121
73 144
73 145
73 146
73 148
73 149
73 150
73 151
73 152
73 154
73 155
73 156
73 157
73 158
73 159
73 161
73 162
73 163
73 164
73 165
73 166
73 167
73 168
73 169
73 170
73 171
73 172
73 186
73 191
73 192
73 193
73 195
73 200
73 204
73 218
73 220
73 223
73 225
73 239
73 240
73 241
73 242
73 244
73 245
73 246
73 247
73 248
73 249
73 250
73 251
73 252
73 253
73 254
73 255
73 256
73 257
73 258
73 259
73 261
73 263
73 265
73 267
73 291
73 293
73 295
73 301
73 303
73 309
73 310
73 311
73 313
73 314
73 315
73 316
73 317
73 318
73 319
73 320
73 326
73 332
73 333
73 334
73 336
73 337
73 338
73 339
73 344
73 345
73 350
73 351
73 352
73 354
73 355
73 356
73 357
73 358
73 376
73 383
73 389
73 394
73 396
73 398
73 399
73 401
73 403
73 407
73 411
73 412
73 415
73 416
73 419
73 420
73 421
73 422
73 424
73 425
73 426
73 427
73 428
73 429
73 430
73 431
73 432
73 433
73 434
73 435
73 436
73 443
73 444
73 445
73 447
73 448
73 449
73 450
73 451
73 452
73 453
73 454
73 455
73 457
73 464
73 465
73 467
73 468
73 469
73 471
74 75
74 76
74 77
74 78
74 79
74 80
74 81
74 82
74 83
74 85
74 86
74 87
74 88
74 89
74 90
74 91
74 92
74 93
74 95
74 112
74 113
74 114
74 115
74 117
74 118
74 119
74 120
74 121
74 144
74 145
74 146
74 147
74 149
74 150
74 151
74 152
74 153
74 154
74 156
74 157
74 158
74 159
74 160
74 165
74 166
74 167
74 168
74 182
74 183
74 184
74 185
74 187
74 188
74 189
74 190
74 191
74 192
74 193
74 194
74 196
74 197
74 198
74 199
74 201
74 202
74 203
74 204
74 218
74 220
74 223
74 225
74 239
74 241
74 243
74 251
74 253
74 260
74 261
74 262
74 264
74 265
74 266
74 267
74 287
74 288
74 289
74 290
74 292
74 293
74 295
74 301
74 303
74 310
74 312
74 320
74 326
74 332
74 333
74 334
74 335
74 337
74 338
74 339
74 344
74 345
74 351
74 353
74 376
74 383
74 389
74 394
74 395
74 396
74 397
74 399
74 400
74 401
74 402
74 403
74 404
74 405
74 406
74 408
74 409
74 410
74 411
74 412
74 413
74 414
74 416
74 417
74 418
74 419
74 421
74 423
74 429
74 431
74 436
74 443
74 444
74 445
74 446
74 447
74 449
74 450
74 451
74 452
74 453
74 454
74 455
74 457
74 464
74 465
74 466
74 468
74 469
74 470
74 471
75 76
75 77
75 78
75 79
75 84
75 89
75 90
75 92
75 94
75 113
75 115
75 116
75 118
75 120
75 121
75 144
75 145
75 146
75 147
75 148
75 151
75 153
75 155
75 157
75 158
75 159
75 160
75 161
75 162
75 163
75 164
75 166
75 167
75 168
75 169
75 170
75 171
75 172
75 186
75 191
75 192
75 193
75 195
75 200
75 204
75 217
75 219
75 220
75 221
75 222
75 223
75 224
75 225
75 226
75 227
75 228
75 229
75 230
75 231
75 232
75 233
75 234
75 235
75 236
75 237
75 238
75 239
75 241
75 243
75 251
75 253
75 261
75 263
75 265
75 267
75 291
75 293
75 294
75 295
75 296
75 297
75 298
75 299
75 300
75 302
75 303
75 304
75 305
75 306
75 307
75 308
75 310
75 312
75 320
75 321
75 322
75 323
75 324
75 325
75 327
75 328
75 329
75 330
75 331
75 333
75 335
75 336
75 338
75 339
75 340
75 341
75 342
75 343
75 345
75 346
75 347
75 348
75 349
75 351
75 353
75 376
75 383
75 389
75 394
75 395
75 396
75 397
75 398
75 400
75 401
75 402
75 403
75 407
75 411
75 412
75 413
75 414
75 415
75 417
75 418
75 419
75 421
75 423
75 429
75 431
75 436
75 444
75 446
75 448
75 450
75 452
75 454
75 455
75 457
75 464
75 465
75 466
75 467
75 469
75 470
75 471
76 77
76 78
76 79
76 84
76 89
76 90
76 92
76 94
76 112
76 113
76 114
76 115
76 116
76 117
76 119
76 120
76 121
76 144
76 145
76 146
76 147
76 148
76 151
76 153
76 155
76 157
76 158
76 159
76 160
76 161
76 162
76 163
76 164
76 165
76 167
76 168
76 169
76 170
76 171
76 172
76 186
76 191
76 192
76 193
76 195
76 200
76 204
76 217
76 218
76 219
76 221
76 222
76 223
76 224
76 225
76 226
76 227
76 228
76 229
76 230
76 231
76 232
76 233
76 234
76 235
76 236
76 237
76 238
76 239
76 241
76 243
76 251
76 253
76 260
76 261
76 262
76 263
76 264
76 266
76 267
76 291
76 293
76 295
76 301
76 303
76 310
76 312
76 320
76 326
76 333
76 335
76 336
76 338
76 339
76 340
76 341
76 342
76 343
76 344
76 346
76 347
76 348
76 349
76 351
76 353
76 376
76 382
76 383
76 384
76 385
76 386
76 387
76 388
76 390
76 391
76 392
76 393
76 394
76 396
76 398
76 399
76 401
76 403
76 407
76 411
76 412
76 415
76 416
76 419
76 420
76 421
76 422
76 423
76 424
76 425
76 426
76 427
76 428
76 430
76 431
76 432
76 433
76 434
76 435
76 436
76 444
76 446
76 448
76 450
76 452
76 454
76 455
76 457
76 464
76 465
76 466
76 467
76 468
76 470
76 471
77 78
77 79
77 84
77 89
77 90
77 92
77 94
77 113
77 115
77 116
77 118
77 120
77 121
77 144
77 145
77 146
77 147
77 148
77 151
77 153
77 155
77 157
77 158
77 159
77 160
77 161
77 162
77 163
77 164
77 165
77 166
77 168
77 169
77 170
77 171
77 172
77 186
77 191
77 192
77 193
77 195
77 200
77 204
77 217
77 218
77 219
77 220
77 221
77 222
77 224
77 225
77 226
77 227
77 228
77 229
77 230
77 231
77 232
77 233
77 234
77 235
77 236
77 237
77 238
77 239
77 240
77 241
77 242
77 243
77 244
77 245
77 246
77 247
77 248
77 249
77 250
77 252
77 253
77 254
77 255
77 256
77 257
77 258
77 259
77 261
77 263
77 265
77 267
77 291
77 293
77 294
77 295
77 296
77 297
77 298
77 299
77 300
77 301
77 302
77 304
77 305
77 306
77 307
77 308
77 310
77 312
77 320
77 326
77 333
77 335
77 336
77 338
77 339
77 344
77 345
77 351
77 353
77 376
77 383
77 389
77 394
77 395
77 396
77 397
77 398
77 399
77 400
77 402
77 403
77 407
77 411
77 412
77 415
77 416
77 419
77 421
77 423
77 429
77 431
77 436
77 443
77 444
77 445
77 446
77 447
77 448
77 449
77 451
77 452
77 453
77 454
77 455
77 457
77 464
77 465
77 467
77 468
77 469
77 471
78 79
78 84
78 89
78 90
78 92
78 94
78 112
78 113
78 114
78 115
78 116
78 117
78 118
78 119
78 121
78 144
78 145
78 146
78 147
78 148
78 151
78 153
78 155
78 157
78 158
78 159
78 160
78 161
78 162
78 163
78 164
78 165
78 166
78 167
78 169
78 170
78 171
78 172
78 186
78 191
78 192
78 193
78 195
78 200
78 204
78 217
78 218
78 219
78 220
78 221
78 222
78 223
78 224
78 226
78 227
78 228
78 229
78 230
78 231
78 232
78 233
78 234
78 235
78 236
78 237
78 238
78 239
78 240
78 241
78 242
78 243
78 244
78 245
78 246
78 247
78 248
78 249
78 250
78 251
78 252
78 254
78 255
78 256
78 257
78 258
78 259
78 261
78 263
78 265
78 267
78 291
78 293
78 295
78 301
78 303
78 310
78 312
78 320
78 326
78 333
78 335
78 336
78 338
78 339
78 344
78 345
78 351
78 353
78 376
78 383
78 389
78 394
78 396
78 398
78 399
78 401
78 403
78 407
78 411
78 412
78 415
78 416
78 419
78 420
78 421
78 422
78 423
78 424
78 425
78 426
78 427
78 428
78 429
78 430
78 432
78 433
78 434
78 435
78 436
78 443
78 444
78 445
78 446
78 447
78 448
78 449
78 450
78 451
78 453
78 454
78 455
78 457
78 464
78 465
78 467
78 468
78 469
78 471
79 80
79 81
79 82
79 83
79 84
79 85
79 86
79 87
79 88
79 90
79 92
79 94
79 112
79 113
79 114
79 115
79 116
79 117
79 118
79 119
79 120
79 144
79 145
79 146
79 147
79 148
79 151
79 153
79 155
79 157
79 158
79 159
79 160
79 165
79 166
79 167
79 168
79 182
79 183
79 184
79 185
79 186
79 187
79 188
79 189
79 190
79 192
79 193
79 195
79 197
79 198
79 199
79 200
79 201
79 202
79 203
79 217
79 218
79 219
79 220
79 221
79 222
79 223
79 224
79 225
79 226
79 227
79 228
79 229
79 230
79 231
79 232
79 233
79 234
79 235
79 236
79 237
79 238
79 241
79 243
79 251
79 253
79 260
79 261
79 262
79 263
79 264
79 265
79 266
79 291
79 293
79 295
79 301
79 303
79 310
79 312
79 320
79 326
79 333
79 335
79 336
79 338
79 339
79 344
79 345
79 351
79 353
79 376
79 383
79 389
79 394
79 395
79 396
79 397
79 398
79 399
79 400
79 401
79 402
79 404
79 405
79 406
79 407
79 408
79 409
79 410
79 412
79 413
79 414
79 415
79 416
79 417
79 418
79 421
79 423
79 429
79 431
79 436
79 443
79 444
79 445
79 446
79 447
79 448
79 449
79 450
79 451
79 452
79 453
79 455
79 457
79 464
79 465
79 466
79 467
79 468
79 469
79 470
80 81
80 82
80 83
80 84
80 85
80 86
80 87
80 88
80 89
80 94
80 97
80 98
80 99
80 100
80 101
80 102
80 103
80 104
80 105
80 106
80 107
80 108
80 109
80 110
80 111
80 112
80 114
80 116
80 117
80 119
80 121
80 148
80 150
80 152
80 155
80 174
80 175
80 176
80 177
80 178
80 179
80 180
80 181
80 183
80 184
80 185
80 186
80 187
80 188
80 189
80 190
80 191
80 195
80 198
80 199
80 200
80 201
80 202
80 203
80 204
80 217
80 219
80 222
80 224
80 239
80 240
80 242
80 250
80 252
80 260
80 263
80 264
80 267
80 269
80 270
80 271
80 272
80 273
80 274
80 276
80 277
80 278
80 279
80 280
80 281
80 282
80 283
80 284
80 285
80 286
80 288
80 289
80 290
80 291
80 292
80 309
80 311
80 332
80 334
80 336
80 350
80 352
80 360
80 361
80 362
80 363
80 364
80 365
80 367
80 368
80 369
80 370
80 371
80 372
80 373
80 374
80 375
80 382
80 388
80 398
80 403
80 405
80 406
80 407
80 408
80 409
80 410
80 411
80 415
80 419
80 420
80 422
80 428
80 430
80 443
80 445
80 448
80 449
80 451
80 454
80 467
80 471
81 82
81 83
81 84
81 85
81 86
81 87
81 88
81 89
81 94
81 96
81 98
81 104
81 106
81 113
81 114
81 115
81 116
81 117
81 118
81 119
81 120
81 121
81 148
81 150
81 152
81 155
81 173
81 175
81 176
81 177
81 178
81 179
81 180
81 181
81 182
81 184
81 186
81 187
81 189
81 191
81 195
81 197
81 199
81 200
81 201
81 202
81 203
81 204
81 217
81 219
81 222
81 224
81 239
81 240
81 242
81 250
81 252
81 261
81 262
81 263
81 264
81 265
81 266
81 267
81 268
81 275
81 281
81 287
81 289
81 291
81 309
81 311
81 333
81 334
81 335
81 336
81 337
81 351
81 352
81 353
81 354
81 355
81 356
81 357
81 358
81 359
81 361
81 362
81 363
81 364
81 365
81 366
81 368
81 376
81 377
81 378
81 379
81 380
81 381
81 383
81 384
81 385
81 386
81 387
81 388
81 389
81 390
81 391
81 392
81 393
81 398
81 403
81 404
81 407
81 408
81 411
81 415
81 419
81 421
81 422
81 423
81 424
81 425
81 426
81 427
81 428
81 429
81 430
81 431
81 432
81 433
81 434
81 435
81 443
81 445
81 448
81 449
81 451
81 454
81 467
81 471
82 83
82 84
82 85
82 86
82 87
82 88
82 89
82 94
82 96
82 97
82 99
82 100
82 101
82 102
82 103
82 104
82 105
82 106
82 107
82 108
82 109
82 110
82 111
82 112
82 114
82 116
82 117
82 119
82 121
82 148
82 151
82 152
82 153
82 154
82 155
82 156
82 173
82 174
82 176
82 177
82 178
82 179
82 180
82 181
82 182
82 183
82 185
82 186
82 187
82 188
82 189
82 190
82 191
82 195
82 197
82 198
82 200
82 201
82 202
82 204
82 217
82 219
82 222
82 224
82 239
82 241
82 242
82 243
82 244
82 245
82 246
82 247
82 248
82 249
82 250
82 251
82 252
82 253
82 254
82 255
82 256
82 257
82 258
82 259
82 260
82 263
82 264
82 267
82 268
82 275
82 281
82 287
82 288
82 290
82 291
82 292
82 310
82 311
82 312
82 313
82 314
82 315
82 316
82 317
82 318
82 319
82 332
82 334
82 336
82 350
82 352
82 359
82 360
82 366
82 367
82 369
82 370
82 371
82 372
82 373
82 374
82 375
82 382
82 388
82 398
82 403
82 404
82 407
82 408
82 411
82 415
82 419
82 420
82 422
82 428
82 430
82 444
82 445
82 446
82 447
82 448
82 449
82 450
82 451
82 452
82 453
82 454
82 467
82 471
83 84
83 85
83 86
83 87
83 88
83 89
83 94
83 96
83 98
83 104
83 106
83 112
83 113
83 115
83 116
83 117
83 118
83 119
83 120
83 121
83 148
83 150
83 151
83 153
83 154
83 155
83 156
83 173
83 174
83 175
83 177
83 178
83 179
83 180
83 181
83 182
83 184
83 186
83 187
83 189
83 191
83 195
83 197
83 198
83 200
83 201
83 202
83 204
83 217
83 219
83 222
83 224
83 239
83 240
83 241
83 243
83 244
83 245
83 246
83 247
83 248
83 249
83 250
83 251
83 252
83 253
83 254
83 255
83 256
83 257
83 258
83 259
83 260
83 263
83 264
83 267
83 268
83 275
83 281
83 287
83 289
83 291
83 309
83 310
83 312
83 313
83 314
83 315
83 316
83 317
83 318
83 319
83 332
83 333
83 335
83 336
83 337
83 350
83 351
83 353
83 354
83 355
83 356
83 357
83 358
83 359
83 360
83 366
83 368
83 375
83 382
83 388
83 398
83 403
83 404
83 407
83 408
83 411
83 415
83 419
83 420
83 421
83 423
83 424
83 425
83 426
83 427
83 428
83 429
83 430
83 431
83 432
83 433
83 434
83 435
83 443
83 444
83 446
83 447
83 448
83 449
83 450
83 451
83 452
83 453
83 454
83 467
83 471
84 85
84 86
84 87
84 88
84 89
84 90
84 91
84 92
84 93
84 95
84 96
84 98
84 104
84 106
84 112
84 113
84 114
84 115
84 117
84 118
84 119
84 120
84 121
84 144
84 145
84 146
84 147
84 149
84 150
84 151
84 152
84 153
84 154
84 156
84 173
84 174
84 175
84 176
84 182
84 183
84 184
84 185
84 187
84 188
84 189
84 190
84 191
84 192
84 193
84 194
84 196
84 197
84 198
84 199
84 201
84 202
84 203
84 204
84 217
84 219
84 222
84 224
84 239
84 240
84 242
84 250
84 252
84 260
84 261
84 262
84 264
84 265
84 266
84 267
84 268
84 275
84 281
84 287
84 288
84 289
84 290
84 292
84 309
84 311
84 332
84 333
84 334
84 335
84 337
84 350
84 352
84 359
84 360
84 366
84 368
84 375
84 382
84 388
84 394
84 395
84 396
84 397
84 399
84 400
84 401
84 402
84 403
84 404
84 405
84 406
84 408
84 409
84 410
84 411
84 412
84 413
84 414
84 416
84 417
84 418
84 419
84 420
84 422
84 428
84 430
84 443
84 444
84 445
84 446
84 447
84 449
84 450
84 451
84 452
84 453
84 454
84 464
84 465
84 466
84 468
84 469
84 470
84 471
85 86
85 87
85 88
85 89
85 94
85 96
85 97
85 98
85 99
85 100
85 101
85 102
85 103
85 105
85 106
85 107
85 108
85 109
85 110
85 111
85 112
85 114
85 116
85 117
85 119
85 121
85 148
85 150
85 152
85 155
85 173
85 174
85 175
85 176
85 182
85 183
85 184
85 185
85 186
85 188
85 189
85 190
85 191
85 195
85 197
85 198
85 199
85 200
85 202
85 203
85 204
85 218
85 219
85 220
85 221
85 222
85 223
85 224
85 225
85 226
85 227
85 228
85 229
85 230
85 231
85 232
85 233
85 234
85 235
85 236
85 237
85 238
85 239
85 240
85 242
85 250
85 252
85 260
85 263
85 264
85 267
85 268
85 275
85 276
85 277
85 278
85 279
85 280
85 282
85 283
85 284
85 285
85 286
85 287
85 289
85 291
85 309
85 311
85 332
85 334
85 336
85 350
85 352
85 359
85 360
85 366
85 368
85 375
85 382
85 388
85 398
85 403
85 404
85 405
85 406
85 407
85 409
85 410
85 411
85 415
85 419
85 420
85 422
85 428
85 430
85 443
85 445
85 448
85 449
85 451
85 454
85 467
85 471
86 87
86 88
86 89
86 94
86 96
86 98
86 104
86 106
86 112
86 113
86 114
86 115
86 116
86 118
86 119
86 120
86 121
86 148
86 150
86 152
86 155
86 173
86 174
86 175
86 176
86 182
86 184
86 186
86 187
86 189
86 191
86 195
86 197
86 198
86 199
86 200
86 201
86 203
86 204
86 217
86 218
86 220
86 221
86 222
86 223
86 224
86 225
86 226
86 227
86 228
86 229
86 230
86 231
86 232
86 233
86 234
86 235
86 236
86 237
86 238
86 239
86 240
86 242
86 250
86 252
86 260
86 261
86 262
86 263
86 265
86 266
86 267
86 268
86 275
86 281
86 287
86 289
86 291
86 309
86 311
86 332
86 334
86 336
86 350
86 352
86 359
86 360
86 366
86 368
86 375
86 382
86 383
86 384
86 385
86 386
86 387
86 389
86 390
86 391
86 392
86 393
86 398
86 403
86 404
86 407
86 408
86 411
86 415
86 419
86 420
86 421
86 422
86 423
86 424
86 425
86 426
86 427
86 429
86 430
86 431
86 432
86 433
86 434
86 435
86 443
86 445
86 448
86 449
86 451
86 454
86 467
86 471
87 88
87 89
87 94
87 96
87 97
87 98
87 99
87 100
87 101
87 102
87 103
87 104
87 105
87 107
87 108
87 109
87 110
87 111
87 112
87 114
87 116
87 117
87 119
87 121
87 148
87 150
87 152
87 155
87 173
87 174
87 175
87 176
87 182
87 183
87 184
87 185
87 186
87 187
87 188
87 190
87 191
87 195
87 197
87 198
87 200
87 201
87 202
87 204
87 217
87 218
87 219
87 220
87 221
87 223
87 224
87 225
87 226
87 227
87 228
87 229
87 230
87 231
87 232
87 233
87 234
87 235
87 236
87 237
87 238
87 239
87 240
87 241
87 242
87 243
87 244
87 245
87 246
87 247
87 248
87 249
87 251
87 252
87 253
87 254
87 255
87 256
87 257
87 258
87 259
87 260
87 263
87 264
87 267
87 268
87 275
87 281
87 287
87 289
87 291
87 309
87 311
87 332
87 334
87 336
87 350
87 352
87 359
87 360
87 366
87 368
87 375
87 382
87 388
87 398
87 403
87 404
87 407
87 408
87 411
87 415
87 419
87 420
87 422
87 428
87 430
87 443
87 444
87 445
87 446
87 447
87 448
87 450
87 451
87 452
87 453
87 454
87 467
87 471
88 89
88 94
88 96
88 98
88 104
88 106
88 112
88 113
88 114
88 115
88 116
88 117
88 118
88 120
88 121
88 148
88 150
88 152
88 155
88 173
88 174
88 175
88 176
88 182
88 184
88 186
88 187
88 189
88 191
88 195
88 197
88 198
88 200
88 201
88 202
88 204
88 217
88 218
88 219
88 220
88 221
88 222
88 223
88 225
88 226
88 227
88 228
88 229
88 230
88 231
88 232
88 233
88 234
88 235
88 236
88 237
88 238
88 239
88 240
88 241
88 242
88 243
88 244
88 245
88 246
88 247
88 248
88 249
88 250
88 251
88 253
88 254
88 255
88 256
88 257
88 258
88 259
88 260
88 263
88 264
88 267
88 268
88 275
88 281
88 287
88 289
88 291
88 309
88 311
88 332
88 334
88 336
88 350
88 352
88 359
88 360
88 366
88 368
88 375
88 382
88 388
88 398
88 403
88 404
88 407
88 408
88 411
88 415
88 419
88 420
88 421
88 422
88 423
88 424
88 425
88 426
88 427
88 428
88 429
88 431
88 432
88 433
88 434
88 435
88 443
88 444
88 445
88 446
88 447
88 448
88 449
88 450
88 452
88 453
88 454
88 467
88 471
89 94
89 96
89 98
89 104
89 106
89 112
89 113
89 114
89 115
89 116
89 117
89 118
89 119
89 120
89 148
89 150
89 152
89 155
89 173
89 174
89 175
89 176
89 182
89 183
89 184
89 185
89 186
89 187
89 188
89 189
89 190
89 195
89 197
89 198
89 199
89 200
89 201
89 202
89 203
89 217
89 218
89 219
89 220
89 221
89 222
89 223
89 224
89 225
89 226
89 227
89 228
89 229
89 230
89 231
89 232
89 233
89 234
89 235
89 236
89 237
89 238
89 240
89 242
89 250
89 252
89 260
89 261
89 262
89 263
89 264
89 265
89 266
89 268
89 275
89 281
89 287
89 289
89 291
89 309
89 311
89 332
89 334
89 336
89 350
89 352
89 359
89 360
89 366
89 368
89 375
89 382
89 388
89 394
89 395
89 396
89 397
89 398
89 399
89 400
89 401
89 402
89 404
89 405
89 406
89 407
89 408
89 409
89 410
89 412
89 413
89 414
89 415
89 416
89 417
89 418
89 420
89 422
89 428
89 430
89 443
89 444
89 445
89 446
89 447
89 448
89 449
89 450
89 451
89 452
89 453
89 464
89 465
89 466
89 467
89 468
89 469
89 470
90 91
90 92
90 93
90 94
90 95
90 97
90 99
90 116
90 145
90 146
90 147
90 148
90 149
90 151
90 154
90 155
90 156
90 158
90 159
90 160
90 161
90 162
90 163
90 164
90 165
90 166
90 167
90 168
90 169
90 170
90 171
90 172
90 181
90 183
90 185
90 186
90 193
90 194
90 195
90 196
90 200
90 216
90 241
90 244
90 263
90 269
90 274
90 276
90 288
90 290
90 291
90 292
90 294
90 295
90 296
90 297
90 298
90 299
90 300
90 301
90 302
90 303
90 304
90 305
90 306
90 307
90 308
90 310
90 313
90 319
90 321
90 322
90 323
90 324
90 325
90 326
90 327
90 328
90 329
90 330
90 331
90 336
90 337
90 339
90 340
90 341
90 342
90 343
90 344
90 345
90 346
90 347
90 348
90 349
90 358
90 365
90 367
90 369
90 374
90 381
90 395
90 396
90 397
90 398
90 399
90 400
90 401
90 402
90 403
90 405
90 407
90 413
90 414
90 415
90 416
90 417
90 418
90 419
90 437
90 438
90 439
90 440
90 441
90 442
90 444
90 447
90 448
90 456
90 457
90 458
90 459
90 460
90 461
90 462
90 463
90 465
90 466
90 467
90 468
90 469
90 470
90 471
91 92
91 93
91 94
91 95
91 96
91 98
91 99
91 100
91 101
91 102
91 103
91 104
91 105
91 106
91 107
91 108
91 109
91 110
91 111
91 116
91 144
91 146
91 148
91 149
91 151
91 154
91 155
91 156
91 157
91 159
91 181
91 182
91 184
91 185
91 186
91 187
91 188
91 189
91 190
91 191
91 192
91 195
91 196
91 200
91 216
91 241
91 244
91 263
91 268
91 270
91 271
91 272
91 273
91 274
91 275
91 277
91 278
91 279
91 280
91 281
91 282
91 283
91 284
91 285
91 286
91 287
91 289
91 290
91 291
91 292
91 293
91 295
91 296
91 297
91 298
91 299
91 300
91 301
91 302
91 303
91 304
91 305
91 306
91 307
91 308
91 310
91 313
91 319
91 320
91 322
91 323
91 324
91 325
91 326
91 327
91 328
91 329
91 330
91 331
91 336
91 337
91 338
91 358
91 365
91 366
91 368
91 369
91 370
91 371
91 372
91 373
91 374
91 381
91 394
91 396
91 397
91 398
91 399
91 400
91 401
91 402
91 403
91 404
91 406
91 407
91 408
91 409
91 410
91 411
91 412
91 414
91 415
91 416
91 417
91 418
91 419
91 436
91 438
91 439
91 440
91 441
91 442
91 444
91 447
91 448
91 455
91 457
91 458
91 459
91 460
91 461
91 462
91 463
91 464
91 467
92 93
92 94
92 95
92 97
92 99
92 116
92 144
92 145
92 147
92 148
92 149
92 150
92 152
92 153
92 154
92 155
92 156
92 157
92 158
92 160
92 161
92 162
92 163
92 164
92 165
92 166
92 167
92 168
92 169
92 170
92 171
92 172
92 181
92 183
92 185
92 186
92 192
92 195
92 196
92 200
92 216
92 240
92 242
92 243
92 244
92 245
92 246
92 247
92 248
92 249
92 250
92 251
92 252
92 253
92 254
92 255
92 256
92 257
92 258
92 259
92 263
92 269
92 274
92 276
92 288
92 290
92 291
92 292
92 293
92 294
92 296
92 297
92 298
92 299
92 300
92 301
92 302
92 303
92 304
92 305
92 306
92 307
92 308
92 309
92 311
92 312
92 313
92 314
92 315
92 316
92 317
92 318
92 319
92 320
92 321
92 336
92 337
92 338
92 358
92 365
92 367
92 369
92 374
92 381
92 394
92 395
92 397
92 398
92 399
92 400
92 401
92 402
92 403
92 405
92 407
92 412
92 413
92 415
92 436
92 437
92 442
92 443
92 445
92 446
92 447
92 448
92 449
92 450
92 451
92 452
92 453
92 454
92 455
92 456
92 458
92 459
92 460
92 461
92 462
92 463
92 464
92 467
93 94
93 95
93 96
93 97
93 98
93 100
93 101
93 102
93 103
93 104
93 105
93 106
93 107
93 108
93 109
93 110
93 111
93 116
93 144
93 146
93 148
93 149
93 150
93 151
93 152
93 153
93 155
93 156
93 157
93 159
93 181
93 182
93 183
93 184
93 186
93 187
93 188
93 189
93 190
93 191
93 192
93 195
93 196
93 200
93 216
93 240
93 241
93 242
93 243
93 245
93 246
93 247
93 248
93 249
93 250
93 251
93 252
93 253
93 254
93 255
93 256
93 257
93 258
93 259
93 263
93 269
93 274
93 276
93 287
93 288
93 289
93 291
93 292
93 293
93 294
93 295
93 297
93 298
93 299
93 300
93 301
93 302
93 303
93 304
93 305
93 306
93 307
93 308
93 309
93 310
93 311
93 312
93 314
93 315
93 316
93 317
93 318
93 319
93 320
93 321
93 336
93 337
93 338
93 358
93 365
93 366
93 367
93 368
93 370
93 371
93 372
93 373
93 374
93 381
93 394
93 395
93 396
93 398
93 399
93 400
93 401
93 402
93 403
93 405
93 407
93 412
93 413
93 415
93 436
93 437
93 442
93 443
93 444
93 445
93 446
93 448
93 449
93 450
93 451
93 452
93 453
93 454
93 455
93 456
93 457
93 459
93 460
93 461
93 462
93 463
93 464
93 467
94 95
94 97
94 99
94 112
94 113
94 114
94 115
94 117
94 118
94 119
94 120
94 121
94 144
94 145
94 146
94 147
94 149
94 150
94 151
94 152
94 153
94 154
94 156
94 157
94 159
94 181
94 182
94 183
94 184
94 185
94 187
94 188
94 189
94 190
94 191
94 192
94 193
94 194
94 196
94 197
94 198
94 199
94 201
94 202
94 203
94 204
94 216
94 241
94 244
94 260
94 261
94 262
94 264
94 265
94 266
94 267
94 269
94 274
94 276
94 287
94 288
94 289
94 290
94 292
94 293
94 294
94 295
94 296
94 310
94 313
94 319
94 320
94 321
94 332
94 333
94 334
94 335
94 337
94 338
94 358
94 365
94 367
94 369
94 374
94 381
94 394
94 395
94 396
94 397
94 399
94 400
94 401
94 402
94 403
94 404
94 405
94 406
94 408
94 409
94 410
94 411
94 412
94 413
94 414
94 416
94 417
94 418
94 419
94 436
94 437
94 442
94 443
94 444
94 445
94 446
94 447
94 449
94 450
94 451
94 452
94 453
94 454
94 455
94 456
94 457
94 458
94 463
94 464
94 465
94 466
94 468
94 469
94 470
94 471
95 97
95 99
95 116
95 144
95 145
95 146
95 147
95 148
95 150
95 151
95 152
95 153
95 154
95 155
95 157
95 159
95 173
95 174
95 175
95 176
95 177
95 178
95 179
95 180
95 183
95 185
95 186
95 192
95 193
95 194
95 195
95 200
95 205
95 206
95 207
95 208
95 209
95 210
95 211
95 212
95 213
95 214
95 215
95 241
95 244
95 263
95 268
95 269
95 270
95 271
95 272
95 273
95 276
95 287
95 288
95 289
95 290
95 291
95 293
95 294
95 295
95 296
95 309
95 310
95 311
95 312
95 313
95 314
95 315
95 316
95 317
95 318
95 320
95 321
95 332
95 333
95 334
95 335
95 336
95 338
95 350
95 351
95 352
95 353
95 354
95 355
95 356
95 357
95 359
95 360
95 361
95 362
95 363
95 364
95 366
95 367
95 368
95 369
95 370
95 371
95 372
95 373
95 375
95 376
95 377
95 378
95 379
95 380
95 394
95 395
95 396
95 397
95 398
95 405
95 407
95 412
95 413
95 415
95 436
95 437
95 438
95 439
95 440
95 441
95 444
95 447
95 448
95 455
95 456
95 457
95 458
95 459
95 460
95 461
95 462
95 464
95 467
96 97
96 98
96 99
96 100
96 101
96 102
96 103
96 104
96 105
96 106
96 107
96 108
96 109
96 110
96 111
96 122
96 126
96 127
96 131
96 133
96 137
96 138
96 142
96 150
96 154
96 174
96 175
96 176
96 177
96 178
96 179
96 180
96 181
96 183
96 184
96 185
96 186
96 187
96 188
96 189
96 190
96 191
96 198
96 199
96 200
96 201
96 202
96 203
96 204
96 205
96 209
96 210
96 214
96 217
96 221
96 222
96 226
96 228
96 232
96 233
96 237
96 240
96 244
96 245
96 249
96 250
96 254
96 255
96 259
96 269
96 270
96 271
96 272
96 273
96 274
96 276
96 277
96 278
96 279
96 280
96 281
96 282
96 283
96 284
96 285
96 286
96 288
96 289
96 290
96 291
96 292
96 294
96 296
96 298
96 300
96 302
96 304
96 306
96 308
96 309
96 313
96 314
96 318
96 321
96 324
96 327
96 330
96 360
96 361
96 362
96 363
96 364
96 365
96 367
96 368
96 369
96 370
96 371
96 372
96 373
96 374
96 395
96 397
96 400
96 402
96 405
96 406
96 407
96 408
96 409
96 410
96 411
96 413
96 417
96 437
96 440
96 443
96 447
96 449
96 453
96 456
96 458
96 460
96 462
97 98
97 99
97 100
97 101
97 102
97 103
97 104
97 105
97 106
97 107
97 108
97 109
97 110
97 111
97 122
97 126
97 127
97 131
97 133
97 137
97 138
97 142
97 150
97 154
97 173
97 175
97 177
97 179
97 182
97 184
97 185
97 186
97 187
97 188
97 189
97 190
97 191
97 197
97 201
97 205
97 209
97 210
97 214
97 217
97 221
97 222
97 226
97 228
97 232
97 233
97 237
97 240
97 244
97 245
97 249
97 250
97 254
97 255
97 259
97 268
97 270
97 271
97 272
97 273
97 274
97 275
97 277
97 278
97 279
97 280
97 281
97 282
97 283
97 284
97 285
97 286
97 287
97 289
97 290
97 291
97 292
97 293
97 295
97 296
97 297
97 298
97 299
97 300
97 301
97 302
97 303
97 304
97 305
97 306
97 307
97 308
97 309
97 313
97 314
97 318
97 320
97 322
97 323
97 324
97 325
97 326
97 327
97 328
97 329
97 330
97 331
97 359
97 362
97 366
97 368
97 369
97 370
97 371
97 372
97 373
97 374
97 394
97 396
97 397
97 398
97 399
97 400
97 401
97 402
97 403
97 404
97 406
97 407
97 408
97 409
97 410
97 411
97 412
97 414
97 415
97 416
97 417
97 418
97 419
97 436
97 438
97 439
97 440
97 441
97 442
97 443
97 447
97 449
97 453
97 455
97 457
97 458
97 459
97 460
97 461
97 462
97 463
98 99
98 100
98 101
98 102
98 103
98 104
98 105
98 106
98 107
98 108
98 109
98 110
98 111
98 122
98 126
98 127
98 131
98 133
98 137
98 138
98 142
98 151
98 152
98 153
98 154
98 155
98 156
98 173
98 174
98 176
98 177
98 178
98 179
98 180
98 181
98 182
98 183
98 185
98 186
98 187
98 188
98 189
98 190
98 191
98 197
98 201
98 205
98 209
98 210
98 214
98 217
98 221
98 222
98 226
98 228
98 232
98 233
98 237
98 241
98 242
98 243
98 244
98 245
98 246
98 247
98 248
98 249
98 250
98 251
98 252
98 253
98 254
98 255
98 256
98 257
98 258
98 259
98 268
98 269
98 271
98 272
98 275
98 276
98 278
98 279
98 281
98 282
98 284
98 285
98 287
98 288
98 290
98 291
98 292
98 294
98 296
98 298
98 300
98 302
98 304
98 306
98 308
98 310
98 311
98 312
98 313
98 314
98 315
98 316
98 317
98 318
98 319
98 321
98 324
98 327
98 330
98 359
98 362
98 366
98 367
98 369
98 370
98 371
98 372
98 373
98 374
98 395
98 397
98 400
98 402
98 404
98 405
98 408
98 409
98 413
98 417
98 437
98 440
98 444
98 445
98 446
98 447
98 448
98 449
98 450
98 451
98 452
98 453
98 454
98 456
98 458
98 460
98 462
99 100
99 101
99 102
99 103
99 104
99 105
99 106
99 107
99 108
99 109
99 110
99 111
99 122
99 126
99 127
99 131
99 133
99 137
99 138
99 142
99 150
99 151
99 152
99 153
99 155
99 156
99 173
99 175
99 177
99 179
99 182
99 183
99 184
99 186
99 187
99 188
99 189
99 190
99 191
99 197
99 201
99 205
99 209
99 210
99 214
99 217
99 221
99 222
99 226
99 228
99 232
99 233
99 237
99 240
99 241
99 242
99 243
99 245
99 246
99 247
99 248
99 249
99 250
99 251
99 252
99 253
99 254
99 255
99 256
99 257
99 258
99 259
99 268
99 269
99 271
99 272
99 275
99 276
99 278
99 279
99 281
99 282
99 284
99 285
99 287
99 288
99 289
99 291
99 292
99 293
99 294
99 295
99 297
99 298
99 299
99 300
99 301
99 302
99 303
99 304
99 305
99 306
99 307
99 308
99 309
99 310
99 311
99 312
99 314
99 315
99 316
99 317
99 318
99 319
99 321
99 324
99 327
99 330
99 359
99 362
99 366
99 367
99 368
99 370
99 371
99 372
99 373
99 374
99 394
99 395
99 396
99 398
99 399
99 400
99 401
99 402
99 403
99 404
99 405
99 408
99 409
99 413
99 417
99 437
99 440
99 443
99 444
99 445
99 446
99 448
99 449
99 450
99 451
99 452
99 453
99 454
99 455
99 456
99 457
99 459
99 460
99 461
99 462
99 463
100 101
100 102
100 103
100 104
100 105
100 106
100 107
100 108
100 109
100 110
100 111
100 123
100 124
100 125
100 126
100 127
100 128
100 129
100 130
100 131
100 132
100 133
100 134
100 135
100 136
100 137
100 138
100 139
100 140
100 141
100 142
100 143
100 150
100 154
100 173
100 174
100 175
100 176
100 178
100 179
100 180
100 181
100 182
100 183
100 184
100 185
100 187
100 188
100 189
100 190
100 197
100 201
100 206
100 207
100 208
100 209
100 210
100 211
100 212
100 213
100 214
100 215
100 216
100 217
100 221
100 222
100 226
100 228
100 232
100 233
100 237
100 240
100 244
100 245
100 249
100 250
100 254
100 255
100 259
100 268
100 269
100 270
100 272
100 273
100 274
100 275
100 276
100 277
100 279
100 280
100 281
100 282
100 283
100 284
100 285
100 286
100 287
100 288
100 289
100 290
100 294
100 296
100 298
100 300
100 302
100 304
100 306
100 308
100 309
100 313
100 314
100 318
100 321
100 324
100 327
100 330
100 359
100 360
100 361
100 363
100 364
100 365
100 366
100 367
100 368
100 369
100 371
100 372
100 373
100 374
100 395
100 397
100 400
100 402
100 404
100 405
100 408
100 409
100 413
100 417
100 437
100 440
100 443
100 447
100 449
100 453
100 456
100 458
100 460
100 462
101 102
101 103
101 104
101 105
101 106
101 107
101 108
101 109
101 110
101 111
101 122
101 123
101 124
101 125
101 127
101 128
101 129
101 130
101 131
101 132
101 133
101 134
101 135
101 136
101 137
101 138
101 139
101 140
101 141
101 142
101 143
101 150
101 154
101 173
101 175
101 177
101 179
101 182
101 183
101 184
101 185
101 187
101 188
101 189
101 190
101 197
101 201
101 205
101 206
101 207
101 208
101 210
101 211
101 212
101 213
101 214
101 215
101 216
101 217
101 221
101 222
101 226
101 228
101 232
101 233
101 237
101 240
101 244
101 245
101 249
101 250
101 254
101 255
101 259
101 268
101 269
101 270
101 271
101 273
101 274
101 275
101 276
101 277
101 278
101 280
101 281
101 282
101 283
101 284
101 285
101 286
101 287
101 288
101 289
101 290
101 293
101 294
101 295
101 296
101 297
101 299
101 300
101 301
101 302
101 303
101 304
101 305
101 306
101 307
101 308
101 309
101 313
101 314
101 318
101 320
101 321
101 322
101 323
101 325
101 326
101 327
101 328
101 329
101 330
101 331
101 359
101 362
101 366
101 367
101 368
101 369
101 370
101 372
101 373
101 374
101 395
101 397
101 400
101 402
101 404
101 405
101 408
101 409
101 413
101 417
101 436
101 437
101 438
101 439
101 441
101 442
101 443
101 447
101 449
101 453
101 455
101 456
101 457
101 458
101 459
101 461
101 462
101 463
102 103
102 104
102 105
102 106
102 107
102 108
102 109
102 110
102 111
102 122
102 123
102 124
102 125
102 126
102 128
102 129
102 130
102 131
102 132
102 133
102 134
102 135
102 136
102 137
102 138
102 139
102 140
102 141
102 142
102 143
102 150
102 154
102 173
102 174
102 175
102 176
102 177
102 178
102 180
102 181
102 182
102 183
102 184
102 185
102 187
102 188
102 189
102 190
102 197
102 201
102 205
102 206
102 207
102 208
102 209
102 211
102 212
102 213
102 214
102 215
102 216
102 217
102 221
102 222
102 226
102 228
102 232
102 233
102 237
102 240
102 241
102 242
102 243
102 244
102 246
102 247
102 248
102 249
102 250
102 251
102 252
102 253
102 254
102 255
102 256
102 257
102 258
102 259
102 268
102 269
102 271
102 272
102 275
102 276
102 278
102 279
102 281
102 282
102 284
102 285
102 287
102 288
102 289
102 290
102 294
102 296
102 298
102 300
102 302
102 304
102 306
102 308
102 309
102 310
102 311
102 312
102 313
102 315
102 316
102 317
102 318
102 319
102 321
102 324
102 327
102 330
102 359
102 362
102 366
102 367
102 368
102 369
102 370
102 371
102 373
102 374
102 395
102 397
102 400
102 402
102 404
102 405
102 408
102 409
102 413
102 417
102 437
102 440
102 443
102 447
102 449
102 453
102 456
102 458
102 460
102 462
103 104
103 105
103 106
103 107
103 108
103 109
103 110
103 111
103 122
103 123
103 124
103 125
103 126
103 127
103 128
103 129
103 130
103 132
103 133
103 134
103 135
103 136
103 137
103 138
103 139
103 140
103 141
103 142
103 143
103 150
103 154
103 173
103 175
103 177
103 179
103 182
103 183
103 184
103 185
103 187
103 188
103 189
103 190
103 197
103 201
103 205
103 206
103 207
103 208
103 209
103 210
103 211
103 212
103 213
103 215
103 216
103 217
103 221
103 222
103 226
103 228
103 232
103 233
103 237
103 240
103 241
103 242
103 243
103 244
103 245
103 246
103 247
103 248
103 250
103 251
103 252
103 253
103 254
103 255
103 256
103 257
103 258
103 259
103 268
103 269
103 271
103 272
103 275
103 276
103 278
103 279
103 281
103 282
103 284
103 285
103 287
103 288
103 289
103 290
103 293
103 294
103 295
103 296
103 297
103 298
103 299
103 301
103 302
103 303
103 304
103 305
103 306
103 307
103 308
103 309
103 310
103 311
103 312
103 313
103 314
103 315
103 316
103 317
103 319
103 321
103 324
103 327
103 330
103 359
103 362
103 366
103 367
103 368
103 369
103 370
103 371
103 372
103 374
103 395
103 397
103 400
103 402
103 404
103 405
103 408
103 409
103 413
103 417
103 437
103 440
103 443
103 447
103 449
103 453
103 455
103 456
103 457
103 458
103 459
103 460
103 461
103 463
104 105
104 106
104 107
104 108
104 109
104 110
104 111
104 122
104 126
104 127
104 131
104 133
104 137
104 138
104 142
104 150
104 154
104 173
104 175
104 177
104 179
104 182
104 183
104 184
104 185
104 186
104 188
104 189
104 190
104 191
104 197
104 198
104 199
104 200
104 202
104 203
104 204
104 205
104 209
104 210
104 214
104 218
104 219
104 220
104 221
104 222
104 223
104 224
104 225
104 226
104 227
104 228
104 229
104 230
104 231
104 232
104 233
104 234
104 235
104 236
104 237
104 238
104 239
104 240
104 244
104 245
104 249
104 250
104 254
104 255
104 259
104 268
104 269
104 271
104 272
104 275
104 276
104 277
104 278
104 279
104 280
104 282
104 283
104 284
104 285
104 286
104 287
104 288
104 289
104 290
104 294
104 296
104 298
104 300
104 302
104 304
104 306
104 308
104 309
104 313
104 314
104 318
104 321
104 324
104 327
104 330
104 359
104 362
104 366
104 367
104 368
104 369
104 370
104 371
104 372
104 373
104 395
104 397
104 400
104 402
104 404
104 405
104 406
104 407
104 409
104 410
104 411
104 413
104 417
104 437
104 440
104 443
104 447
104 449
104 453
104 456
104 458
104 460
104 462
105 106
105 107
105 108
105 109
105 110
105 111
105 122
105 126
105 127
105 131
105 133
105 137
105 138
105 142
105 150
105 154
105 173
105 175
105 177
105 179
105 182
105 183
105 184
105 185
105 186
105 187
105 189
105 190
105 191
105 197
105 201
105 205
105 209
105 210
105 214
105 217
105 218
105 219
105 220
105 222
105 223
105 224
105 225
105 226
105 227
105 228
105 229
105 230
105 231
105 232
105 233
105 234
105 235
105 236
105 237
105 238
105 239
105 240
105 244
105 245
105 249
105 250
105 254
105 255
105 259
105 268
105 269
105 271
105 272
105 275
105 276
105 277
105 278
105 279
105 280
105 281
105 283
105 284
105 285
105 286
105 287
105 288
105 289
105 290
105 293
105 294
105 295
105 296
105 297
105 298
105 299
105 300
105 301
105 303
105 304
105 305
105 306
105 307
105 308
105 309
105 313
105 314
105 318
105 320
105 321
105 322
105 323
105 324
105 325
105 326
105 328
105 329
105 330
105 331
105 359
105 362
105 366
105 367
105 368
105 369
105 370
105 371
105 372
105 373
105 394
105 395
105 396
105 397
105 398
105 399
105 401
105 402
105 403
105 404
105 405
105 406
105 407
105 408
105 410
105 411
105 412
105 413
105 414
105 415
105 416
105 418
105 419
105 437
105 440
105 443
105 447
105 449
105 453
105 456
105 458
105 460
105 462
106 107
106 108
106 109
106 110
106 111
106 122
106 126
106 127
106 131
106 133
106 137
106 138
106 142
106 150
106 154
106 173
106 175
106 177
106 179
106 182
106 183
106 184
106 185
106 186
106 187
106 188
106 190
106 191
106 197
106 201
106 205
106 209
106 210
106 214
106 217
106 218
106 219
106 220
106 221
106 223
106 224
106 225
106 226
106 227
106 228
106 229
106 230
106 231
106 232
106 233
106 234
106 235
106 236
106 237
106 238
106 239
106 240
106 241
106 242
106 243
106 244
106 245
106 246
106 247
106 248
106 249
106 251
106 252
106 253
106 254
106 255
106 256
106 257
106 258
106 259
106 268
106 269
106 271
106 272
106 275
106 276
106 278
106 279
106 281
106 282
106 284
106 285
106 287
106 288
106 289
106 290
106 294
106 296
106 298
106 300
106 302
106 304
106 306
106 308
106 309
106 313
106 314
106 318
106 321
106 324
106 327
106 330
106 359
106 362
106 366
106 367
106 368
106 369
106 370
106 371
106 372
106 373
106 395
106 397
106 400
106 402
106 404
106 405
106 408
106 409
106 413
106 417
106 437
106 440
106 443
106 444
106 445
106 446
106 447
106 448
106 450
106 451
106 452
106 453
106 454
106 456
106 458
106 460
106 462
107 108
107 109
107 110
107 111
107 122
107 126
107 127
107 131
107 133
107 137
107 138
107 142
107 150
107 154
107 173
107 175
107 177
107 179
107 182
107 183
107 184
107 185
107 186
107 187
107 188
107 189
107 191
107 197
107 201
107 205
107 209
107 210
107 214
107 217
107 218
107 219
107 220
107 221
107 222
107 223
107 224
107 225
107 227
107 228
107 229
107 230
107 231
107 232
107 233
107 234
107 235
107 236
107 237
107 238
107 239
107 240
107 241
107 242
107 243
107 244
107 245
107 246
107 247
107 248
107 249
107 250
107 251
107 252
107 253
107 255
107 256
107 257
107 258
107 259
107 268
107 269
107 271
107 272
107 275
107 276
107 278
107 279
107 281
107 282
107 284
107 285
107 287
107 288
107 289
107 290
107 293
107 294
107 295
107 296
107 297
107 298
107 299
107 300
107 301
107 302
107 303
107 305
107 306
107 307
107 308
107 309
107 313
107 314
107 318
107 321
107 324
107 327
107 330
107 359
107 362
107 366
107 367
107 368
107 369
107 370
107 371
107 372
107 373
107 394
107 395
107 396
107 397
107 398
107 399
107 400
107 401
107 403
107 404
107 405
107 408
107 409
107 413
107 417
107 437
107 440
107 443
107 444
107 445
107 446
107 447
107 448
107 449
107 450
107 451
107 452
107 454
107 456
107 458
107 460
107 462
108 109
108 110
108 111
108 122
108 123
108 124
108 125
108 126
108 127
108 128
108 129
108 130
108 131
108 132
108 134
108 135
108 136
108 137
108 138
108 139
108 140
108 141
108 142
108 143
108 150
108 154
108 173
108 175
108 177
108 179
108 182
108 183
108 184
108 185
108 187
108 188
108 189
108 190
108 197
108 201
108 205
108 209
108 210
108 214
108 217
108 218
108 219
108 220
108 221
108 222
108 223
108 224
108 225
108 226
108 227
108 229
108 230
108 231
108 232
108 233
108 234
108 235
108 236
108 237
108 238
108 239
108 240
108 244
108 245
108 249
108 250
108 254
108 255
108 259
108 268
108 269
108 271
108 272
108 275
108 276
108 277
108 278
108 279
108 280
108 281
108 282
108 283
108 285
108 286
108 287
108 288
108 289
108 290
108 294
108 296
108 298
108 300
108 302
108 304
108 306
108 308
108 309
108 313
108 314
108 318
108 321
108 324
108 327
108 330
108 359
108 362
108 366
108 367
108 368
108 369
108 370
108 371
108 372
108 373
108 395
108 397
108 400
108 402
108 404
108 405
108 408
108 409
108 413
108 417
108 437
108 440
108 443
108 447
108 449
108 453
108 456
108 458
108 460
108 462
109 110
109 111
109 122
109 123
109 124
109 125
109 126
109 127
109 128
109 129
109 130
109 131
109 132
109 133
109 134
109 135
109 136
109 138
109 139
109 140
109 141
109 142
109 143
109 150
109 154
109 173
109 175
109 177
109 179
109 182
109 183
109 184
109 185
109 187
109 188
109 189
109 190
109 197
109 201
109 205
109 209
109 210
109 214
109 217
109 218
109 219
109 220
109 221
109 222
109 223
109 224
109 225
109 226
109 227
109 228
109 229
109 230
109 231
109 233
109 234
109 235
109 236
109 237
109 238
109 239
109 240
109 244
109 245
109 249
109 250
109 254
109 255
109 259
109 268
109 269
109 271
109 272
109 275
109 276
109 277
109 278
109 279
109 280
109 281
109 282
109 283
109 284
109 286
109 287
109 288
109 289
109 290
109 293
109 294
109 295
109 296
109 297
109 298
109 299
109 300
109 301
109 302
109 303
109 304
109 305
109 307
109 308
109 309
109 313
109 314
109 318
109 320
109 321
109 322
109 323
109 324
109 325
109 326
109 327
109 328
109 329
109 331
109 359
109 362
109 366
109 367
109 368
109 369
109 370
109 371
109 372
109 373
109 395
109 397
109 400
109 402
109 404
109 405
109 408
109 409
109 413
109 417
109 437
109 440
109 443
109 447
109 449
109 453
109 456
109 458
109 460
109 462
110 111
110 122
110 123
110 124
110 125
110 126
110 127
110 128
110 129
110 130
110 131
110 132
110 133
110 134
110 135
110 136
110 137
110 139
110 140
110 141
110 142
110 143
110 150
110 154
110 173
110 175
110 177
110 179
110 182
110 183
110 184
110 185
110 187
110 188
110 189
110 190
110 197
110 201
110 205
110 209
110 210
110 214
110 217
110 218
110 219
110 220
110 221
110 222
110 223
110 224
110 225
110 226
110 227
110 228
110 229
110 230
110 231
110 232
110 234
110 235
110 236
110 237
110 238
110 239
110 240
110 241
110 242
110 243
110 244
110 245
110 246
110 247
110 248
110 249
110 250
110 251
110 252
110 253
110 254
110 256
110 257
110 258
110 259
110 268
110 269
110 271
110 272
110 275
110 276
110 278
110 279
110 281
110 282
110 284
110 285
110 287
110 288
110 289
110 290
110 294
110 296
110 298
110 300
110 302
110 304
110 306
110 308
110 309
110 313
110 314
110 318
110 321
110 324
110 327
110 330
110 359
110 362
110 366
110 367
110 368
110 369
110 370
110 371
110 372
110 373
110 395
110 397
110 400
110 402
110 404
110 405
110 408
110 409
110 413
110 417
110 437
110 440
110 443
110 447
110 449
110 453
110 456
110 458
110 460
110 462
111 122
111 123
111 124
111 125
111 126
111 127
111 128
111 129
111 130
111 131
111 132
111 133
111 134
111 135
111 136
111 137
111 138
111 139
111 140
111 141
111 143
111 150
111 154
111 173
111 175
111 177
111 179
111 182
111 183
111 184
111 185
111 187
111 188
111 189
111 190
111 197
111 201
111 205
111 209
111 210
111 214
111 217
111 218
111 219
111 220
111 221
111 222
111 223
111 224
111 225
111 226
111 227
111 228
111 229
111 230
111 231
111 232
111 233
111 234
111 235
111 236
111 238
111 239
111 240
111 241
111 242
111 243
111 244
111 245
111 246
111 247
111 248
111 249
111 250
111 251
111 252
111 253
111 254
111 255
111 256
111 257
111 258
111 268
111 269
111 271
111 272
111 275
111 276
111 278
111 279
111 281
111 282
111 284
111 285
111 287
111 288
111 289
111 290
111 293
111 294
111 295
111 296
111 297
111 298
111 299
111 300
111 301
111 302
111 303
111 304
111 305
111 306
111 307
111 309
111 313
111 314
111 318
111 321
111 324
111 327
111 330
111 359
111 362
111 366
111 367
111 368
111 369
111 370
111 371
111 372
111 373
111 395
111 397
111 400
111 402
111 404
111 405
111 408
111 409
111 413
111 417
111 437
111 440
111 443
111 447
111 449
111 453
111 456
111 458
111 460
111 462
112 113
112 114
112 115
112 116
112 117
112 118
112 119
112 120
112 121
112 145
112 147
112 148
112 152
112 153
112 155
112 158
112 160
112 166
112 168
112 173
112 175
112 176
112 177
112 178
112 179
112 180
112 181
112 186
112 191
112 193
112 195
112 197
112 199
112 200
112 201
112 202
112 203
112 204
112 219
112 220
112 224
112 225
112 239
112 242
112 243
112 252
112 253
112 261
112 262
112 263
112 264
112 265
112 266
112 267
112 291
112 311
112 312
112 333
112 334
112 335
112 336
112 337
112 339
112 345
112 351
112 352
112 353
112 354
112 355
112 356
112 357
112 358
112 359
112 361
112 362
112 363
112 364
112 365
112 376
112 377
112 378
112 379
112 380
112 381
112 383
112 384
112 385
112 386
112 387
112 388
112 389
112 390
112 391
112 392
112 393
112 398
112 403
112 407
112 411
112 415
112 419
112 421
112 422
112 423
112 424
112 425
112 426
112 427
112 428
112 429
112 430
112 431
112 432
112 433
112 434
112 435
112 445
112 446
112 448
112 451
112 452
112 454
112 465
112 467
112 469
112 471
113 114
113 115
113 116
113 117
113 118
113 119
113 120
113 121
113 144
113 146
113 147
113 148
113 149
113 152
113 153
113 155
113 157
113 159
113 160
113 161
113 162
113 163
113 164
113 165
113 166
113 167
113 168
113 169
113 170
113 171
113 172
113 174
113 176
113 186
113 191
113 192
113 194
113 195
113 196
113 198
113 200
113 202
113 204
113 219
113 220
113 224
113 225
113 239
113 242
113 243
113 252
113 253
113 260
113 262
113 263
113 264
113 265
113 266
113 267
113 291
113 311
113 312
113 332
113 334
113 335
113 336
113 337
113 338
113 340
113 341
113 342
113 343
113 344
113 345
113 346
113 347
113 348
113 349
113 350
113 352
113 353
113 354
113 355
113 356
113 357
113 358
113 360
113 375
113 377
113 378
113 379
113 380
113 381
113 382
113 384
113 385
113 386
113 387
113 388
113 389
113 390
113 391
113 392
113 393
113 398
113 403
113 407
113 411
113 415
113 419
113 420
113 422
113 423
113 424
113 425
113 426
113 427
113 428
113 429
113 430
113 431
113 432
113 433
113 434
113 435
113 445
113 446
113 448
113 451
113 452
113 454
113 464
113 466
113 467
113 468
113 469
113 470
113 471
114 115
114 116
114 117
114 118
114 119
114 120
114 121
114 145
114 147
114 148
114 150
114 151
114 153
114 154
114 155
114 156
114 158
114 160
114 166
114 168
114 173
114 174
114 175
114 177
114 178
114 179
114 180
114 181
114 186
114 191
114 193
114 195
114 198
114 200
114 202
114 204
114 219
114 220
114 224
114 225
114 239
114 240
114 241
114 243
114 244
114 245
114 246
114 247
114 248
114 249
114 250
114 251
114 252
114 253
114 254
114 255
114 256
114 257
114 258
114 259
114 260
114 261
114 263
114 264
114 265
114 267
114 291
114 309
114 310
114 312
114 313
114 314
114 315
114 316
114 317
114 318
114 319
114 332
114 333
114 335
114 336
114 337
114 339
114 345
114 350
114 351
114 353
114 354
114 355
114 356
114 357
114 358
114 360
114 375
114 376
114 382
114 383
114 388
114 389
114 398
114 403
114 407
114 411
114 415
114 419
114 420
114 421
114 423
114 424
114 425
114 426
114 427
114 428
114 429
114 430
114 431
114 432
114 433
114 434
114 435
114 443
114 444
114 446
114 447
114 448
114 449
114 450
114 451
114 452
114 453
114 454
114 465
114 467
114 469
114 471
115 116
115 117
115 118
115 119
115 120
115 121
115 144
115 145
115 146
115 148
115 149
115 150
115 151
115 152
115 154
115 155
115 156
115 157
115 158
115 159
115 161
115 162
115 163
115 164
115 165
115 166
115 167
115 168
115 169
115 170
115 171
115 172
115 174
115 176
115 186
115 191
115 193
115 195
115 198
115 200
115 202
115 204
115 219
115 220
115 224
115 225
115 239
115 240
115 241
115 242
115 244
115 245
115 246
115 247
115 248
115 249
115 250
115 251
115 252
115 253
115 254
115 255
115 256
115 257
115 258
115 259
115 260
115 261
115 263
115 264
115 265
115 267
115 291
115 309
115 310
115 311
115 313
115 314
115 315
115 316
115 317
115 318
115 319
115 332
115 333
115 334
115 336
115 337
115 339
115 345
115 350
115 351
115 352
115 354
115 355
115 356
115 357
115 358
115 360
115 375
115 376
115 382
115 383
115 388
115 389
115 398
115 403
115 407
115 411
115 415
115 419
115 420
115 421
115 422
115 424
115 425
115 426
115 427
115 428
115 429
115 430
115 431
115 432
115 433
115 434
115 435
115 443
115 444
115 445
115 447
115 448
115 449
115 450
115 451
115 452
115 453
115 454
115 465
115 467
115 469
115 471
116 117
116 118
116 119
116 120
116 121
116 144
116 145
116 146
116 147
116 149
116 150
116 151
116 152
116 153
116 154
116 156
116 158
116 160
116 166
116 168
116 174
116 176
116 182
116 183
116 184
116 185
116 187
116 188
116 189
116 190
116 191
116 192
116 193
116 194
116 196
116 197
116 198
116 199
116 201
116 202
116 203
116 204
116 219
116 220
116 224
116 225
116 239
116 242
116 243
116 252
116 253
116 260
116 261
116 262
116 264
116 265
116 266
116 267
116 287
116 288
116 289
116 290
116 292
116 311
116 312
116 332
116 333
116 334
116 335
116 337
116 339
116 345
116 350
116 351
116 352
116 353
116 360
116 375
116 376
116 382
116 383
116 388
116 389
116 394
116 395
116 396
116 397
116 399
116 400
116 401
116 402
116 403
116 404
116 405
116 406
116 408
116 409
116 410
116 411
116 412
116 413
116 414
116 416
116 417
116 418
116 419
116 420
116 421
116 422
116 423
116 428
116 429
116 430
116 431
116 443
116 444
116 445
116 446
116 447
116 449
116 450
116 451
116 452
116 453
116 454
116 464
116 465
116 466
116 468
116 469
116 470
116 471
117 118
117 119
117 120
117 121
117 145
117 147
117 148
117 152
117 153
117 155
117 158
117 160
117 166
117 168
117 174
117 176
117 186
117 191
117 193
117 195
117 197
117 198
117 199
117 200
117 201
117 203
117 204
117 217
117 218
117 220
117 221
117 222
117 223
117 224
117 225
117 226
117 227
117 228
117 229
117 230
117 231
117 232
117 233
117 234
117 235
117 236
117 237
117 238
117 239
117 242
117 243
117 252
117 253
117 260
117 261
117 262
117 263
117 265
117 266
117 267
117 291
117 311
117 312
117 332
117 333
117 334
117 335
117 336
117 339
117 345
117 350
117 351
117 352
117 353
117 360
117 375
117 376
117 382
117 383
117 384
117 385
117 386
117 387
117 389
117 390
117 391
117 392
117 393
117 398
117 403
117 407
117 411
117 415
117 419
117 420
117 421
117 422
117 423
117 424
117 425
117 426
117 427
117 429
117 430
117 431
117 432
117 433
117 434
117 435
117 445
117 446
117 448
117 451
117 452
117 454
117 465
117 467
117 469
117 471
118 119
118 120
118 121
118 145
118 147
118 148
118 152
118 153
118 155
118 157
118 158
118 159
118 160
118 161
118 162
118 163
118 164
118 165
118 167
118 168
118 169
118 170
118 171
118 172
118 174
118 176
118 186
118 191
118 193
118 195
118 198
118 200
118 202
118 204
118 217
118 218
118 219
118 221
118 222
118 223
118 224
118 225
118 226
118 227
118 228
118 229
118 230
118 231
118 232
118 233
118 234
118 235
118 236
118 237
118 238
118 239
118 242
118 243
118 252
118 253
118 260
118 261
118 262
118 263
118 264
118 266
118 267
118 291
118 311
118 312
118 332
118 333
118 334
118 335
118 336
118 338
118 339
118 340
118 341
118 342
118 343
118 344
118 346
118 347
118 348
118 349
118 350
118 351
118 352
118 353
118 360
118 375
118 376
118 382
118 383
118 384
118 385
118 386
118 387
118 388
118 390
118 391
118 392
118 393
118 398
118 403
118 407
118 411
118 415
118 419
118 420
118 421
118 422
118 423
118 424
118 425
118 426
118 427
118 428
118 430
118 431
118 432
118 433
118 434
118 435
118 445
118 446
118 448
118 451
118 452
118 454
118 464
118 465
118 466
118 467
118 468
118 470
118 471
119 120
119 121
119 145
119 147
119 148
119 152
119 153
119 155
119 158
119 160
119 166
119 168
119 174
119 176
119 186
119 191
119 193
119 195
119 198
119 200
119 202
119 204
119 217
119 218
119 219
119 220
119 221
119 222
119 223
119 225
119 226
119 227
119 228
119 229
119 230
119 231
119 232
119 233
119 234
119 235
119 236
119 237
119 238
119 239
119 240
119 241
119 242
119 243
119 244
119 245
119 246
119 247
119 248
119 249
119 250
119 251
119 253
119 254
119 255
119 256
119 257
119 258
119 259
119 260
119 261
119 263
119 264
119 265
119 267
119 291
119 311
119 312
119 332
119 333
119 334
119 335
119 336
119 339
119 345
119 350
119 351
119 352
119 353
119 360
119 375
119 376
119 382
119 383
119 388
119 389
119 398
119 403
119 407
119 411
119 415
119 419
119 420
119 421
119 422
119 423
119 424
119 425
119 426
119 427
119 428
119 429
119 431
119 432
119 433
119 434
119 435
119 443
119 444
119 445
119 446
119 447
119 448
119 449
119 450
119 452
119 453
119 454
119 465
119 467
119 469
119 471
120 121
120 145
120 147
120 148
120 152
120 153
120 155
120 157
120 158
120 159
120 160
120 161
120 162
120 163
120 164
120 165
120 166
120 167
120 169
120 170
120 171
120 172
120 174
120 176
120 186
120 191
120 193
120 195
120 198
120 200
120 202
120 204
120 217
120 218
120 219
120 220
120 221
120 222
120 223
120 224
120 226
120 227
120 228
120 229
120 230
120 231
120 232
120 233
120 234
120 235
120 236
120 237
120 238
120 239
120 240
120 241
120 242
120 243
120 244
120 245
120 246
120 247
120 248
120 249
120 250
120 251
120 252
120 254
120 255
120 256
120 257
120 258
120 259
120 260
120 261
120 263
120 264
120 265
120 267
120 291
120 311
120 312
120 332
120 333
120 334
120 335
120 336
120 339
120 345
120 350
120 351
120 352
120 353
120 360
120 375
120 376
120 382
120 383
120 388
120 389
120 398
120 403
120 407
120 411
120 415
120 419
120 420
120 421
120 422
120 423
120 424
120 425
120 426
120 427
120 428
120 429
120 430
120 432
120 433
120 434
120 435
120 443
120 444
120 445
120 446
120 447
120 448
120 449
120 450
120 451
120 453
120 454
120 465
120 467
120 469
120 471
121 145
121 147
121 148
121 152
121 153
121 155
121 158
121 160
121 166
121 168
121 174
121 176
121 182
121 183
121 184
121 185
121 186
121 187
121 188
121 189
121 190
121 193
121 195
121 197
121 198
121 199
121 200
121 201
121 202
121 203
121 217
121 218
121 219
121 220
121 221
121 222
121 223
121 224
121 225
121 226
121 227
121 228
121 229
121 230
121 231
121 232
121 233
121 234
121 235
121 236
121 237
121 238
121 242
121 243
121 252
121 253
121 260
121 261
121 262
121 263
121 264
121 265
121 266
121 291
121 311
121 312
121 332
121 333
121 334
121 335
121 336
121 339
121 345
121 350
121 351
121 352
121 353
121 360
121 375
121 376
121 382
121 383
121 388
121 389
121 394
121 395
121 396
121 397
121 398
121 399
121 400
121 401
121 402
121 404
121 405
121 406
121 407
121 408
121 409
121 410
121 412
121 413
121 414
121 415
121 416
121 417
121 418
121 420
121 421
121 422
121 423
121 428
121 429
121 430
121 431
121 443
121 444
121 445
121 446
121 447
121 448
121 449
121 450
121 451
121 452
121 453
121 464
121 465
121 466
121 467
121 468
121 469
121 470
122 123
122 124
122 125
122 126
122 127
122 128
122 129
122 130
122 131
122 132
122 133
122 134
122 135
122 136
122 137
122 138
122 139
122 140
122 141
122 142
122 143
122 161
122 162
122 163
122 164
122 169
122 170
122 171
122 172
122 173
122 174
122 175
122 176
122 178
122 179
122 180
122 181
122 206
122 207
122 208
122 209
122 210
122 211
122 212
122 213
122 214
122 215
122 216
122 228
122 229
122 230
122 231
122 232
122 233
122 234
122 235
122 236
122 237
122 238
122 245
122 246
122 247
122 248
122 249
122 255
122 256
122 257
122 258
122 259
122 268
122 269
122 270
122 272
122 273
122 274
122 275
122 276
122 277
122 279
122 280
122 281
122 282
122 283
122 284
122 285
122 286
122 297
122 298
122 299
122 300
122 305
122 306
122 307
122 308
122 314
122 315
122 316
122 317
122 318
122 323
122 324
122 325
122 329
122 330
122 331
122 341
122 342
122 343
122 347
122 348
122 349
122 354
122 355
122 356
122 357
122 359
122 360
122 361
122 363
122 364
122 365
122 366
122 367
122 368
122 369
122 371
122 372
122 373
122 374
122 378
122 379
122 380
122 385
122 386
122 387
122 391
122 392
122 393
122 424
122 425
122 426
122 427
122 432
122 433
122 434
122 435
122 439
122 440
122 441
122 459
122 460
122 461
122 462
123 124
123 125
123 126
123 127
123 128
123 129
123 130
123 131
123 132
123 133
123 134
123 135
123 136
123 137
123 138
123 139
123 140
123 141
123 142
123 143
123 157
123 158
123 159
123 160
123 162
123 163
123 164
123 165
123 166
123 167
123 168
123 169
123 170
123 171
123 172
123 177
123 178
123 179
123 180
123 205
123 207
123 208
123 209
123 210
123 211
123 212
123 213
123 214
123 215
123 216
123 228
123 229
123 230
123 231
123 232
123 233
123 234
123 235
123 236
123 237
123 238
123 245
123 246
123 247
123 248
123 249
123 255
123 256
123 257
123 258
123 259
123 271
123 272
123 273
123 278
123 279
123 280
123 284
123 285
123 286
123 293
123 294
123 295
123 296
123 298
123 299
123 300
123 301
123 302
123 303
123 304
123 305
123 306
123 307
123 308
123 314
123 315
123 316
123 317
123 318
123 320
123 321
123 322
123 324
123 325
123 326
123 327
123 328
123 329
123 330
123 331
123 338
123 339
123 340
123 342
123 343
123 344
123 345
123 346
123 347
123 348
123 349
123 354
123 355
123 356
123 357
123 362
123 363
123 364
123 370
123 371
123 372
123 373
123 378
123 379
123 380
123 385
123 386
123 387
123 391
123 392
123 393
123 424
123 425
123 426
123 427
123 432
123 433
123 434
123 435
123 436
123 437
123 438
123 440
123 441
123 442
123 455
123 456
123 457
123 458
123 460
123 461
123 462
123 463
124 125
124 126
124 127
124 128
124 129
124 130
124 131
124 132
124 133
124 134
124 135
124 136
124 137
124 138
124 139
124 140
124 141
124 142
124 143
124 161
124 162
124 163
124 164
124 169
124 170
124 171
124 172
124 173
124 174
124 175
124 176
124 177
124 179
124 180
124 181
124 205
124 206
124 208
124 209
124 210
124 211
124 212
124 213
124 214
124 215
124 216
124 228
124 229
124 230
124 231
124 232
124 233
124 234
124 235
124 236
124 237
124 238
124 245
124 246
124 247
124 248
124 249
124 255
124 256
124 257
124 258
124 259
124 271
124 272
124 273
124 278
124 279
124 280
124 284
124 285
124 286
124 297
124 298
124 299
124 300
124 305
124 306
124 307
124 308
124 314
124 315
124 316
124 317
124 318
124 323
124 324
124 325
124 329
124 330
124 331
124 341
124 342
124 343
124 347
124 348
124 349
124 350
124 351
124 352
124 353
124 355
124 356
124 357
124 358
124 359
124 360
124 361
124 362
124 364
124 365
124 370
124 371
124 372
124 373
124 375
124 376
124 377
124 379
124 380
124 381
124 382
124 383
124 384
124 386
124 387
124 388
124 389
124 390
124 391
124 392
124 393
124 420
124 421
124 422
124 423
124 425
124 426
124 427
124 428
124 429
124 430
124 431
124 432
124 433
124 434
124 435
124 439
124 440
124 441
124 459
124 460
124 461
124 462
125 126
125 127
125 128
125 129
125 130
125 131
125 132
125 133
125 134
125 135
125 136
125 137
125 138
125 139
125 140
125 141
125 142
125 143
125 157
125 158
125 159
125 160
125 161
125 163
125 164
125 165
125 166
125 167
125 168
125 169
125 170
125 171
125 172
125 177
125 178
125 179
125 180
125 205
125 206
125 207
125 209
125 210
125 211
125 212
125 213
125 214
125 215
125 216
125 228
125 229
125 230
125 231
125 232
125 233
125 234
125 235
125 236
125 237
125 238
125 245
125 246
125 247
125 248
125 249
125 255
125 256
125 257
125 258
125 259
125 271
125 272
125 273
125 278
125 279
125 280
125 284
125 285
125 286
125 297
125 298
125 299
125 300
125 305
125 306
125 307
125 308
125 314
125 315
125 316
125 317
125 318
125 323
125 324
125 325
125 329
125 330
125 331
125 338
125 339
125 340
125 341
125 343
125 344
125 345
125 346
125 347
125 348
125 349
125 350
125 351
125 352
125 353
125 354
125 356
125 357
125 358
125 362
125 363
125 364
125 370
125 371
125 372
125 373
125 375
125 376
125 377
125 378
125 380
125 381
125 382
125 383
125 384
125 385
125 387
125 388
125 389
125 390
125 391
125 392
125 393
125 420
125 421
125 422
125 423
125 424
125 426
125 427
125 428
125 429
125 430
125 431
125 432
125 433
125 434
125 435
125 439
125 440
125 441
125 459
125 460
125 461
125 462
126 127
126 128
126 129
126 130
126 131
126 132
126 133
126 134
126 135
126 136
126 137
126 138
126 139
126 140
126 141
126 142
126 143
126 161
126 162
126 163
126 164
126 169
126 170
126 171
126 172
126 177
126 178
126 179
126 180
126 205
126 206
126 207
126 208
126 210
126 211
126 212
126 213
126 214
126 215
126 216
126 228
126 229
126 230
126 231
126 232
126 233
126 234
126 235
126 236
126 237
126 238
126 245
126 246
126 247
126 248
126 249
126 255
126 256
126 257
126 258
126 259
126 268
126 269
126 270
126 271
126 273
126 274
126 275
126 276
126 277
126 278
126 280
126 281
126 282
126 283
126 284
126 285
126 286
126 293
126 294
126 295
126 296
126 297
126 299
126 300
126 301
126 302
126 303
126 304
126 305
126 306
126 307
126 308
126 314
126 315
126 316
126 317
126 318
126 320
126 321
126 322
126 323
126 325
126 326
126 327
126 328
126 329
126 330
126 331
126 341
126 342
126 343
126 347
126 348
126 349
126 354
126 355
126 356
126 357
126 362
126 363
126 364
126 366
126 367
126 368
126 369
126 370
126 372
126 373
126 374
126 378
126 379
126 380
126 385
126 386
126 387
126 391
126 392
126 393
126 424
126 425
126 426
126 427
126 432
126 433
126 434
126 435
126 436
126 437
126 438
126 439
126 441
126 442
126 455
126 456
126 457
126 458
126 459
126 461
126 462
126 463
127 128
127 129
127 130
127 131
127 132
127 133
127 134
127 135
127 136
127 137
127 138
127 139
127 140
127 141
127 142
127 143
127 161
127 162
127 163
127 164
127 169
127 170
127 171
127 172
127 173
127 174
127 175
127 176
127 177
127 178
127 180
127 181
127 205
127 206
127 207
127 208
127 209
127 211
127 212
127 213
127 214
127 215
127 216
127 228
127 229
127 230
127 231
127 232
127 233
127 234
127 235
127 236
127 237
127 238
127 240
127 241
127 242
127 243
127 244
127 246
127 247
127 248
127 249
127 250
127 251
127 252
127 253
127 254
127 255
127 256
127 257
127 258
127 259
127 271
127 272
127 273
127 278
127 279
127 280
127 284
127 285
127 286
127 297
127 298
127 299
127 300
127 305
127 306
127 307
127 308
127 309
127 310
127 311
127 312
127 313
127 315
127 316
127 317
127 318
127 319
127 323
127 324
127 325
127 329
127 330
127 331
127 341
127 342
127 343
127 347
127 348
127 349
127 354
127 355
127 356
127 357
127 362
127 363
127 364
127 366
127 367
127 368
127 369
127 370
127 371
127 373
127 374
127 378
127 379
127 380
127 385
127 386
127 387
127 391
127 392
127 393
127 424
127 425
127 426
127 427
127 432
127 433
127 434
127 435
127 439
127 440
127 441
127 459
127 460
127 461
127 462
128 129
128 130
128 131
128 132
128 133
128 134
128 135
128 136
128 137
128 138
128 139
128 140
128 141
128 142
128 143
128 157
128 158
128 159
128 160
128 161
128 162
128 164
128 165
128 166
128 167
128 168
128 169
128 170
128 171
128 172
128 177
128 178
128 179
128 180
128 205
128 206
128 207
128 208
128 209
128 210
128 212
128 213
128 214
128 215
128 216
128 228
128 229
128 230
128 231
128 232
128 233
128 234
128 235
128 236
128 237
128 238
128 240
128 241
128 242
128 243
128 244
128 245
128 247
128 248
128 249
128 250
128 251
128 252
128 253
128 254
128 255
128 256
128 257
128 258
128 259
128 271
128 272
128 273
128 278
128 279
128 280
128 284
128 285
128 286
128 293
128 294
128 295
128 296
128 297
128 298
128 300
128 301
128 302
128 303
128 304
128 305
128 306
128 307
128 308
128 309
128 310
128 311
128 312
128 313
128 314
128 316
128 317
128 318
128 319
128 323
128 324
128 325
128 329
128 330
128 331
128 341
128 342
128 343
128 347
128 348
128 349
128 354
128 355
128 356
128 357
128 362
128 363
128 364
128 370
128 371
128 372
128 373
128 378
128 379
128 380
128 385
128 386
128 387
128 391
128 392
128 393
128 424
128 425
128 426
128 427
128 432
128 433
128 434
128 435
128 439
128 440
128 441
128 455
128 456
128 457
128 458
128 459
128 460
128 462
128 463
129 130
129 131
129 132
129 133
129 134
129 135
129 136
129 137
129 138
129 139
129 140
129 141
129 142
129 143
129 161
129 162
129 163
129 164
129 169
129 170
129 171
129 172
129 173
129 174
129 175
129 176
129 177
129 178
129 179
129 181
129 205
129 206
129 207
129 208
129 209
129 210
129 211
129 213
129 214
129 215
129 216
129 228
129 229
129 230
129 231
129 232
129 233
129 234
129 235
129 236
129 237
129 238
129 240
129 241
129 242
129 243
129 244
129 245
129 246
129 248
129 249
129 250
129 251
129 252
129 253
129 254
129 255
129 256
129 257
129 258
129 259
129 271
129 272
129 273
129 278
129 279
129 280
129 284
129 285
129 286
129 297
129 298
129 299
129 300
129 305
129 306
129 307
129 308
129 309
129 310
129 311
129 312
129 313
129 314
129 315
129 317
129 318
129 319
129 323
129 324
129 325
129 329
129 330
129 331
129 341
129 342
129 343
129 347
129 348
129 349
129 350
129 351
129 352
129 353
129 354
129 355
129 357
129 358
129 362
129 363
129 364
129 370
129 371
129 372
129 373
129 378
129 379
129 380
129 385
129 386
129 387
129 391
129 392
129 393
129 420
129 421
129 422
129 423
129 424
129 425
129 427
129 428
129 429
129 430
129 431
129 432
129 433
129 434
129 435
129 439
129 440
129 441
129 459
129 460
129 461
129 462
130 131
130 132
130 133
130 134
130 135
130 136
130 137
130 138
130 139
130 140
130 141
130 142
130 143
130 157
130 158
130 159
130 160
130 161
130 162
130 163
130 165
130 166
130 167
130 168
130 169
130 170
130 171
130 172
130 177
130 178
130 179
130 180
130 205
130 206
130 207
130 208
130 209
130 210
130 211
130 212
130 214
130 215
130 216
130 228
130 229
130 230
130 231
130 232
130 233
130 234
130 235
130 236
130 237
130 238
130 240
130 241
130 242
130 243
130 244
130 245
130 246
130 247
130 249
130 250
130 251
130 252
130 253
130 254
130 255
130 256
130 257
130 258
130 259
130 271
130 272
130 273
130 278
130 279
130 280
130 284
130 285
130 286
130 297
130 298
130 299
130 300
130 305
130 306
130 307
130 308
130 309
130 310
130 311
130 312
130 313
130 314
130 315
130 316
130 318
130 319
130 323
130 324
130 325
130 329
130 330
130 331
130 341
130 342
130 343
130 347
130 348
130 349
130 350
130 351
130 352
130 353
130 354
130 355
130 356
130 358
130 362
130 363
130 364
130 370
130 371
130 372
130 373
130 378
130 379
130 380
130 385
130 386
130 387
130 391
130 392
130 393
130 420
130 421
130 422
130 423
130 424
130 425
130 426
130 428
130 429
130 430
130 431
130 432
130 433
130 434
130 435
130 439
130 440
130 441
130 459
130 460
130 461
130 462
131 132
131 133
131 134
131 135
131 136
131 137
131 138
131 139
131 140
131 141
131 142
131 143
131 161
131 162
131 163
131 164
131 169
131 170
131 171
131 172
131 177
131 178
131 179
131 180
131 205
131 206
131 207
131 208
131 209
131 210
131 211
131 212
131 213
131 215
131 216
131 228
131 229
131 230
131 231
131 232
131 233
131 234
131 235
131 236
131 237
131 238
131 240
131 241
131 242
131 243
131 244
131 245
131 246
131 247
131 248
131 250
131 251
131 252
131 253
131 254
131 255
131 256
131 257
131 258
131 259
131 271
131 272
131 273
131 278
131 279
131 280
131 284
131 285
131 286
131 293
131 294
131 295
131 296
131 297
131 298
131 299
131 301
131 302
131 303
131 304
131 305
131 306
131 307
131 308
131 309
131 310
131 311
131 312
131 313
131 314
131 315
131 316
131 317
131 319
131 323
131 324
131 325
131 329
131 330
131 331
131 341
131 342
131 343
131 347
131 348
131 349
131 354
131 355
131 356
131 357
131 362
131 363
131 364
131 366
131 367
131 368
131 369
131 370
131 371
131 372
131 374
131 378
131 379
131 380
131 385
131 386
131 387
131 391
131 392
131 393
131 424
131 425
131 426
131 427
131 432
131 433
131 434
131 435
131 439
131 440
131 441
131 455
131 456
131 457
131 458
131 459
131 460
131 461
131 463
132 133
132 134
132 135
132 136
132 137
132 138
132 139
132 140
132 141
132 142
132 143
132 161
132 162
132 163
132 164
132 169
132 170
132 171
132 172
132 177
132 178
132 179
132 180
132 205
132 206
132 207
132 208
132 209
132 210
132 211
132 212
132 213
132 214
132 216
132 228
132 229
132 230
132 231
132 232
132 233
132 234
132 235
132 236
132 237
132 238
132 245
132 246
132 247
132 248
132 249
132 255
132 256
132 257
132 258
132 259
132 268
132 269
132 270
132 271
132 272
132 274
132 275
132 276
132 277
132 278
132 279
132 281
132 282
132 283
132 284
132 285
132 286
132 297
132 298
132 299
132 300
132 305
132 306
132 307
132 308
132 314
132 315
132 316
132 317
132 318
132 320
132 321
132 322
132 323
132 324
132 326
132 327
132 328
132 329
132 330
132 331
132 338
132 339
132 340
132 341
132 342
132 344
132 345
132 346
132 347
132 348
132 349
132 354
132 355
132 356
132 357
132 359
132 360
132 361
132 362
132 363
132 365
132 370
132 371
132 372
132 373
132 375
132 376
132 377
132 378
132 379
132 381
132 382
132 383
132 384
132 385
132 386
132 388
132 389
132 390
132 391
132 392
132 393
132 424
132 425
132 426
132 427
132 432
132 433
132 434
132 435
132 436
132 437
132 438
132 439
132 440
132 442
132 459
132 460
132 461
132 462
133 134
133 135
133 136
133 137
133 138
133 139
133 140
133 141
133 142
133 143
133 161
133 162
133 163
133 164
133 169
133 170
133 171
133 172
133 177
133 178
133 179
133 180
133 205
133 206
133 207
133 208
133 209
133 210
133 211
133 212
133 213
133 214
133 215
133 217
133 218
133 219
133 220
133 221
133 222
133 223
133 224
133 225
133 226
133 227
133 229
133 230
133 231
133 232
133 233
133 234
133 235
133 236
133 237
133 238
133 239
133 245
133 246
133 247
133 248
133 249
133 255
133 256
133 257
133 258
133 259
133 271
133 272
133 273
133 275
133 276
133 277
133 278
133 279
133 280
133 281
133 282
133 283
133 285
133 286
133 297
133 298
133 299
133 300
133 305
133 306
133 307
133 308
133 314
133 315
133 316
133 317
133 318
133 323
133 324
133 325
133 329
133 330
133 331
133 341
133 342
133 343
133 347
133 348
133 349
133 354
133 355
133 356
133 357
133 362
133 363
133 364
133 370
133 371
133 372
133 373
133 378
133 379
133 380
133 385
133 386
133 387
133 391
133 392
133 393
133 424
133 425
133 426
133 427
133 432
133 433
133 434
133 435
133 439
133 440
133 441
133 459
133 460
133 461
133 462
134 135
134 136
134 137
134 138
134 139
134 140
134 141
134 142
134 143
134 157
134 158
134 159
134 160
134 161
134 162
134 163
134 164
134 165
134 166
134 167
134 168
134 170
134 171
134 172
134 177
134 178
134 179
134 180
134 205
134 206
134 207
134 208
134 209
134 210
134 211
134 212
134 213
134 214
134 215
134 217
134 218
134 219
134 220
134 221
134 222
134 223
134 224
134 225
134 226
134 227
134 228
134 230
134 231
134 232
134 233
134 234
134 235
134 236
134 237
134 238
134 239
134 245
134 246
134 247
134 248
134 249
134 255
134 256
134 257
134 258
134 259
134 271
134 272
134 273
134 278
134 279
134 280
134 284
134 285
134 286
134 293
134 294
134 295
134 296
134 297
134 298
134 299
134 300
134 301
134 302
134 303
134 304
134 306
134 307
134 308
134 314
134 315
134 316
134 317
134 318
134 320
134 321
134 322
134 323
134 324
134 325
134 326
134 327
134 328
134 330
134 331
134 338
134 339
134 340
134 341
134 342
134 343
134 344
134 345
134 346
134 348
134 349
134 354
134 355
134 356
134 357
134 362
134 363
134 364
134 370
134 371
134 372
134 373
134 378
134 379
134 380
134 385
134 386
134 387
134 391
134 392
134 393
134 424
134 425
134 426
134 427
134 432
134 433
134 434
134 435
134 439
134 440
134 441
134 459
134 460
134 461
134 462
135 136
135 137
135 138
135 139
135 140
135 141
135 142
135 143
135 161
135 162
135 163
135 164
135 169
135 170
135 171
135 172
135 177
135 178
135 179
135 180
135 205
135 206
135 207
135 208
135 209
135 210
135 211
135 212
135 213
135 214
135 215
135 217
135 218
135 219
135 220
135 221
135 222
135 223
135 224
135 225
135 226
135 227
135 228
135 229
135 231
135 232
135 233
135 234
135 235
135 236
135 237
135 238
135 239
135 245
135 246
135 247
135 248
135 249
135 255
135 256
135 257
135 258
135 259
135 271
135 272
135 273
135 278
135 279
135 280
135 284
135 285
135 286
135 297
135 298
135 299
135 300
135 305
135 306
135 307
135 308
135 314
135 315
135 316
135 317
135 318
135 323
135 324
135 325
135 329
135 330
135 331
135 341
135 342
135 343
135 347
135 348
135 349
135 354
135 355
135 356
135 357
135 362
135 363
135 364
135 370
135 371
135 372
135 373
135 378
135 379
135 380
135 382
135 383
135 384
135 385
135 386
135 387
135 388
135 389
135 390
135 392
135 393
135 420
135 421
135 422
135 423
135 424
135 425
135 426
135 427
135 428
135 429
135 430
135 431
135 433
135 434
135 435
135 439
135 440
135 441
135 459
135 460
135 461
135 462
136 137
136 138
136 139
136 140
136 141
136 142
136 143
136 157
136 158
136 159
136 160
136 161
136 162
136 163
136 164
136 165
136 166
136 167
136 168
136 169
136 171
136 172
136 177
136 178
136 179
136 180
136 205
136 206
136 207
136 208
136 209
136 210
136 211
136 212
136 213
136 214
136 215
136 217
136 218
136 219
136 220
136 221
136 222
136 223
136 224
136 225
136 226
136 227
136 228
136 229
136 230
136 232
136 233
136 234
136 235
136 236
136 237
136 238
136 239
136 245
136 246
136 247
136 248
136 249
136 255
136 256
136 257
136 258
136 259
136 271
136 272
136 273
136 278
136 279
136 280
136 284
136 285
136 286
136 297
136 298
136 299
136 300
136 305
136 306
136 307
136 308
136 314
136 315
136 316
136 317
136 318
136 323
136 324
136 325
136 329
136 330
136 331
136 338
136 339
136 340
136 341
136 342
136 343
136 344
136 345
136 346
136 347
136 349
136 354
136 355
136 356
136 357
136 362
136 363
136 364
136 370
136 371
136 372
136 373
136 378
136 379
136 380
136 382
136 383
136 384
136 385
136 386
136 387
136 388
136 389
136 390
136 391
136 393
136 420
136 421
136 422
136 423
136 424
136 425
136 426
136 427
136 428
136 429
136 430
136 431
136 432
136 434
136 435
136 439
136 440
136 441
136 459
136 460
136 461
136 462
137 138
137 139
137 140
137 141
137 142
137 143
137 161
137 162
137 163
137 164
137 169
137 170
137 171
137 172
137 177
137 178
137 179
137 180
137 205
137 206
137 207
137 208
137 209
137 210
137 211
137 212
137 213
137 214
137 215
137 217
137 218
137 219
137 220
137 221
137 222
137 223
137 224
137 225
137 226
137 227
137 228
137 229
137 230
137 231
137 233
137 234
137 235
137 236
137 237
137 238
137 239
137 245
137 246
137 247
137 248
137 249
137 255
137 256
137 257
137 258
137 259
137 271
137 272
137 273
137 275
137 276
137 277
137 278
137 279
137 280
137 281
137 282
137 283
137 284
137 286
137 293
137 294
137 295
137 296
137 297
137 298
137 299
137 300
137 301
137 302
137 303
137 304
137 305
137 307
137 308
137 314
137 315
137 316
137 317
137 318
137 320
137 321
137 322
137 323
137 324
137 325
137 326
137 327
137 328
137 329
137 331
137 341
137 342
137 343
137 347
137 348
137 349
137 354
137 355
137 356
137 357
137 362
137 363
137 364
137 370
137 371
137 372
137 373
137 378
137 379
137 380
137 385
137 386
137 387
137 391
137 392
137 393
137 424
137 425
137 426
137 427
137 432
137 433
137 434
137 435
137 439
137 440
137 441
137 459
137 460
137 461
137 462
138 139
138 140
138 141
138 142
138 143
138 161
138 162
138 163
138 164
138 169
138 170
138 171
138 172
138 177
138 178
138 179
138 180
138 205
138 206
138 207
138 208
138 209
138 210
138 211
138 212
138 213
138 214
138 215
138 217
138 218
138 219
138 220
138 221
138 222
138 223
138 224
138 225
138 226
138 227
138 228
138 229
138 230
138 231
138 232
138 234
138 235
138 236
138 237
138 238
138 239
138 240
138 241
138 242
138 243
138 244
138 245
138 246
138 247
138 248
138 249
138 250
138 251
138 252
138 253
138 254
138 256
138 257
138 258
138 259
138 271
138 272
138 273
138 278
138 279
138 280
138 284
138 285
138 286
138 297
138 298
138 299
138 300
138 305
138 306
138 307
138 308
138 314
138 315
138 316
138 317
138 318
138 323
138 324
138 325
138 329
138 330
138 331
138 341
138 342
138 343
138 347
138 348
138 349
138 354
138 355
138 356
138 357
138 362
138 363
138 364
138 370
138 371
138 372
138 373
138 378
138 379
138 380
138 385
138 386
138 387
138 391
138 392
138 393
138 424
138 425
138 426
138 427
138 432
138 433
138 434
138 435
138 439
138 440
138 441
138 459
138 460
138 461
138 462
139 140
139 141
139 142
139 143
139 157
139 158
139 159
139 160
139 161
139 162
139 163
139 164
139 165
139 166
139 167
139 168
139 169
139 170
139 172
139 177
139 178
139 179
139 180
139 205
139 206
139 207
139 208
139 209
139 210
139 211
139 212
139 213
139 214
139 215
139 217
139 218
139 219
139 220
139 221
139 222
139 223
139 224
139 225
139 226
139 227
139 228
139 229
139 230
139 231
139 232
139 233
139 235
139 236
139 237
139 238
139 239
139 240
139 241
139 242
139 243
139 244
139 245
139 246
139 247
139 248
139 249
139 250
139 251
139 252
139 253
139 254
139 255
139 257
139 258
139 259
139 271
139 272
139 273
139 278
139 279
139 280
139 284
139 285
139 286
139 293
139 294
139 295
139 296
139 297
139 298
139 299
139 300
139 301
139 302
139 303
139 304
139 305
139 306
139 308
139 314
139 315
139 316
139 317
139 318
139 323
139 324
139 325
139 329
139 330
139 331
139 341
139 342
139 343
139 347
139 348
139 349
139 354
139 355
139 356
139 357
139 362
139 363
139 364
139 370
139 371
139 372
139 373
139 378
139 379
139 380
139 385
139 386
139 387
139 391
139 392
139 393
139 424
139 425
139 426
139 427
139 432
139 433
139 434
139 435
139 439
139 440
139 441
139 459
139 460
139 461
139 462
140 141
140 142
140 143
140 161
140 162
140 163
140 164
140 169
140 170
140 171
140 172
140 177
140 178
140 179
140 180
140 205
140 206
140 207
140 208
140 209
140 210
140 211
140 212
140 213
140 214
140 215
140 217
140 218
140 219
140 220
140 221
140 222
140 223
140 224
140 225
140 226
140 227
140 228
140 229
140 230
140 231
140 232
140 233
140 234
140 236
140 237
140 238
140 239
140 240
140 241
140 242
140 243
140 244
140 245
140 246
140 247
140 248
140 249
140 250
140 251
140 252
140 253
140 254
140 255
140 256
140 258
140 259
140 271
140 272
140 273
140 278
140 279
140 280
140 284
140 285
140 286
140 297
140 298
140 299
140 300
140 305
140 306
140 307
140 308
140 314
140 315
140 316
140 317
140 318
140 323
140 324
140 325
140 329
140 330
140 331
140 341
140 342
140 343
140 347
140 348
140 349
140 354
140 355
140 356
140 357
140 362
140 363
140 364
140 370
140 371
140 372
140 373
140 378
140 379
140 380
140 385
140 386
140 387
140 391
140 392
140 393
140 420
140 421
140 422
140 423
140 424
140 425
140 426
140 427
140 428
140 429
140 430
140 431
140 432
140 433
140 435
140 439
140 440
140 441
140 459
140 460
140 461
140 462
141 142
141 143
141 157
141 158
141 159
141 160
141 161
141 162
141 163
141 164
141 165
141 166
141 167
141 168
141 169
141 170
141 171
141 177
141 178
141 179
141 180
141 205
141 206
141 207
141 208
141 209
141 210
141 211
141 212
141 213
141 214
141 215
141 217
141 218
141 219
141 220
141 221
141 222
141 223
141 224
141 225
141 226
141 227
141 228
141 229
141 230
141 231
141 232
141 233
141 234
141 235
141 237
141 238
141 239
141 240
141 241
141 242
141 243
141 244
141 245
141 246
141 247
141 248
141 249
141 250
141 251
141 252
141 253
141 254
141 255
141 256
141 257
141 259
141 271
141 272
141 273
141 278
141 279
141 280
141 284
141 285
141 286
141 297
141 298
141 299
141 300
141 305
141 306
141 307
141 308
141 314
141 315
141 316
141 317
141 318
141 323
141 324
141 325
141 329
141 330
141 331
141 341
141 342
141 343
141 347
141 348
141 349
141 354
141 355
141 356
141 357
141 362
141 363
141 364
141 370
141 371
141 372
141 373
141 378
141 379
141 380
141 385
141 386
141 387
141 391
141 392
141 393
141 420
141 421
141 422
141 423
141 424
141 425
141 426
141 427
141 428
141 429
141 430
141 431
141 432
141 433
141 434
141 439
141 440
141 441
141 459
141 460
141 461
141 462
142 143
142 161
142 162
142 163
142 164
142 169
142 170
142 171
142 172
142 177
142 178
142 179
142 180
142 205
142 206
142 207
142 208
142 209
142 210
142 211
142 212
142 213
142 214
142 215
142 217
142 218
142 219
142 220
142 221
142 222
142 223
142 224
142 225
142 226
142 227
142 228
142 229
142 230
142 231
142 232
142 233
142 234
142 235
142 236
142 238
142 239
142 240
142 241
142 242
142 243
142 244
142 245
142 246
142 247
142 248
142 249
142 250
142 251
142 252
142 253
142 254
142 255
142 256
142 257
142 258
142 271
142 272
142 273
142 278
142 279
142 280
142 284
142 285
142 286
142 293
142 294
142 295
142 296
142 297
142 298
142 299
142 300
142 301
142 302
142 303
142 304
142 305
142 306
142 307
142 314
142 315
142 316
142 317
142 318
142 323
142 324
142 325
142 329
142 330
142 331
142 341
142 342
142 343
142 347
142 348
142 349
142 354
142 355
142 356
142 357
142 362
142 363
142 364
142 370
142 371
142 372
142 373
142 378
142 379
142 380
142 385
142 386
142 387
142 391
142 392
142 393
142 424
142 425
142 426
142 427
142 432
142 433
142 434
142 435
142 439
142 440
142 441
142 459
142 460
142 461
142 462
143 161
143 162
143 163
143 164
143 169
143 170
143 171
143 172
143 177
143 178
143 179
143 180
143 205
143 206
143 207
143 208
143 209
143 210
143 211
143 212
143 213
143 214
143 215
143 217
143 218
143 219
143 220
143 221
143 222
143 223
143 224
143 225
143 226
143 227
143 228
143 229
143 230
143 231
143 232
143 233
143 234
143 235
143 236
143 237
143 239
143 245
143 246
143 247
143 248
143 249
143 255
143 256
143 257
143 258
143 259
143 271
143 272
143 273
143 275
143 276
143 277
143 278
143 279
143 280
143 281
143 282
143 283
143 284
143 285
143 297
143 298
143 299
143 300
143 305
143 306
143 307
143 308
143 314
143 315
143 316
143 317
143 318
143 320
143 321
143 322
143 323
143 324
143 325
143 326
143 327
143 328
143 329
143 330
143 338
143 339
143 340
143 341
143 342
143 343
143 344
143 345
143 346
143 347
143 348
143 354
143 355
143 356
143 357
143 362
143 363
143 364
143 370
143 371
143 372
143 373
143 378
143 379
143 380
143 382
143 383
143 384
143 385
143 386
143 387
143 388
143 389
143 390
143 391
143 392
143 424
143 425
143 426
143 427
143 432
143 433
143 434
143 435
143 439
143 440
143 441
143 459
143 460
143 461
143 462
144 145
144 146
144 147
144 148
144 149
144 151
144 153
144 155
144 156
144 158
144 159
144 160
144 161
144 162
144 163
144 164
144 165
144 166
144 167
144 168
144 169
144 170
144 171
144 172
144 181
144 186
144 193
144 194
144 195
144 196
144 200
144 216
144 241
144 243
144 261
144 263
144 274
144 291
144 292
144 294
144 295
144 296
144 297
144 298
144 299
144 300
144 301
144 302
144 303
144 304
144 305
144 306
144 307
144 308
144 310
144 312
144 319
144 321
144 322
144 323
144 324
144 325
144 326
144 327
144 328
144 329
144 330
144 331
144 333
144 335
144 336
144 337
144 339
144 340
144 341
144 342
144 343
144 344
144 345
144 346
144 347
144 348
144 349
144 351
144 353
144 358
144 365
144 374
144 376
144 381
144 383
144 395
144 396
144 397
144 398
144 399
144 400
144 401
144 402
144 403
144 407
144 413
144 414
144 415
144 416
144 417
144 418
144 419
144 421
144 423
144 437
144 438
144 439
144 440
144 441
144 442
144 444
144 446
144 448
144 456
144 457
144 458
144 459
144 460
144 461
144 462
144 463
144 465
144 466
144 467
144 468
144 469
144 470
144 471
145 146
145 147
145 148
145 149
145 151
145 153
145 155
145 156
145 157
145 159
145 160
145 161
145 162
145 163
145 164
145 165
145 166
145 167
145 168
145 169
145 170
145 171
145 172
145 181
145 186
145 192
145 194
145 195
145 196
145 200
145 216
145 241
145 243
145 260
145 262
145 263
145 264
145 265
145 266
145 267
145 274
145 291
145 292
145 293
145 295
145 310
145 312
145 319
145 320
145 332
145 334
145 335
145 336
145 337
145 338
145 340
145 341
145 342
145 343
145 344
145 345
145 346
145 347
145 348
145 349
145 350
145 352
145 353
145 354
145 355
145 356
145 357
145 358
145 365
145 374
145 375
145 377
145 378
145 379
145 380
145 381
145 382
145 384
145 385
145 386
145 387
145 388
145 389
145 390
145 391
145 392
145 393
145 394
145 396
145 398
145 407
145 412
145 415
145 420
145 422
145 423
145 424
145 425
145 426
145 427
145 428
145 429
145 430
145 431
145 432
145 433
145 434
145 435
145 436
145 442
145 444
145 446
145 448
145 455
145 457
145 463
145 464
145 466
145 467
145 468
145 469
145 470
145 471
146 147
146 148
146 149
146 150
146 152
146 153
146 154
146 155
146 156
146 157
146 158
146 160
146 161
146 162
146 163
146 164
146 165
146 166
146 167
146 168
146 169
146 170
146 171
146 172
146 181
146 186
146 192
146 193
146 195
146 196
146 200
146 216
146 240
146 242
146 243
146 244
146 245
146 246
146 247
146 248
146 249
146 250
146 251
146 252
146 253
146 254
146 255
146 256
146 257
146 258
146 259
146 261
146 263
146 274
146 291
146 292
146 293
146 294
146 296
146 297
146 298
146 299
146 300
146 301
146 302
146 303
146 304
146 305
146 306
146 307
146 308
146 309
146 311
146 312
146 313
146 314
146 315
146 316
146 317
146 318
146 319
146 320
146 333
146 335
146 336
146 337
146 338
146 339
146 351
146 353
146 358
146 365
146 374
146 376
146 381
146 383
146 394
146 395
146 397
146 398
146 399
146 400
146 401
146 402
146 403
146 407
146 412
146 415
146 421
146 423
146 436
146 442
146 443
146 445
146 446
146 447
146 448
146 449
146 450
146 451
146 452
146 453
146 454
146 455
146 456
146 458
146 459
146 460
146 461
146 462
146 463
146 464
146 465
146 467
147 148
147 149
147 150
147 151
147 152
147 154
147 155
147 156
147 157
147 158
147 159
147 161
147 162
147 163
147 164
147 165
147 166
147 167
147 168
147 169
147 170
147 171
147 172
147 181
147 186
147 192
147 193
147 195
147 196
147 200
147 216
147 240
147 241
147 242
147 244
147 245
147 246
147 247
147 248
147 249
147 250
147 251
147 252
147 253
147 254
147 255
147 256
147 257
147 258
147 259
147 261
147 263
147 274
147 291
147 292
147 293
147 295
147 309
147 310
147 311
147 313
147 314
147 315
147 316
147 317
147 318
147 319
147 320
147 332
147 333
147 334
147 336
147 337
147 338
147 339
147 350
147 351
147 352
147 354
147 355
147 356
147 357
147 358
147 365
147 374
147 376
147 381
147 383
147 394
147 396
147 398
147 407
147 412
147 415
147 420
147 421
147 422
147 424
147 425
147 426
147 427
147 428
147 429
147 430
147 431
147 432
147 433
147 434
147 435
147 436
147 442
147 443
147 444
147 445
147 447
147 448
147 449
147 450
147 451
147 452
147 453
147 454
147 455
147 457
147 463
147 464
147 465
147 467
148 149
148 150
148 151
148 152
148 153
148 154
148 156
148 157
148 158
148 159
148 160
148 181
148 182
148 183
148 184
148 185
148 187
148 188
148 189
148 190
148 191
148 192
148 193
148 194
148 196
148 197
148 198
148 199
148 201
148 202
148 203
148 204
148 216
148 241
148 243
148 260
148 261
148 262
148 264
148 265
148 266
148 267
148 274
148 287
148 288
148 289
148 290
148 292
148 293
148 295
148 310
148 312
148 319
148 320
148 332
148 333
148 334
148 335
148 337
148 338
148 339
148 351
148 353
148 358
148 365
148 374
148 376
148 381
148 383
148 394
148 395
148 396
148 397
148 399
148 400
148 401
148 402
148 403
148 404
148 405
148 406
148 408
148 409
148 410
148 411
148 412
148 413
148 414
148 416
148 417
148 418
148 419
148 421
148 423
148 436
148 442
148 443
148 444
148 445
148 446
148 447
148 449
148 450
148 451
148 452
148 453
148 454
148 455
148 457
148 463
148 464
148 465
148 466
148 468
148 469
148 470
148 471
149 150
149 151
149 152
149 153
149 154
149 155
149 157
149 158
149 159
149 160
149 173
149 174
149 175
149 176
149 177
149 178
149 179
149 180
149 186
149 192
149 193
149 194
149 195
149 200
149 205
149 206
149 207
149 208
149 209
149 210
149 211
149 212
149 213
149 214
149 215
149 241
149 243
149 261
149 263
149 268
149 269
149 270
149 271
149 272
149 273
149 287
149 288
149 289
149 290
149 291
149 293
149 295
149 309
149 310
149 311
149 312
149 313
149 314
149 315
149 316
149 317
149 318
149 320
149 332
149 333
149 334
149 335
149 336
149 338
149 339
149 350
149 351
149 352
149 353
149 354
149 355
149 356
149 357
149 359
149 360
149 361
149 362
149 363
149 364
149 366
149 367
149 368
149 369
149 370
149 371
149 372
149 373
149 375
149 376
149 377
149 378
149 379
149 380
149 383
149 394
149 396
149 398
149 407
149 412
149 415
149 421
149 423
149 436
149 437
149 438
149 439
149 440
149 441
149 444
149 446
149 448
149 455
149 456
149 457
149 458
149 459
149 460
149 461
149 462
149 464
149 465
149 467
150 151
150 152
150 153
150 154
150 155
150 156
150 159
150 160
150 173
150 174
150 176
150 177
150 178
150 179
150 180
150 181
150 182
150 183
150 185
150 186
150 187
150 188
150 189
150 190
150 191
150 195
150 196
150 200
150 216
150 241
150 242
150 243
150 244
150 245
150 246
150 247
150 248
150 249
150 250
150 251
150 252
150 253
150 254
150 255
150 256
150 257
150 258
150 259
150 263
150 274
150 287
150 288
150 290
150 291
150 292
150 295
150 296
150 310
150 311
150 312
150 313
150 314
150 315
150 316
150 317
150 318
150 319
150 334
150 335
150 336
150 337
150 352
150 353
150 358
150 365
150 366
150 367
150 369
150 370
150 371
150 372
150 373
150 374
150 381
150 396
150 397
150 398
150 407
150 415
150 422
150 423
150 442
150 444
150 445
150 446
150 447
150 448
150 449
150 450
150 451
150 452
150 453
150 454
150 457
150 458
150 463
150 467
151 152
151 153
151 154
151 155
151 156
151 157
151 158
151 160
151 161
151 162
151 163
151 164
151 165
151 166
151 167
151 168
151 169
151 170
151 171
151 172
151 175
151 176
151 181
151 184
151 185
151 186
151 195
151 196
151 200
151 216
151 240
151 242
151 243
151 244
151 245
151 246
151 247
151 248
151 249
151 250
151 251
151 252
151 253
151 254
151 255
151 256
151 257
151 258
151 259
151 263
151 274
151 289
151 290
151 291
151 292
151 293
151 294
151 296
151 297
151 298
151 299
151 300
151 301
151 302
151 303
151 304
151 305
151 306
151 307
151 308
151 309
151 311
151 312
151 313
151 314
151 315
151 316
151 317
151 318
151 319
151 334
151 335
151 336
151 337
151 352
151 353
151 358
151 365
151 368
151 369
151 374
151 381
151 394
151 395
151 397
151 398
151 399
151 400
151 401
151 402
151 403
151 407
151 415
151 422
151 423
151 442
151 443
151 445
151 446
151 447
151 448
151 449
151 450
151 451
151 452
151 453
151 454
151 455
151 456
151 458
151 459
151 460
151 461
151 462
151 463
151 467
152 153
152 154
152 155
152 156
152 159
152 160
152 173
152 174
152 175
152 177
152 178
152 179
152 180
152 181
152 184
152 185
152 186
152 195
152 196
152 200
152 216
152 240
152 241
152 243
152 244
152 245
152 246
152 247
152 248
152 249
152 250
152 251
152 252
152 253
152 254
152 255
152 256
152 257
152 258
152 259
152 263
152 274
152 289
152 290
152 291
152 292
152 295
152 296
152 309
152 310
152 312
152 313
152 314
152 315
152 316
152 317
152 318
152 319
152 332
152 333
152 335
152 336
152 337
152 350
152 351
152 353
152 354
152 355
152 356
152 357
152 358
152 365
152 368
152 369
152 374
152 381
152 396
152 397
152 398
152 407
152 415
152 420
152 421
152 423
152 424
152 425
152 426
152 427
152 428
152 429
152 430
152 431
152 432
152 433
152 434
152 435
152 442
152 443
152 444
152 446
152 447
152 448
152 449
152 450
152 451
152 452
152 453
152 454
152 457
152 458
152 463
152 467
153 154
153 155
153 156
153 157
153 158
153 159
153 161
153 162
153 163
153 164
153 165
153 166
153 167
153 168
153 169
153 170
153 171
153 172
153 175
153 176
153 181
153 184
153 185
153 186
153 195
153 196
153 200
153 216
153 240
153 241
153 242
153 244
153 245
153 246
153 247
153 248
153 249
153 250
153 251
153 252
153 253
153 254
153 255
153 256
153 257
153 258
153 259
153 263
153 274
153 289
153 290
153 291
153 292
153 295
153 296
153 309
153 310
153 311
153 313
153 314
153 315
153 316
153 317
153 318
153 319
153 332
153 333
153 334
153 336
153 337
153 350
153 351
153 352
153 354
153 355
153 356
153 357
153 358
153 365
153 368
153 369
153 374
153 381
153 396
153 397
153 398
153 407
153 415
153 420
153 421
153 422
153 424
153 425
153 426
153 427
153 428
153 429
153 430
153 431
153 432
153 433
153 434
153 435
153 442
153 443
153 444
153 445
153 447
153 448
153 449
153 450
153 451
153 452
153 453
153 454
153 457
153 458
153 463
153 467
154 155
154 156
154 159
154 160
154 175
154 176
154 181
154 182
154 183
154 184
154 186
154 187
154 188
154 189
154 190
154 191
154 195
154 196
154 200
154 216
154 240
154 241
154 242
154 243
154 245
154 246
154 247
154 248
154 249
154 250
154 251
154 252
154 253
154 254
154 255
154 256
154 257
154 258
154 259
154 263
154 274
154 287
154 288
154 289
154 291
154 292
154 293
154 294
154 295
154 297
154 298
154 299
154 300
154 301
154 302
154 303
154 304
154 305
154 306
154 307
154 308
154 309
154 310
154 311
154 312
154 314
154 315
154 316
154 317
154 318
154 319
154 334
154 335
154 336
154 337
154 352
154 353
154 358
154 365
154 366
154 367
154 368
154 370
154 371
154 372
154 373
154 374
154 381
154 394
154 395
154 396
154 398
154 399
154 400
154 401
154 402
154 403
154 407
154 415
154 422
154 423
154 442
154 443
154 444
154 445
154 446
154 448
154 449
154 450
154 451
154 452
154 453
154 454
154 455
154 456
154 457
154 459
154 460
154 461
154 462
154 463
154 467
155 156
155 159
155 160
155 175
155 176
155 181
155 182
155 183
155 184
155 185
155 187
155 188
155 189
155 190
155 191
155 192
155 193
155 194
155 196
155 197
155 198
155 199
155 201
155 202
155 203
155 204
155 216
155 240
155 241
155 242
155 243
155 244
155 260
155 261
155 262
155 264
155 265
155 266
155 267
155 274
155 287
155 288
155 289
155 290
155 292
155 295
155 296
155 309
155 310
155 311
155 312
155 313
155 319
155 332
155 333
155 334
155 335
155 337
155 352
155 353
155 358
155 365
155 368
155 369
155 374
155 381
155 394
155 395
155 396
155 397
155 399
155 400
155 401
155 402
155 403
155 404
155 405
155 406
155 408
155 409
155 410
155 411
155 412
155 413
155 414
155 416
155 417
155 418
155 419
155 422
155 423
155 442
155 443
155 444
155 445
155 446
155 447
155 449
155 450
155 451
155 452
155 453
155 454
155 457
155 458
155 463
155 464
155 465
155 466
155 468
155 469
155 470
155 471
156 159
156 160
156 173
156 174
156 175
156 176
156 177
156 178
156 179
156 180
156 184
156 185
156 186
156 192
156 193
156 194
156 195
156 200
156 205
156 206
156 207
156 208
156 209
156 210
156 211
156 212
156 213
156 214
156 215
156 240
156 241
156 242
156 243
156 244
156 263
156 268
156 269
156 270
156 271
156 272
156 273
156 287
156 288
156 289
156 290
156 291
156 295
156 296
156 309
156 310
156 311
156 312
156 313
156 314
156 315
156 316
156 317
156 318
156 332
156 333
156 334
156 335
156 336
156 350
156 351
156 352
156 353
156 354
156 355
156 356
156 357
156 359
156 360
156 361
156 362
156 363
156 364
156 366
156 367
156 368
156 369
156 370
156 371
156 372
156 373
156 375
156 376
156 377
156 378
156 379
156 380
156 396
156 397
156 398
156 407
156 415
156 422
156 423
156 436
156 437
156 438
156 439
156 440
156 441
156 443
156 444
156 445
156 446
156 447
156 448
156 455
156 456
156 457
156 458
156 459
156 460
156 461
156 462
156 467
157 158
157 159
157 160
157 161
157 162
157 163
157 164
157 165
157 166
157 167
157 168
157 169
157 170
157 171
157 172
157 193
157 194
157 195
157 196
157 206
157 208
157 211
157 213
157 218
157 220
157 223
157 225
157 229
157 231
157 234
157 236
157 241
157 243
157 246
157 248
157 251
157 253
157 256
157 258
157 261
157 265
157 294
157 295
157 296
157 297
157 298
157 299
157 300
157 301
157 302
157 303
157 304
157 305
157 306
157 307
157 308
157 310
157 312
157 315
157 317
157 321
157 322
157 323
157 324
157 325
157 326
157 327
157 328
157 329
157 330
157 331
157 333
157 335
157 339
157 340
157 341
157 342
157 343
157 344
157 345
157 346
157 347
157 348
157 349
157 351
157 353
157 355
157 357
157 376
157 379
157 383
157 386
157 389
157 392
157 395
157 396
157 397
157 398
157 399
157 400
157 401
157 402
157 403
157 413
157 414
157 415
157 416
157 417
157 418
157 419
157 421
157 423
157 425
157 427
157 429
157 431
157 433
157 435
157 437
157 438
157 439
157 440
157 441
157 442
157 444
157 446
157 450
157 452
157 456
157 457
157 458
157 459
157 460
157 461
157 462
157 463
157 465
157 466
157 467
157 468
157 469
157 470
157 471
158 159
158 160
158 161
158 162
158 163
158 164
158 165
158 166
158 167
158 168
158 169
158 170
158 171
158 172
158 192
158 194
158 195
158 196
158 206
158 208
158 211
158 213
158 218
158 220
158 223
158 225
158 229
158 231
158 234
158 236
158 241
158 243
158 246
158 248
158 251
158 253
158 256
158 258
158 260
158 262
158 263
158 264
158 265
158 266
158 267
158 293
158 295
158 297
158 299
158 301
158 303
158 305
158 307
158 310
158 312
158 315
158 317
158 320
158 323
158 326
158 329
158 332
158 334
158 335
158 336
158 337
158 338
158 340
158 341
158 342
158 343
158 344
158 345
158 346
158 347
158 348
158 349
158 350
158 352
158 353
158 354
158 355
158 356
158 357
158 358
158 375
158 377
158 378
158 379
158 380
158 381
158 382
158 384
158 385
158 386
158 387
158 388
158 389
158 390
158 391
158 392
158 393
158 394
158 396
158 399
158 401
158 412
158 416
158 420
158 422
158 423
158 424
158 425
158 426
158 427
158 428
158 429
158 430
158 431
158 432
158 433
158 434
158 435
158 436
158 439
158 444
158 446
158 450
158 452
158 455
158 457
158 459
158 461
158 464
158 466
158 467
158 468
158 469
158 470
158 471
159 160
159 161
159 162
159 163
159 164
159 165
159 166
159 167
159 168
159 169
159 170
159 171
159 172
159 192
159 193
159 206
159 208
159 211
159 213
159 218
159 220
159 223
159 225
159 229
159 231
159 234
159 236
159 240
159 242
159 243
159 244
159 245
159 246
159 247
159 248
159 249
159 250
159 251
159 252
159 253
159 254
159 255
159 256
159 257
159 258
159 259
159 261
159 265
159 293
159 294
159 296
159 297
159 298
159 299
159 300
159 301
159 302
159 303
159 304
159 305
159 306
159 307
159 308
159 309
159 311
159 312
159 313
159 314
159 315
159 316
159 317
159 318
159 319
159 320
159 323
159 326
159 329
159 333
159 335
159 338
159 339
159 341
159 342
159 344
159 345
159 347
159 348
159 351
159 353
159 355
159 357
159 376
159 379
159 383
159 386
159 389
159 392
159 394
159 395
159 397
159 398
159 399
159 400
159 401
159 402
159 403
159 412
159 416
159 421
159 423
159 425
159 427
159 429
159 431
159 433
159 435
159 436
159 439
159 443
159 445
159 446
159 447
159 448
159 449
159 450
159 451
159 452
159 453
159 454
159 455
159 456
159 458
159 459
159 460
159 461
159 462
159 463
159 464
159 465
159 468
159 469
160 161
160 162
160 163
160 164
160 165
160 166
160 167
160 168
160 169
160 170
160 171
160 172
160 192
160 193
160 206
160 208
160 211
160 213
160 218
160 220
160 223
160 225
160 229
160 231
160 234
160 236
160 240
160 241
160 242
160 244
160 245
160 246
160 247
160 248
160 249
160 250
160 251
160 252
160 253
160 254
160 255
160 256
160 257
160 258
160 259
160 261
160 265
160 293
160 295
160 297
160 299
160 301
160 303
160 305
160 307
160 309
160 310
160 311
160 313
160 314
160 315
160 316
160 317
160 318
160 319
160 320
160 323
160 326
160 329
160 332
160 333
160 334
160 336
160 337
160 338
160 339
160 341
160 342
160 344
160 345
160 347
160 348
160 350
160 351
160 352
160 354
160 355
160 356
160 357
160 358
160 376
160 379
160 383
160 386
160 389
160 392
160 394
160 396
160 399
160 401
160 412
160 416
160 420
160 421
160 422
160 424
160 425
160 426
160 427
160 428
160 429
160 430
160 431
160 432
160 433
160 434
160 435
160 436
160 439
160 443
160 444
160 445
160 447
160 448
160 449
160 450
160 451
160 452
160 453
160 454
160 455
160 457
160 459
160 461
160 464
160 465
160 468
160 469
161 162
161 163
161 164
161 165
161 166
161 167
161 168
161 169
161 170
161 171
161 172
161 192
161 193
161 205
161 207
161 208
161 209
161 210
161 211
161 212
161 213
161 214
161 215
161 216
161 218
161 220
161 223
161 225
161 229
161 231
161 234
161 236
161 241
161 243
161 246
161 248
161 251
161 253
161 256
161 258
161 261
161 265
161 293
161 294
161 295
161 296
161 298
161 299
161 300
161 301
161 302
161 303
161 304
161 305
161 306
161 307
161 308
161 310
161 312
161 315
161 317
161 320
161 321
161 322
161 324
161 325
161 326
161 327
161 328
161 329
161 330
161 331
161 333
161 335
161 338
161 339
161 340
161 342
161 343
161 344
161 345
161 346
161 347
161 348
161 349
161 351
161 353
161 355
161 357
161 376
161 379
161 383
161 386
161 389
161 392
161 394
161 396
161 399
161 401
161 412
161 416
161 421
161 423
161 425
161 427
161 429
161 431
161 433
161 435
161 436
161 437
161 438
161 440
161 441
161 442
161 444
161 446
161 450
161 452
161 455
161 456
161 457
161 458
161 460
161 461
161 462
161 463
161 464
161 465
161 468
161 469
162 163
162 164
162 165
162 166
162 167
162 168
162 169
162 170
162 171
162 172
162 192
162 193
162 205
162 206
162 207
162 209
162 210
162 211
162 212
162 213
162 214
162 215
162 216
162 218
162 220
162 223
162 225
162 229
162 231
162 234
162 236
162 241
162 243
162 246
162 248
162 251
162 253
162 256
162 258
162 261
162 265
162 293
162 295
162 297
162 299
162 301
162 303
162 305
162 307
162 310
162 312
162 315
162 317
162 320
162 323
162 326
162 329
162 333
162 335
162 338
162 339
162 340
162 341
162 343
162 344
162 345
162 346
162 347
162 348
162 349
162 350
162 351
162 352
162 353
162 354
162 356
162 357
162 358
162 375
162 376
162 377
162 378
162 380
162 381
162 382
162 383
162 384
162 385
162 387
162 388
162 389
162 390
162 391
162 392
162 393
162 394
162 396
162 399
162 401
162 412
162 416
162 420
162 421
162 422
162 423
162 424
162 426
162 427
162 428
162 429
162 430
162 431
162 432
162 433
162 434
162 435
162 436
162 439
162 444
162 446
162 450
162 452
162 455
162 457
162 459
162 461
162 464
162 465
162 468
162 469
163 164
163 165
163 166
163 167
163 168
163 169
163 170
163 171
163 172
163 192
163 193
163 205
163 206
163 207
163 208
163 209
163 210
163 212
163 213
163 214
163 215
163 216
163 218
163 220
163 223
163 225
163 229
163 231
163 234
163 236
163 240
163 241
163 242
163 243
163 244
163 245
163 247
163 248
163 249
163 250
163 251
163 252
163 253
163 254
163 255
163 256
163 257
163 258
163 259
163 261
163 265
163 293
163 294
163 295
163 296
163 297
163 298
163 300
163 301
163 302
163 303
163 304
163 305
163 306
163 307
163 308
163 309
163 310
163 311
163 312
163 313
163 314
163 316
163 317
163 318
163 319
163 320
163 323
163 326
163 329
163 333
163 335
163 338
163 339
163 341
163 342
163 344
163 345
163 347
163 348
163 351
163 353
163 355
163 357
163 376
163 379
163 383
163 386
163 389
163 392
163 394
163 396
163 399
163 401
163 412
163 416
163 421
163 423
163 425
163 427
163 429
163 431
163 433
163 435
163 436
163 439
163 444
163 446
163 450
163 452
163 455
163 456
163 457
163 458
163 459
163 460
163 462
163 463
163 464
163 465
163 468
163 469
164 165
164 166
164 167
164 168
164 169
164 170
164 171
164 172
164 192
164 193
164 205
164 206
164 207
164 208
164 209
164 210
164 211
164 212
164 214
164 215
164 216
164 218
164 220
164 223
164 225
164 229
164 231
164 234
164 236
164 240
164 241
164 242
164 243
164 244
164 245
164 246
164 247
164 249
164 250
164 251
164 252
164 253
164 254
164 255
164 256
164 257
164 258
164 259
164 261
164 265
164 293
164 295
164 297
164 299
164 301
164 303
164 305
164 307
164 309
164 310
164 311
164 312
164 313
164 314
164 315
164 316
164 318
164 319
164 320
164 323
164 326
164 329
164 333
164 335
164 338
164 339
164 341
164 342
164 344
164 345
164 347
164 348
164 350
164 351
164 352
164 353
164 354
164 355
164 356
164 358
164 376
164 379
164 383
164 386
164 389
164 392
164 394
164 396
164 399
164 401
164 412
164 416
164 420
164 421
164 422
164 423
164 424
164 425
164 426
164 428
164 429
164 430
164 431
164 432
164 433
164 434
164 435
164 436
164 439
164 444
164 446
164 450
164 452
164 455
164 457
164 459
164 461
164 464
164 465
164 468
164 469
165 166
165 167
165 168
165 169
165 170
165 171
165 172
165 192
165 193
165 206
165 208
165 211
165 213
165 217
165 219
165 220
165 221
165 222
165 223
165 224
165 225
165 226
165 227
165 228
165 229
165 230
165 231
165 232
165 233
165 234
165 235
165 236
165 237
165 238
165 239
165 241
165 243
165 246
165 248
165 251
165 253
165 256
165 258
165 261
165 265
165 293
165 294
165 295
165 296
165 297
165 298
165 299
165 300
165 302
165 303
165 304
165 305
165 306
165 307
165 308
165 310
165 312
165 315
165 317
165 320
165 321
165 322
165 323
165 324
165 325
165 327
165 328
165 329
165 330
165 331
165 333
165 335
165 338
165 339
165 340
165 341
165 342
165 343
165 345
165 346
165 347
165 348
165 349
165 351
165 353
165 355
165 357
165 376
165 379
165 383
165 386
165 389
165 392
165 394
165 395
165 396
165 397
165 398
165 400
165 401
165 402
165 403
165 412
165 413
165 414
165 415
165 417
165 418
165 419
165 421
165 423
165 425
165 427
165 429
165 431
165 433
165 435
165 436
165 439
165 444
165 446
165 450
165 452
165 455
165 457
165 459
165 461
165 464
165 465
165 466
165 467
165 469
165 470
165 471
166 167
166 168
166 169
166 170
166 171
166 172
166 192
166 193
166 206
166 208
166 211
166 213
166 217
166 218
166 219
166 221
166 222
166 223
166 224
166 225
166 226
166 227
166 228
166 229
166 230
166 231
166 232
166 233
166 234
166 235
166 236
166 237
166 238
166 239
166 241
166 243
166 246
166 248
166 251
166 253
166 256
166 258
166 260
166 261
166 262
166 263
166 264
166 266
166 267
166 293
166 295
166 297
166 299
166 301
166 303
166 305
166 307
166 310
166 312
166 315
166 317
166 320
166 323
166 326
166 329
166 333
166 335
166 338
166 339
166 340
166 341
166 342
166 343
166 344
166 346
166 347
166 348
166 349
166 351
166 353
166 355
166 357
166 376
166 379
166 382
166 383
166 384
166 385
166 386
166 387
166 388
166 390
166 391
166 392
166 393
166 394
166 396
166 399
166 401
166 412
166 416
166 420
166 421
166 422
166 423
166 424
166 425
166 426
166 427
166 428
166 430
166 431
166 432
166 433
166 434
166 435
166 436
166 439
166 444
166 446
166 450
166 452
166 455
166 457
166 459
166 461
166 464
166 465
166 466
166 467
166 468
166 470
166 471
167 168
167 169
167 170
167 171
167 172
167 192
167 193
167 206
167 208
167 211
167 213
167 217
167 218
167 219
167 220
167 221
167 222
167 224
167 225
167 226
167 227
167 228
167 229
167 230
167 231
167 232
167 233
167 234
167 235
167 236
167 237
167 238
167 239
167 240
167 241
167 242
167 243
167 244
167 245
167 246
167 247
167 248
167 249
167 250
167 252
167 253
167 254
167 255
167 256
167 257
167 258
167 259
167 261
167 265
167 293
167 294
167 295
167 296
167 297
167 298
167 299
167 300
167 301
167 302
167 304
167 305
167 306
167 307
167 308
167 310
167 312
167 315
167 317
167 320
167 323
167 326
167 329
167 333
167 335
167 338
167 339
167 341
167 342
167 344
167 345
167 347
167 348
167 351
167 353
167 355
167 357
167 376
167 379
167 383
167 386
167 389
167 392
167 394
167 395
167 396
167 397
167 398
167 399
167 400
167 402
167 403
167 412
167 416
167 421
167 423
167 425
167 427
167 429
167 431
167 433
167 435
167 436
167 439
167 443
167 444
167 445
167 446
167 447
167 448
167 449
167 451
167 452
167 453
167 454
167 455
167 457
167 459
167 461
167 464
167 465
167 468
167 469
168 169
168 170
168 171
168 172
168 192
168 193
168 206
168 208
168 211
168 213
168 217
168 218
168 219
168 220
168 221
168 222
168 223
168 224
168 226
168 227
168 228
168 229
168 230
168 231
168 232
168 233
168 234
168 235
168 236
168 237
168 238
168 239
168 240
168 241
168 242
168 243
168 244
168 245
168 246
168 247
168 248
168 249
168 250
168 251
168 252
168 254
168 255
168 256
168 257
168 258
168 259
168 261
168 265
168 293
168 295
168 297
168 299
168 301
168 303
168 305
168 307
168 310
168 312
168 315
168 317
168 320
168 323
168 326
168 329
168 333
168 335
168 338
168 339
168 341
168 342
168 344
168 345
168 347
168 348
168 351
168 353
168 355
168 357
168 376
168 379
168 383
168 386
168 389
168 392
168 394
168 396
168 399
168 401
168 412
168 416
168 420
168 421
168 422
168 423
168 424
168 425
168 426
168 427
168 428
168 429
168 430
168 432
168 433
168 434
168 435
168 436
168 439
168 443
168 444
168 445
168 446
168 447
168 448
168 449
168 450
168 451
168 453
168 454
168 455
168 457
168 459
168 461
168 464
168 465
168 468
168 469
169 170
169 171
169 172
169 192
169 193
169 206
169 208
169 211
169 213
169 217
169 218
169 219
169 220
169 221
169 222
169 223
169 224
169 225
169 226
169 227
169 228
169 230
169 231
169 232
169 233
169 234
169 235
169 236
169 237
169 238
169 239
169 241
169 243
169 246
169 248
169 251
169 253
169 256
169 258
169 261
169 265
169 293
169 294
169 295
169 296
169 297
169 298
169 299
169 300
169 301
169 302
169 303
169 304
169 306
169 307
169 308
169 310
169 312
169 315
169 317
169 320
169 321
169 322
169 323
169 324
169 325
169 326
169 327
169 328
169 330
169 331
169 333
169 335
169 338
169 339
169 340
169 341
169 342
169 343
169 344
169 345
169 346
169 348
169 349
169 351
169 353
169 355
169 357
169 376
169 379
169 383
169 386
169 389
169 392
169 394
169 396
169 399
169 401
169 412
169 416
169 421
169 423
169 425
169 427
169 429
169 431
169 433
169 435
169 436
169 439
169 444
169 446
169 450
169 452
169 455
169 457
169 459
169 461
169 464
169 465
169 468
169 469
170 171
170 172
170 192
170 193
170 206
170 208
170 211
170 213
170 217
170 218
170 219
170 220
170 221
170 222
170 223
170 224
170 225
170 226
170 227
170 228
170 229
170 230
170 232
170 233
170 234
170 235
170 236
170 237
170 238
170 239
170 241
170 243
170 246
170 248
170 251
170 253
170 256
170 258
170 261
170 265
170 293
170 295
170 297
170 299
170 301
170 303
170 305
170 307
170 310
170 312
170 315
170 317
170 320
170 323
170 326
170 329
170 333
170 335
170 338
170 339
170 340
170 341
170 342
170 343
170 344
170 345
170 346
170 347
170 349
170 351
170 353
170 355
170 357
170 376
170 379
170 382
170 383
170 384
170 385
170 386
170 387
170 388
170 389
170 390
170 391
170 393
170 394
170 396
170 399
170 401
170 412
170 416
170 420
170 421
170 422
170 423
170 424
170 425
170 426
170 427
170 428
170 429
170 430
170 431
170 432
170 434
170 435
170 436
170 439
170 444
170 446
170 450
170 452
170 455
170 457
170 459
170 461
170 464
170 465
170 468
170 469
171 172
171 192
171 193
171 206
171 208
171 211
171 213
171 217
171 218
171 219
171 220
171 221
171 222
171 223
171 224
171 225
171 226
171 227
171 228
171 229
171 230
171 231
171 232
171 233
171 235
171 236
171 237
171 238
171 239
171 240
171 241
171 242
171 243
171 244
171 245
171 246
171 247
171 248
171 249
171 250
171 251
171 252
171 253
171 254
171 255
171 257
171 258
171 259
171 261
171 265
171 293
171 294
171 295
171 296
171 297
171 298
171 299
171 300
171 301
171 302
171 303
171 304
171 305
171 306
171 308
171 310
171 312
171 315
171 317
171 320
171 323
171 326
171 329
171 333
171 335
171 338
171 339
171 341
171 342
171 344
171 345
171 347
171 348
171 351
171 353
171 355
171 357
171 376
171 379
171 383
171 386
171 389
171 392
171 394
171 396
171 399
171 401
171 412
171 416
171 421
171 423
171 425
171 427
171 429
171 431
171 433
171 435
171 436
171 439
171 444
171 446
171 450
171 452
171 455
171 457
171 459
171 461
171 464
171 465
171 468
171 469
172 192
172 193
172 206
172 208
172 211
172 213
172 217
172 218
172 219
172 220
172 221
172 222
172 223
172 224
172 225
172 226
172 227
172 228
172 229
172 230
172 231
172 232
172 233
172 234
172 235
172 237
172 238
172 239
172 240
172 241
172 242
172 243
172 244
172 245
172 246
172 247
172 248
172 249
172 250
172 251
172 252
172 253
172 254
172 255
172 256
172 257
172 259
172 261
172 265
172 293
172 295
172 297
172 299
172 301
172 303
172 305
172 307
172 310
172 312
172 315
172 317
172 320
172 323
172 326
172 329
172 333
172 335
172 338
172 339
172 341
172 342
172 344
172 345
172 347
172 348
172 351
172 353
172 355
172 357
172 376
172 379
172 383
172 386
172 389
172 392
172 394
172 396
172 399
172 401
172 412
172 416
172 420
172 421
172 422
172 423
172 424
172 425
172 426
172 427
172 428
172 429
172 430
172 431
172 432
172 433
172 434
172 436
172 439
172 444
172 446
172 450
172 452
172 455
172 457
172 459
172 461
172 464
172 465
172 468
172 469
173 174
173 175
173 176
173 177
173 178
173 179
173 180
173 181
173 183
173 184
173 185
173 186
173 187
173 188
173 189
173 190
173 191
173 196
173 198
173 199
173 200
173 201
173 202
173 203
173 204
173 205
173 207
173 210
173 212
173 216
173 240
173 242
173 245
173 247
173 260
173 269
173 270
173 271
173 272
173 273
173 274
173 276
173 277
173 278
173 279
173 280
173 281
173 282
173 283
173 284
173 285
173 286
173 288
173 289
173 290
173 291
173 292
173 309
173 311
173 314
173 316
173 319
173 332
173 334
173 337
173 350
173 352
173 354
173 356
173 358
173 360
173 361
173 362
173 363
173 364
173 365
173 367
173 368
173 369
173 370
173 371
173 372
173 373
173 374
173 375
173 378
173 381
173 382
173 385
173 405
173 406
173 407
173 408
173 409
173 410
173 411
173 420
173 422
173 424
173 426
173 442
173 443
173 445
173 463
174 175
174 176
174 177
174 178
174 179
174 180
174 181
174 182
174 184
174 196
174 197
174 199
174 200
174 201
174 202
174 203
174 204
174 205
174 207
174 210
174 212
174 216
174 240
174 242
174 245
174 247
174 261
174 262
174 263
174 264
174 265
174 266
174 267
174 268
174 271
174 274
174 275
174 278
174 287
174 289
174 292
174 309
174 311
174 314
174 316
174 319
174 333
174 334
174 335
174 336
174 337
174 351
174 352
174 353
174 354
174 355
174 356
174 357
174 358
174 359
174 361
174 362
174 363
174 364
174 365
174 366
174 368
174 370
174 372
174 374
174 376
174 377
174 378
174 379
174 380
174 381
174 383
174 384
174 385
174 386
174 387
174 388
174 389
174 390
174 391
174 392
174 393
174 404
174 421
174 422
174 423
174 424
174 425
174 426
174 427
174 428
174 429
174 430
174 431
174 432
174 433
174 434
174 435
174 442
174 443
174 445
174 463
175 176
175 177
175 178
175 179
175 180
175 181
175 182
175 183
175 185
175 186
175 187
175 188
175 189
175 190
175 191
175 196
175 197
175 198
175 205
175 207
175 210
175 212
175 216
175 241
175 242
175 243
175 244
175 245
175 246
175 247
175 248
175 249
175 250
175 251
175 252
175 253
175 254
175 255
175 256
175 257
175 258
175 259
175 260
175 268
175 271
175 274
175 275
175 278
175 287
175 288
175 290
175 291
175 292
175 310
175 311
175 312
175 313
175 314
175 315
175 316
175 317
175 318
175 319
175 332
175 334
175 337
175 350
175 352
175 354
175 356
175 358
175 359
175 360
175 362
175 363
175 365
175 366
175 367
175 369
175 370
175 371
175 372
175 373
175 374
175 375
175 378
175 381
175 382
175 385
175 404
175 420
175 422
175 424
175 426
175 442
175 444
175 445
175 446
175 447
175 448
175 449
175 450
175 451
175 452
175 453
175 454
175 463
176 177
176 178
176 179
176 180
176 181
176 182
176 184
176 196
176 197
176 198
176 205
176 207
176 210
176 212
176 216
176 240
176 241
176 243
176 244
176 245
176 246
176 247
176 248
176 249
176 250
176 251
176 252
176 253
176 254
176 255
176 256
176 257
176 258
176 259
176 260
176 268
176 271
176 274
176 275
176 278
176 287
176 289
176 292
176 309
176 310
176 312
176 313
176 314
176 315
176 316
176 317
176 318
176 319
176 332
176 333
176 335
176 336
176 337
176 350
176 351
176 353
176 354
176 355
176 356
176 357
176 358
176 359
176 360
176 362
176 363
176 365
176 366
176 368
176 370
176 372
176 374
176 375
176 378
176 381
176 382
176 385
176 404
176 420
176 421
176 423
176 424
176 425
176 426
176 427
176 428
176 429
176 430
176 431
176 432
176 433
176 434
176 435
176 442
176 443
176 444
176 446
176 447
176 448
176 449
176 450
176 451
176 452
176 453
176 454
176 463
177 178
177 179
177 180
177 181
177 182
177 184
177 196
177 197
177 198
177 206
177 207
177 208
177 209
177 210
177 211
177 212
177 213
177 214
177 215
177 216
177 240
177 242
177 245
177 247
177 260
177 268
177 269
177 270
177 272
177 273
177 274
177 275
177 276
177 277
177 279
177 280
177 281
177 282
177 283
177 284
177 285
177 286
177 287
177 289
177 292
177 309
177 311
177 314
177 316
177 319
177 332
177 334
177 337
177 350
177 352
177 354
177 356
177 358
177 359
177 360
177 361
177 363
177 364
177 365
177 366
177 367
177 368
177 369
177 371
177 372
177 373
177 374
177 375
177 378
177 381
177 382
177 385
177 404
177 420
177 422
177 424
177 426
177 442
177 443
177 445
177 463
178 179
178 180
178 181
178 182
178 184
178 196
178 197
178 198
178 205
178 206
178 208
178 209
178 210
178 211
178 212
178 213
178 214
178 215
178 216
178 240
178 242
178 245
178 247
178 260
178 268
178 271
178 274
178 275
178 278
178 287
178 289
178 292
178 309
178 311
178 314
178 316
178 319
178 332
178 334
178 337
178 350
178 351
178 352
178 353
178 355
178 356
178 357
178 358
178 359
178 360
178 361
178 362
178 364
178 365
178 366
178 368
178 370
178 372
178 374
178 375
178 376
178 377
178 379
178 380
178 381
178 382
178 383
178 384
178 386
178 387
178 388
178 389
178 390
178 391
178 392
178 393
178 404
178 420
178 421
178 422
178 423
178 425
178 426
178 427
178 428
178 429
178 430
178 431
178 432
178 433
178 434
178 435
178 442
178 443
178 445
178 463
179 180
179 181
179 182
179 184
179 196
179 197
179 198
179 205
179 206
179 207
179 208
179 209
179 211
179 212
179 213
179 214
179 215
179 216
179 240
179 241
179 242
179 243
179 244
179 246
179 247
179 248
179 249
179 250
179 251
179 252
179 253
179 254
179 255
179 256
179 257
179 258
179 259
179 260
179 268
179 271
179 274
179 275
179 278
179 287
179 289
179 292
179 309
179 310
179 311
179 312
179 313
179 315
179 316
179 317
179 318
179 319
179 332
179 334
179 337
179 350
179 352
179 354
179 356
179 358
179 359
179 360
179 362
179 363
179 365
179 366
179 367
179 368
179 369
179 370
179 371
179 373
179 374
179 375
179 378
179 381
179 382
179 385
179 404
179 420
179 422
179 424
179 426
179 442
179 443
179 445
179 463
180 181
180 182
180 184
180 196
180 197
180 198
180 205
180 206
180 207
180 208
180 209
180 210
180 211
180 213
180 214
180 215
180 216
180 240
180 241
180 242
180 243
180 244
180 245
180 246
180 248
180 249
180 250
180 251
180 252
180 253
180 254
180 255
180 256
180 257
180 258
180 259
180 260
180 268
180 271
180 274
180 275
180 278
180 287
180 289
180 292
180 309
180 310
180 311
180 312
180 313
180 314
180 315
180 317
180 318
180 319
180 332
180 334
180 337
180 350
180 351
180 352
180 353
180 354
180 355
180 357
180 358
180 359
180 360
180 362
180 363
180 365
180 366
180 368
180 370
180 372
180 374
180 375
180 378
180 381
180 382
180 385
180 404
180 420
180 421
180 422
180 423
180 424
180 425
180 427
180 428
180 429
180 430
180 431
180 432
180 433
180 434
180 435
180 442
180 443
180 445
180 463
181 182
181 184
181 192
181 193
181 194
181 195
181 197
181 198
181 205
181 206
181 207
181 208
181 209
181 210
181 211
181 212
181 213
181 214
181 215
181 240
181 242
181 245
181 247
181 260
181 268
181 269
181 270
181 271
181 272
181 273
181 275
181 278
181 287
181 288
181 289
181 290
181 291
181 309
181 310
181 311
181 312
181 313
181 314
181 315
181 316
181 317
181 318
181 332
181 333
181 334
181 335
181 336
181 350
181 351
181 352
181 353
181 354
181 355
181 356
181 357
181 359
181 360
181 361
181 362
181 363
181 364
181 366
181 367
181 368
181 369
181 370
181 371
181 372
181 373
181 375
181 376
181 377
181 378
181 379
181 380
181 382
181 385
181 404
181 420
181 422
181 424
181 426
181 436
181 437
181 438
181 439
181 440
181 441
181 443
181 445
181 455
181 456
181 457
181 458
181 459
181 460
181 461
181 462
182 183
182 184
182 185
182 186
182 187
182 188
182 189
182 190
182 191
182 195
182 198
182 199
182 200
182 201
182 202
182 203
182 204
182 217
182 221
182 222
182 226
182 239
182 240
182 244
182 250
182 254
182 263
182 267
182 269
182 270
182 271
182 272
182 273
182 274
182 276
182 277
182 278
182 279
182 280
182 281
182 282
182 283
182 284
182 285
182 286
182 288
182 289
182 290
182 291
182 292
182 294
182 296
182 302
182 304
182 309
182 313
182 321
182 327
182 336
182 360
182 361
182 362
182 363
182 364
182 365
182 367
182 368
182 369
182 370
182 371
182 372
182 373
182 374
182 395
182 397
182 398
182 400
182 402
182 403
182 405
182 406
182 407
182 408
182 409
182 410
182 411
182 413
182 415
182 417
182 419
182 437
182 443
182 447
182 448
182 449
182 453
182 454
182 456
182 458
182 467
182 471
183 184
183 185
183 186
183 187
183 188
183 189
183 190
183 191
183 195
183 197
183 200
183 201
183 204
183 217
183 221
183 222
183 226
183 239
183 240
183 244
183 250
183 254
183 263
183 267
183 268
183 270
183 271
183 272
183 273
183 274
183 275
183 277
183 278
183 279
183 280
183 281
183 282
183 283
183 284
183 285
183 286
183 287
183 289
183 290
183 291
183 292
183 293
183 295
183 296
183 297
183 298
183 299
183 300
183 301
183 302
183 303
183 304
183 305
183 306
183 307
183 308
183 309
183 313
183 320
183 322
183 323
183 324
183 325
183 326
183 327
183 328
183 329
183 330
183 331
183 336
183 359
183 366
183 368
183 369
183 370
183 371
183 372
183 373
183 374
183 394
183 396
183 397
183 398
183 399
183 400
183 401
183 402
183 403
183 404
183 406
183 407
183 408
183 409
183 410
183 411
183 412
183 414
183 415
183 416
183 417
183 418
183 419
183 436
183 438
183 439
183 440
183 441
183 442
183 443
183 447
183 448
183 449
183 453
183 454
183 455
183 457
183 458
183 459
183 460
183 461
183 462
183 463
183 467
183 471
184 185
184 186
184 187
184 188
184 189
184 190
184 191
184 195
184 197
184 200
184 201
184 204
184 217
184 221
184 222
184 226
184 239
184 241
184 242
184 243
184 244
184 245
184 246
184 247
184 248
184 249
184 250
184 251
184 252
184 253
184 254
184 255
184 256
184 257
184 258
184 259
184 263
184 267
184 268
184 269
184 275
184 276
184 281
184 282
184 287
184 288
184 290
184 291
184 292
184 294
184 296
184 302
184 304
184 310
184 311
184 312
184 313
184 314
184 315
184 316
184 317
184 318
184 319
184 321
184 327
184 336
184 359
184 366
184 367
184 369
184 370
184 371
184 372
184 373
184 374
184 395
184 397
184 398
184 400
184 402
184 403
184 404
184 405
184 407
184 408
184 409
184 411
184 413
184 415
184 417
184 419
184 437
184 444
184 445
184 446
184 447
184 448
184 449
184 450
184 451
184 452
184 453
184 454
184 456
184 458
184 467
184 471
185 186
185 187
185 188
185 189
185 190
185 191
185 195
185 197
185 200
185 201
185 204
185 217
185 221
185 222
185 226
185 239
185 240
185 241
185 242
185 243
185 245
185 246
185 247
185 248
185 249
185 250
185 251
185 252
185 253
185 254
185 255
185 256
185 257
185 258
185 259
185 263
185 267
185 268
185 269
185 275
185 276
185 281
185 282
185 287
185 288
185 289
185 291
185 292
185 293
185 294
185 295
185 297
185 298
185 299
185 300
185 301
185 302
185 303
185 304
185 305
185 306
185 307
185 308
185 309
185 310
185 311
185 312
185 314
185 315
185 316
185 317
185 318
185 319
185 321
185 327
185 336
185 359
185 366
185 367
185 368
185 370
185 371
185 372
185 373
185 374
185 394
185 395
185 396
185 398
185 399
185 400
185 401
185 402
185 403
185 404
185 405
185 407
185 408
185 409
185 411
185 413
185 415
185 417
185 419
185 437
185 443
185 444
185 445
185 446
185 448
185 449
185 450
185 451
185 452
185 453
185 454
185 455
185 456
185 457
185 459
185 460
185 461
185 462
185 463
185 467
185 471
186 187
186 188
186 189
186 190
186 191
186 192
186 193
186 194
186 196
186 197
186 198
186 199
186 201
186 202
186 203
186 204
186 217
186 221
186 222
186 226
186 239
186 240
186 244
186 250
186 254
186 260
186 261
186 262
186 264
186 265
186 266
186 267
186 268
186 269
186 275
186 276
186 281
186 282
186 287
186 288
186 289
186 290
186 292
186 294
186 296
186 302
186 304
186 309
186 313
186 321
186 327
186 332
186 333
186 334
186 335
186 337
186 359
186 366
186 367
186 368
186 369
186 394
186 395
186 396
186 397
186 399
186 400
186 401
186 402
186 403
186 404
186 405
186 406
186 408
186 409
186 410
186 411
186 412
186 413
186 414
186 416
186 417
186 418
186 419
186 437
186 443
186 444
186 445
186 446
186 447
186 449
186 450
186 451
186 452
186 453
186 454
186 456
186 458
186 464
186 465
186 466
186 468
186 469
186 470
186 471
187 188
187 189
187 190
187 191
187 195
187 197
187 198
187 199
187 200
187 202
187 203
187 204
187 218
187 219
187 220
187 221
187 222
187 223
187 224
187 225
187 226
187 227
187 228
187 229
187 230
187 231
187 232
187 233
187 234
187 235
187 236
187 237
187 238
187 239
187 240
187 244
187 250
187 254
187 263
187 267
187 268
187 269
187 275
187 276
187 277
187 278
187 279
187 280
187 282
187 283
187 284
187 285
187 286
187 287
187 288
187 289
187 290
187 291
187 294
187 296
187 302
187 304
187 309
187 313
187 321
187 327
187 336
187 359
187 366
187 367
187 368
187 369
187 395
187 397
187 398
187 400
187 402
187 403
187 404
187 405
187 406
187 407
187 409
187 410
187 411
187 413
187 415
187 417
187 419
187 437
187 443
187 447
187 448
187 449
187 453
187 454
187 456
187 458
187 467
187 471
188 189
188 190
188 191
188 195
188 197
188 200
188 201
188 204
188 217
188 218
188 219
188 220
188 222
188 223
188 224
188 225
188 226
188 227
188 228
188 229
188 230
188 231
188 232
188 233
188 234
188 235
188 236
188 237
188 238
188 239
188 240
188 244
188 250
188 254
188 263
188 267
188 268
188 269
188 275
188 276
188 277
188 278
188 279
188 280
188 281
188 283
188 284
188 285
188 286
188 287
188 288
188 289
188 290
188 291
188 293
188 294
188 295
188 296
188 297
188 298
188 299
188 300
188 301
188 303
188 304
188 305
188 306
188 307
188 308
188 309
188 313
188 320
188 321
188 322
188 323
188 324
188 325
188 326
188 328
188 329
188 330
188 331
188 336
188 359
188 366
188 367
188 368
188 369
188 394
188 395
188 396
188 397
188 398
188 399
188 401
188 402
188 403
188 404
188 405
188 406
188 407
188 408
188 410
188 411
188 412
188 413
188 414
188 415
188 416
188 418
188 419
188 437
188 443
188 447
188 448
188 449
188 453
188 454
188 456
188 458
188 467
188 471
189 190
189 191
189 195
189 197
189 200
189 201
189 204
189 217
189 218
189 219
189 220
189 221
189 223
189 224
189 225
189 226
189 227
189 228
189 229
189 230
189 231
189 232
189 233
189 234
189 235
189 236
189 237
189 238
189 239
189 240
189 241
189 242
189 243
189 244
189 245
189 246
189 247
189 248
189 249
189 251
189 252
189 253
189 254
189 255
189 256
189 257
189 258
189 259
189 263
189 267
189 268
189 269
189 275
189 276
189 281
189 282
189 287
189 288
189 289
189 290
189 291
189 294
189 296
189 302
189 304
189 309
189 313
189 321
189 327
189 336
189 359
189 366
189 367
189 368
189 369
189 395
189 397
189 398
189 400
189 402
189 403
189 404
189 405
189 407
189 408
189 409
189 411
189 413
189 415
189 417
189 419
189 437
189 443
189 444
189 445
189 446
189 447
189 448
189 450
189 451
189 452
189 453
189 454
189 456
189 458
189 467
189 471
190 191
190 195
190 197
190 200
190 201
190 204
190 217
190 218
190 219
190 220
190 221
190 222
190 223
190 224
190 225
190 227
190 228
190 229
190 230
190 231
190 232
190 233
190 234
190 235
190 236
190 237
190 238
190 239
190 240
190 241
190 242
190 243
190 244
190 245
190 246
190 247
190 248
190 249
190 250
190 251
190 252
190 253
190 255
190 256
190 257
190 258
190 259
190 263
190 267
190 268
190 269
190 275
190 276
190 281
190 282
190 287
190 288
190 289
190 290
190 291
190 293
190 294
190 295
190 296
190 297
190 298
190 299
190 300
190 301
190 302
190 303
190 305
190 306
190 307
190 308
190 309
190 313
190 321
190 327
190 336
190 359
190 366
190 367
190 368
190 369
190 394
190 395
190 396
190 397
190 398
190 399
190 400
190 401
190 403
190 404
190 405
190 407
190 408
190 409
190 411
190 413
190 415
190 417
190 419
190 437
190 443
190 444
190 445
190 446
190 447
190 448
190 449
190 450
190 451
190 452
190 454
190 456
190 458
190 467
190 471
191 195
191 197
191 198
191 199
191 200
191 201
191 202
191 203
191 217
191 218
191 219
191 220
191 221
191 222
191 223
191 224
191 225
191 226
191 227
191 228
191 229
191 230
191 231
191 232
191 233
191 234
191 235
191 236
191 237
191 238
191 240
191 244
191 250
191 254
191 260
191 261
191 262
191 263
191 264
191 265
191 266
191 268
191 269
191 275
191 276
191 281
191 282
191 287
191 288
191 289
191 290
191 291
191 294
191 296
191 302
191 304
191 309
191 313
191 321
191 327
191 336
191 359
191 366
191 367
191 368
191 369
191 394
191 395
191 396
191 397
191 398
191 399
191 400
191 401
191 402
191 404
191 405
191 406
191 407
191 408
191 409
191 410
191 412
191 413
191 414
191 415
191 416
191 417
191 418
191 437
191 443
191 444
191 445
191 446
191 447
191 448
191 449
191 450
191 451
191 452
191 453
191 456
191 458
191 464
191 465
191 466
191 467
191 468
191 469
191 470
192 193
192 194
192 195
192 196
192 199
192 200
192 216
192 261
192 262
192 263
192 270
192 274
192 277
192 291
192 292
192 294
192 295
192 296
192 297
192 298
192 299
192 300
192 301
192 302
192 303
192 304
192 305
192 306
192 307
192 308
192 319
192 321
192 322
192 323
192 324
192 325
192 326
192 327
192 328
192 329
192 330
192 331
192 333
192 336
192 337
192 339
192 340
192 341
192 342
192 343
192 344
192 345
192 346
192 347
192 348
192 349
192 351
192 358
192 361
192 365
192 374
192 376
192 377
192 381
192 383
192 384
192 395
192 396
192 397
192 398
192 399
192 400
192 401
192 402
192 403
192 406
192 407
192 413
192 414
192 415
192 416
192 417
192 418
192 419
192 421
192 437
192 438
192 439
192 440
192 441
192 442
192 448
192 456
192 457
192 458
192 459
192 460
192 461
192 462
192 463
192 465
192 466
192 467
192 468
192 469
192 470
192 471
193 194
193 195
193 196
193 199
193 200
193 216
193 260
193 262
193 263
193 264
193 265
193 266
193 267
193 270
193 274
193 277
193 291
193 292
193 293
193 319
193 320
193 322
193 332
193 334
193 335
193 336
193 337
193 338
193 340
193 341
193 342
193 343
193 344
193 345
193 346
193 347
193 348
193 349
193 350
193 352
193 353
193 354
193 355
193 356
193 357
193 358
193 361
193 365
193 374
193 375
193 377
193 378
193 379
193 380
193 381
193 382
193 384
193 385
193 386
193 387
193 388
193 389
193 390
193 391
193 392
193 393
193 394
193 398
193 406
193 407
193 412
193 414
193 415
193 420
193 422
193 423
193 424
193 425
193 426
193 427
193 428
193 429
193 430
193 431
193 432
193 433
193 434
193 435
193 436
193 438
193 442
193 448
193 455
193 463
193 464
193 466
193 467
193 468
193 469
193 470
193 471
194 195
194 196
194 197
194 198
194 200
194 201
194 202
194 203
194 204
194 216
194 260
194 261
194 263
194 264
194 265
194 266
194 267
194 268
194 269
194 271
194 272
194 273
194 274
194 275
194 276
194 278
194 279
194 280
194 281
194 282
194 283
194 284
194 285
194 286
194 291
194 292
194 293
194 319
194 320
194 321
194 323
194 324
194 325
194 326
194 327
194 328
194 329
194 330
194 331
194 333
194 336
194 337
194 338
194 339
194 341
194 342
194 343
194 344
194 345
194 346
194 347
194 348
194 349
194 351
194 358
194 359
194 360
194 362
194 363
194 364
194 365
194 374
194 375
194 376
194 378
194 379
194 380
194 381
194 382
194 383
194 385
194 386
194 387
194 388
194 389
194 390
194 391
194 392
194 393
194 394
194 398
194 404
194 405
194 407
194 408
194 409
194 410
194 411
194 412
194 413
194 415
194 416
194 417
194 418
194 419
194 421
194 436
194 437
194 439
194 440
194 441
194 442
194 448
194 455
194 463
194 464
194 465
194 467
194 468
194 469
194 470
194 471
195 196
195 197
195 198
195 199
195 201
195 202
195 203
195 204
195 216
195 260
195 261
195 262
195 264
195 265
195 266
195 267
195 270
195 274
195 277
195 287
195 288
195 289
195 290
195 292
195 293
195 319
195 320
195 322
195 332
195 333
195 334
195 335
195 337
195 338
195 339
195 340
195 351
195 358
195 361
195 365
195 374
195 376
195 377
195 381
195 383
195 384
195 394
195 395
195 396
195 397
195 399
195 400
195 401
195 402
195 403
195 404
195 405
195 406
195 408
195 409
195 410
195 411
195 412
195 413
195 414
195 416
195 417
195 418
195 419
195 421
195 436
195 438
195 442
195 443
195 444
195 445
195 446
195 447
195 449
195 450
195 451
195 452
195 453
195 454
195 455
195 463
195 464
195 465
195 466
195 468
195 469
195 470
195 471
196 199
196 200
196 205
196 206
196 207
196 208
196 209
196 210
196 211
196 212
196 213
196 214
196 215
196 261
196 262
196 263
196 268
196 269
196 270
196 271
196 272
196 273
196 277
196 287
196 288
196 289
196 290
196 291
196 293
196 309
196 310
196 311
196 312
196 313
196 314
196 315
196 316
196 317
196 318
196 320
196 322
196 332
196 333
196 334
196 335
196 336
196 338
196 339
196 340
196 350
196 351
196 352
196 353
196 354
196 355
196 356
196 357
196 359
196 360
196 361
196 362
196 363
196 364
196 366
196 367
196 368
196 369
196 370
196 371
196 372
196 373
196 375
196 376
196 377
196 378
196 379
196 380
196 383
196 384
196 394
196 398
196 406
196 407
196 412
196 414
196 415
196 421
196 436
196 437
196 438
196 439
196 440
196 441
196 448
196 455
196 456
196 457
196 458
196 459
196 460
196 461
196 462
196 464
196 465
196 466
196 467
197 198
197 199
197 200
197 201
197 202
197 203
197 204
197 217
197 219
197 227
197 239
197 260
197 262
197 263
197 264
197 266
197 267
197 269
197 270
197 271
197 272
197 273
197 274
197 276
197 277
197 278
197 279
197 280
197 281
197 282
197 283
197 284
197 285
197 286
197 288
197 289
197 290
197 291
197 292
197 322
197 328
197 332
197 336
197 340
197 346
197 350
197 360
197 361
197 362
197 363
197 364
197 365
197 367
197 368
197 369
197 370
197 371
197 372
197 373
197 374
197 375
197 377
197 382
197 384
197 388
197 390
197 398
197 403
197 405
197 406
197 407
197 408
197 409
197 410
197 411
197 414
197 415
197 418
197 419
197 420
197 428
197 438
197 448
197 454
197 466
197 467
197 470
197 471
198 199
198 200
198 201
198 202
198 203
198 204
198 217
198 219
198 227
198 239
198 261
198 262
198 263
198 264
198 265
198 266
198 267
198 268
198 270
198 275
198 277
198 281
198 283
198 287
198 291
198 322
198 328
198 333
198 334
198 335
198 336
198 337
198 340
198 346
198 351
198 352
198 353
198 354
198 355
198 356
198 357
198 358
198 359
198 361
198 362
198 363
198 364
198 365
198 366
198 376
198 377
198 378
198 379
198 380
198 381
198 383
198 384
198 385
198 386
198 387
198 388
198 389
198 390
198 391
198 392
198 393
198 398
198 403
198 404
198 406
198 407
198 408
198 410
198 411
198 414
198 415
198 418
198 419
198 421
198 422
198 423
198 424
198 425
198 426
198 427
198 428
198 429
198 430
198 431
198 432
198 433
198 434
198 435
198 438
198 448
198 454
198 466
198 467
198 470
198 471
199 200
199 201
199 202
199 203
199 204
199 217
199 219
199 227
199 239
199 260
199 261
199 263
199 264
199 265
199 266
199 267
199 268
199 269
199 271
199 272
199 273
199 274
199 275
199 276
199 278
199 279
199 280
199 281
199 282
199 283
199 284
199 285
199 286
199 287
199 291
199 320
199 321
199 323
199 324
199 325
199 326
199 327
199 328
199 329
199 330
199 331
199 332
199 336
199 338
199 339
199 341
199 342
199 343
199 344
199 345
199 346
199 347
199 348
199 349
199 350
199 359
199 360
199 362
199 363
199 364
199 365
199 366
199 375
199 376
199 378
199 379
199 380
199 381
199 382
199 383
199 385
199 386
199 387
199 388
199 389
199 390
199 391
199 392
199 393
199 398
199 403
199 404
199 405
199 407
199 408
199 409
199 410
199 411
199 412
199 413
199 415
199 416
199 417
199 418
199 419
199 420
199 428
199 436
199 437
199 439
199 440
199 441
199 442
199 448
199 454
199 464
199 465
199 467
199 468
199 469
199 470
199 471
200 201
200 202
200 203
200 204
200 217
200 219
200 227
200 239
200 260
200 261
200 262
200 264
200 265
200 266
200 267
200 268
200 270
200 275
200 277
200 281
200 283
200 287
200 288
200 289
200 290
200 292
200 322
200 328
200 332
200 333
200 334
200 335
200 337
200 340
200 346
200 350
200 359
200 360
200 361
200 366
200 375
200 377
200 382
200 384
200 388
200 390
200 394
200 395
200 396
200 397
200 399
200 400
200 401
200 402
200 403
200 404
200 405
200 406
200 408
200 409
200 410
200 411
200 412
200 413
200 414
200 416
200 417
200 418
200 419
200 420
200 428
200 438
200 443
200 444
200 445
200 446
200 447
200 449
200 450
200 451
200 452
200 453
200 454
200 464
200 465
200 466
200 468
200 469
200 470
200 471
201 202
201 203
201 204
201 218
201 219
201 220
201 221
201 222
201 223
201 224
201 225
201 226
201 227
201 228
201 229
201 230
201 231
201 232
201 233
201 234
201 235
201 236
201 237
201 238
201 239
201 260
201 262
201 263
201 264
201 266
201 267
201 268
201 270
201 275
201 276
201 277
201 278
201 279
201 280
201 282
201 283
201 284
201 285
201 286
201 287
201 291
201 322
201 328
201 332
201 336
201 340
201 346
201 350
201 359
201 360
201 361
201 366
201 375
201 377
201 382
201 384
201 388
201 390
201 398
201 403
201 404
201 405
201 406
201 407
201 409
201 410
201 411
201 414
201 415
201 418
201 419
201 420
201 428
201 438
201 448
201 454
201 466
201 467
201 470
201 471
202 203
202 204
202 217
202 218
202 220
202 221
202 222
202 223
202 224
202 225
202 226
202 227
202 228
202 229
202 230
202 231
202 232
202 233
202 234
202 235
202 236
202 237
202 238
202 239
202 260
202 261
202 262
202 263
202 265
202 266
202 267
202 268
202 270
202 275
202 277
202 281
202 283
202 287
202 291
202 322
202 328
202 332
202 336
202 340
202 346
202 350
202 359
202 360
202 361
202 366
202 375
202 377
202 382
202 383
202 384
202 385
202 386
202 387
202 389
202 390
202 391
202 392
202 393
202 398
202 403
202 404
202 406
202 407
202 408
202 410
202 411
202 414
202 415
202 418
202 419
202 420
202 421
202 422
202 423
202 424
202 425
202 426
202 427
202 429
202 430
202 431
202 432
202 433
202 434
202 435
202 438
202 448
202 454
202 466
202 467
202 470
202 471
203 204
203 217
203 218
203 219
203 220
203 221
203 222
203 223
203 224
203 225
203 226
203 228
203 229
203 230
203 231
203 232
203 233
203 234
203 235
203 236
203 237
203 238
203 239
203 260
203 261
203 262
203 263
203 264
203 265
203 267
203 268
203 270
203 275
203 276
203 277
203 278
203 279
203 280
203 281
203 282
203 284
203 285
203 286
203 287
203 291
203 320
203 321
203 322
203 323
203 324
203 325
203 326
203 327
203 329
203 330
203 331
203 332
203 336
203 338
203 339
203 340
203 341
203 342
203 343
203 344
203 345
203 347
203 348
203 349
203 350
203 359
203 360
203 361
203 366
203 375
203 377
203 382
203 383
203 384
203 385
203 386
203 387
203 388
203 389
203 391
203 392
203 393
203 398
203 403
203 404
203 405
203 406
203 407
203 408
203 409
203 411
203 412
203 413
203 414
203 415
203 416
203 417
203 419
203 420
203 428
203 438
203 448
203 454
203 464
203 465
203 466
203 467
203 468
203 469
203 471
204 217
204 218
204 219
204 220
204 221
204 222
204 223
204 224
204 225
204 226
204 227
204 228
204 229
204 230
204 231
204 232
204 233
204 234
204 235
204 236
204 237
204 238
204 260
204 261
204 262
204 263
204 264
204 265
204 266
204 268
204 270
204 275
204 277
204 281
204 283
204 287
204 291
204 322
204 328
204 332
204 336
204 340
204 346
204 350
204 359
204 360
204 361
204 366
204 375
204 377
204 382
204 384
204 388
204 390
204 394
204 395
204 396
204 397
204 398
204 399
204 400
204 401
204 402
204 404
204 405
204 406
204 407
204 408
204 409
204 410
204 412
204 413
204 414
204 415
204 416
204 417
204 418
204 420
204 428
204 438
204 443
204 444
204 445
204 446
204 447
204 448
204 449
204 450
204 451
204 452
204 453
204 464
204 465
204 466
204 467
204 468
204 469
204 470
205 206
205 207
205 208
205 209
205 210
205 211
205 212
205 213
205 214
205 215
205 216
205 245
205 246
205 247
205 248
205 249
205 268
205 269
205 270
205 272
205 273
205 274
205 275
205 276
205 277
205 279
205 280
205 281
205 282
205 283
205 284
205 285
205 286
205 292
205 297
205 298
205 299
205 300
205 314
205 315
205 316
205 317
205 318
205 319
205 323
205 324
205 325
205 337
205 341
205 342
205 343
205 354
205 355
205 356
205 357
205 358
205 359
205 360
205 361
205 363
205 364
205 365
205 366
205 367
205 368
205 369
205 371
205 372
205 373
205 374
205 378
205 379
205 380
205 381
205 385
205 386
205 387
205 424
205 425
205 426
205 427
205 439
205 440
205 441
205 442
205 459
205 460
205 461
205 462
205 463
206 207
206 208
206 209
206 210
206 211
206 212
206 213
206 214
206 215
206 216
206 245
206 246
206 247
206 248
206 249
206 271
206 272
206 273
206 274
206 278
206 279
206 280
206 292
206 293
206 294
206 295
206 296
206 298
206 299
206 300
206 301
206 302
206 303
206 304
206 305
206 306
206 307
206 308
206 314
206 315
206 316
206 317
206 318
206 319
206 320
206 321
206 322
206 324
206 325
206 326
206 327
206 328
206 329
206 330
206 331
206 337
206 338
206 339
206 340
206 342
206 343
206 344
206 345
206 346
206 347
206 348
206 349
206 354
206 355
206 356
206 357
206 358
206 362
206 363
206 364
206 365
206 370
206 371
206 372
206 373
206 374
206 378
206 379
206 380
206 381
206 385
206 386
206 387
206 424
206 425
206 426
206 427
206 436
206 437
206 438
206 440
206 441
206 442
206 455
206 456
206 457
206 458
206 460
206 461
206 462
206 463
207 208
207 209
207 210
207 211
207 212
207 213
207 214
207 215
207 216
207 245
207 246
207 247
207 248
207 249
207 271
207 272
207 273
207 274
207 278
207 279
207 280
207 292
207 297
207 298
207 299
207 300
207 314
207 315
207 316
207 317
207 318
207 319
207 323
207 324
207 325
207 337
207 341
207 342
207 343
207 350
207 351
207 352
207 353
207 355
207 356
207 357
207 358
207 359
207 360
207 361
207 362
207 364
207 365
207 370
207 371
207 372
207 373
207 374
207 375
207 376
207 377
207 379
207 380
207 381
207 382
207 383
207 384
207 386
207 387
207 388
207 389
207 390
207 391
207 392
207 393
207 420
207 421
207 422
207 423
207 425
207 426
207 427
207 428
207 429
207 430
207 431
207 432
207 433
207 434
207 435
207 439
207 440
207 441
207 442
207 459
207 460
207 461
207 462
207 463
208 209
208 210
208 211
208 212
208 213
208 214
208 215
208 216
208 245
208 246
208 247
208 248
208 249
208 271
208 272
208 273
208 274
208 278
208 279
208 280
208 292
208 297
208 298
208 299
208 300
208 314
208 315
208 316
208 317
208 318
208 319
208 323
208 324
208 325
208 337
208 338
208 339
208 340
208 341
208 343
208 344
208 345
208 346
208 347
208 348
208 349
208 350
208 351
208 352
208 353
208 354
208 356
208 357
208 358
208 362
208 363
208 364
208 365
208 370
208 371
208 372
208 373
208 374
208 375
208 376
208 377
208 378
208 380
208 381
208 382
208 383
208 384
208 385
208 387
208 388
208 389
208 390
208 391
208 392
208 393
208 420
208 421
208 422
208 423
208 424
208 426
208 427
208 428
208 429
208 430
208 431
208 432
208 433
208 434
208 435
208 439
208 440
208 441
208 442
208 459
208 460
208 461
208 462
208 463
209 210
209 211
209 212
209 213
209 214
209 215
209 216
209 245
209 246
209 247
209 248
209 249
209 268
209 269
209 270
209 271
209 273
209 274
209 275
209 276
209 277
209 278
209 280
209 281
209 282
209 283
209 284
209 285
209 286
209 292
209 293
209 294
209 295
209 296
209 297
209 299
209 300
209 301
209 302
209 303
209 304
209 305
209 306
209 307
209 308
209 314
209 315
209 316
209 317
209 318
209 319
209 320
209 321
209 322
209 323
209 325
209 326
209 327
209 328
209 329
209 330
209 331
209 337
209 341
209 342
209 343
209 354
209 355
209 356
209 357
209 358
209 362
209 363
209 364
209 365
209 366
209 367
209 368
209 369
209 370
209 372
209 373
209 374
209 378
209 379
209 380
209 381
209 385
209 386
209 387
209 424
209 425
209 426
209 427
209 436
209 437
209 438
209 439
209 441
209 442
209 455
209 456
209 457
209 458
209 459
209 461
209 462
209 463
210 211
210 212
210 213
210 214
210 215
210 216
210 240
210 241
210 242
210 243
210 244
210 246
210 247
210 248
210 249
210 250
210 251
210 252
210 253
210 254
210 255
210 256
210 257
210 258
210 259
210 271
210 272
210 273
210 274
210 278
210 279
210 280
210 292
210 297
210 298
210 299
210 300
210 309
210 310
210 311
210 312
210 313
210 315
210 316
210 317
210 318
210 319
210 323
210 324
210 325
210 337
210 341
210 342
210 343
210 354
210 355
210 356
210 357
210 358
210 362
210 363
210 364
210 365
210 366
210 367
210 368
210 369
210 370
210 371
210 373
210 374
210 378
210 379
210 380
210 381
210 385
210 386
210 387
210 424
210 425
210 426
210 427
210 439
210 440
210 441
210 442
210 459
210 460
210 461
210 462
210 463
211 212
211 213
211 214
211 215
211 216
211 240
211 241
211 242
211 243
211 244
211 245
211 247
211 248
211 249
211 250
211 251
211 252
211 253
211 254
211 255
211 256
211 257
211 258
211 259
211 271
211 272
211 273
211 274
211 278
211 279
211 280
211 292
211 293
211 294
211 295
211 296
211 297
211 298
211 300
211 301
211 302
211 303
211 304
211 305
211 306
211 307
211 308
211 309
211 310
211 311
211 312
211 313
211 314
211 316
211 317
211 318
211 319
211 323
211 324
211 325
211 337
211 341
211 342
211 343
211 354
211 355
211 356
211 357
211 358
211 362
211 363
211 364
211 365
211 370
211 371
211 372
211 373
211 374
211 378
211 379
211 380
211 381
211 385
211 386
211 387
211 424
211 425
211 426
211 427
211 439
211 440
211 441
211 442
211 455
211 456
211 457
211 458
211 459
211 460
211 462
211 463
212 213
212 214
212 215
212 216
212 240
212 241
212 242
212 243
212 244
212 245
212 246
212 248
212 249
212 250
212 251
212 252
212 253
212 254
212 255
212 256
212 257
212 258
212 259
212 271
212 272
212 273
212 274
212 278
212 279
212 280
212 292
212 297
212 298
212 299
212 300
212 309
212 310
212 311
212 312
212 313
212 314
212 315
212 317
212 318
212 319
212 323
212 324
212 325
212 337
212 341
212 342
212 343
212 350
212 351
212 352
212 353
212 354
212 355
212 357
212 358
212 362
212 363
212 364
212 365
212 370
212 371
212 372
212 373
212 374
212 378
212 379
212 380
212 381
212 385
212 386
212 387
212 420
212 421
212 422
212 423
212 424
212 425
212 427
212 428
212 429
212 430
212 431
212 432
212 433
212 434
212 435
212 439
212 440
212 441
212 442
212 459
212 460
212 461
212 462
212 463
213 214
213 215
213 216
213 240
213 241
213 242
213 243
213 244
213 245
213 246
213 247
213 249
213 250
213 251
213 252
213 253
213 254
213 255
213 256
213 257
213 258
213 259
213 271
213 272
213 273
213 274
213 278
213 279
213 280
213 292
213 297
213 298
213 299
213 300
213 309
213 310
213 311
213 312
213 313
213 314
213 315
213 316
213 318
213 319
213 323
213 324
213 325
213 337
213 341
213 342
213 343
213 350
213 351
213 352
213 353
213 354
213 355
213 356
213 358
213 362
213 363
213 364
213 365
213 370
213 371
213 372
213 373
213 374
213 378
213 379
213 380
213 381
213 385
213 386
213 387
213 420
213 421
213 422
213 423
213 424
213 425
213 426
213 428
213 429
213 430
213 431
213 432
213 433
213 434
213 435
213 439
213 440
213 441
213 442
213 459
213 460
213 461
213 462
213 463
214 215
214 216
214 240
214 241
214 242
214 243
214 244
214 245
214 246
214 247
214 248
214 250
214 251
214 252
214 253
214 254
214 255
214 256
214 257
214 258
214 259
214 271
214 272
214 273
214 274
214 278
214 279
214 280
214 292
214 293
214 294
214 295
214 296
214 297
214 298
214 299
214 301
214 302
214 303
214 304
214 305
214 306
214 307
214 308
214 309
214 310
214 311
214 312
214 313
214 314
214 315
214 316
214 317
214 319
214 323
214 324
214 325
214 337
214 341
214 342
214 343
214 354
214 355
214 356
214 357
214 358
214 362
214 363
214 364
214 365
214 366
214 367
214 368
214 369
214 370
214 371
214 372
214 374
214 378
214 379
214 380
214 381
214 385
214 386
214 387
214 424
214 425
214 426
214 427
214 439
214 440
214 441
214 442
214 455
214 456
214 457
214 458
214 459
214 460
214 461
214 463
215 216
215 245
215 246
215 247
215 248
215 249
215 268
215 269
215 270
215 271
215 272
215 274
215 275
215 276
215 277
215 278
215 279
215 281
215 282
215 283
215 284
215 285
215 286
215 292
215 297
215 298
215 299
215 300
215 314
215 315
215 316
215 317
215 318
215 319
215 320
215 321
215 322
215 323
215 324
215 326
215 327
215 328
215 329
215 330
215 331
215 337
215 338
215 339
215 340
215 341
215 342
215 344
215 345
215 346
215 347
215 348
215 349
215 354
215 355
215 356
215 357
215 358
215 359
215 360
215 361
215 362
215 363
215 365
215 370
215 371
215 372
215 373
215 374
215 375
215 376
215 377
215 378
215 379
215 381
215 382
215 383
215 384
215 385
215 386
215 388
215 389
215 390
215 391
215 392
215 393
215 424
215 425
215 426
215 427
215 436
215 437
215 438
215 439
215 440
215 442
215 459
215 460
215 461
215 462
215 463
216 245
216 246
216 247
216 248
216 249
216 268
216 269
216 270
216 271
216 272
216 273
216 278
216 279
216 280
216 287
216 288
216 289
216 290
216 291
216 297
216 298
216 299
216 300
216 309
216 310
216 311
216 312
216 313
216 314
216 315
216 316
216 317
216 318
216 323
216 324
216 325
216 332
216 333
216 334
216 335
216 336
216 341
216 342
216 343
216 350
216 351
216 352
216 353
216 354
216 355
216 356
216 357
216 359
216 360
216 361
216 362
216 363
216 364
216 366
216 367
216 368
216 369
216 370
216 371
216 372
216 373
216 375
216 376
216 377
216 378
216 379
216 380
216 385
216 386
216 387
216 424
216 425
216 426
216 427
216 436
216 437
216 438
216 439
216 440
216 441
216 455
216 456
216 457
216 458
216 459
216 460
216 461
216 462
217 218
217 219
217 220
217 221
217 222
217 223
217 224
217 225
217 226
217 227
217 228
217 229
217 230
217 231
217 232
217 233
217 234
217 235
217 236
217 237
217 238
217 239
217 250
217 251
217 252
217 253
217 254
217 255
217 256
217 257
217 258
217 259
217 264
217 265
217 266
217 267
217 275
217 276
217 277
217 278
217 279
217 280
217 282
217 283
217 284
217 285
217 286
217 301
217 302
217 303
217 304
217 305
217 306
217 307
217 308
217 326
217 327
217 328
217 329
217 330
217 331
217 344
217 345
217 346
217 347
217 348
217 349
217 388
217 389
217 390
217 391
217 392
217 393
217 399
217 400
217 401
217 402
217 403
217 404
217 405
217 406
217 407
217 409
217 410
217 411
217 416
217 417
217 418
217 419
217 428
217 429
217 430
217 431
217 432
217 433
217 434
217 435
217 449
217 450
217 451
217 452
217 453
217 454
217 468
217 469
217 470
217 471
218 219
218 220
218 221
218 222
218 223
218 224
218 225
218 226
218 227
218 228
218 229
218 230
218 231
218 232
218 233
218 234
218 235
218 236
218 237
218 238
218 239
218 250
218 251
218 252
218 253
218 254
218 255
218 256
218 257
218 258
218 259
218 264
218 265
218 266
218 267
218 281
218 282
218 283
218 284
218 285
218 286
218 293
218 294
218 295
218 296
218 297
218 298
218 299
218 300
218 302
218 303
218 304
218 305
218 306
218 307
218 308
218 320
218 321
218 322
218 323
218 324
218 325
218 327
218 328
218 329
218 330
218 331
218 338
218 339
218 340
218 341
218 342
218 343
218 345
218 346
218 347
218 348
218 349
218 388
218 389
218 390
218 391
218 392
218 393
218 394
218 395
218 396
218 397
218 398
218 400
218 401
218 402
218 403
218 408
218 409
218 410
218 411
218 412
218 413
218 414
218 415
218 417
218 418
218 419
218 428
218 429
218 430
218 431
218 432
218 433
218 434
218 435
218 449
218 450
218 451
218 452
218 453
218 454
218 464
218 465
218 466
218 467
218 469
218 470
218 471
219 220
219 221
219 222
219 223
219 224
219 225
219 226
219 227
219 228
219 229
219 230
219 231
219 232
219 233
219 234
219 235
219 236
219 237
219 238
219 239
219 250
219 251
219 252
219 253
219 254
219 255
219 256
219 257
219 258
219 259
219 260
219 261
219 262
219 263
219 265
219 266
219 267
219 281
219 282
219 283
219 284
219 285
219 286
219 301
219 302
219 303
219 304
219 305
219 306
219 307
219 308
219 326
219 327
219 328
219 329
219 330
219 331
219 344
219 345
219 346
219 347
219 348
219 349
219 382
219 383
219 384
219 385
219 386
219 387
219 389
219 390
219 391
219 392
219 393
219 399
219 400
219 401
219 402
219 403
219 408
219 409
219 410
219 411
219 416
219 417
219 418
219 419
219 420
219 421
219 422
219 423
219 424
219 425
219 426
219 427
219 429
219 430
219 431
219 432
219 433
219 434
219 435
219 449
219 450
219 451
219 452
219 453
219 454
219 468
219 469
219 470
219 471
220 221
220 222
220 223
220 224
220 225
220 226
220 227
220 228
220 229
220 230
220 231
220 232
220 233
220 234
220 235
220 236
220 237
220 238
220 239
220 250
220 251
220 252
220 253
220 254
220 255
220 256
220 257
220 258
220 259
220 260
220 261
220 262
220 263
220 264
220 266
220 267
220 281
220 282
220 283
220 284
220 285
220 286
220 301
220 302
220 303
220 304
220 305
220 306
220 307
220 308
220 326
220 327
220 328
220 329
220 330
220 331
220 338
220 339
220 340
220 341
220 342
220 343
220 344
220 346
220 347
220 348
220 349
220 382
220 383
220 384
220 385
220 386
220 387
220 388
220 390
220 391
220 392
220 393
220 399
220 400
220 401
220 402
220 403
220 408
220 409
220 410
220 411
220 416
220 417
220 418
220 419
220 420
220 421
220 422
220 423
220 424
220 425
220 426
220 427
220 428
220 430
220 431
220 432
220 433
220 434
220 435
220 449
220 450
220 451
220 452
220 453
220 454
220 464
220 465
220 466
220 467
220 468
220 470
220 471
221 222
221 223
221 224
221 225
221 226
221 227
221 228
221 229
221 230
221 231
221 232
221 233
221 234
221 235
221 236
221 237
221 238
221 239
221 250
221 251
221 252
221 253
221 254
221 255
221 256
221 257
221 258
221 259
221 264
221 265
221 266
221 267
221 275
221 276
221 277
221 278
221 279
221 280
221 281
221 283
221 284
221 285
221 286
221 293
221 294
221 295
221 296
221 297
221 298
221 299
221 300
221 301
221 303
221 304
221 305
221 306
221 307
221 308
221 320
221 321
221 322
221 323
221 324
221 325
221 326
221 328
221 329
221 330
221 331
221 344
221 345
221 346
221 347
221 348
221 349
221 388
221 389
221 390
221 391
221 392
221 393
221 394
221 395
221 396
221 397
221 398
221 399
221 401
221 402
221 403
221 404
221 405
221 406
221 407
221 408
221 410
221 411
221 412
221 413
221 414
221 415
221 416
221 418
221 419
221 428
221 429
221 430
221 431
221 432
221 433
221 434
221 435
221 449
221 450
221 451
221 452
221 453
221 454
221 468
221 469
221 470
221 471
222 223
222 224
222 225
222 226
222 227
222 228
222 229
222 230
222 231
222 232
222 233
222 234
222 235
222 236
222 237
222 238
222 239
222 240
222 241
222 242
222 243
222 244
222 245
222 246
222 247
222 248
222 249
222 251
222 252
222 253
222 254
222 255
222 256
222 257
222 258
222 259
222 264
222 265
222 266
222 267
222 281
222 282
222 283
222 284
222 285
222 286
222 301
222 302
222 303
222 304
222 305
222 306
222 307
222 308
222 326
222 327
222 328
222 329
222 330
222 331
222 344
222 345
222 346
222 347
222 348
222 349
222 388
222 389
222 390
222 391
222 392
222 393
222 399
222 400
222 401
222 402
222 403
222 408
222 409
222 410
222 411
222 416
222 417
222 418
222 419
222 428
222 429
222 430
222 431
222 432
222 433
222 434
222 435
222 443
222 444
222 445
222 446
222 447
222 448
222 450
222 451
222 452
222 453
222 454
222 468
222 469
222 470
222 471
223 224
223 225
223 226
223 227
223 228
223 229
223 230
223 231
223 232
223 233
223 234
223 235
223 236
223 237
223 238
223 239
223 240
223 241
223 242
223 243
223 244
223 245
223 246
223 247
223 248
223 249
223 250
223 252
223 253
223 254
223 255
223 256
223 257
223 258
223 259
223 264
223 265
223 266
223 267
223 281
223 282
223 283
223 284
223 285
223 286
223 293
223 294
223 295
223 296
223 297
223 298
223 299
223 300
223 301
223 302
223 304
223 305
223 306
223 307
223 308
223 326
223 327
223 328
223 329
223 330
223 331
223 344
223 345
223 346
223 347
223 348
223 349
223 388
223 389
223 390
223 391
223 392
223 393
223 394
223 395
223 396
223 397
223 398
223 399
223 400
223 402
223 403
223 408
223 409
223 410
223 411
223 416
223 417
223 418
223 419
223 428
223 429
223 430
223 431
223 432
223 433
223 434
223 435
223 443
223 444
223 445
223 446
223 447
223 448
223 449
223 451
223 452
223 453
223 454
223 468
223 469
223 470
223 471
224 225
224 226
224 227
224 228
224 229
224 230
224 231
224 232
224 233
224 234
224 235
224 236
224 237
224 238
224 239
224 240
224 241
224 242
224 243
224 244
224 245
224 246
224 247
224 248
224 249
224 250
224 251
224 253
224 254
224 255
224 256
224 257
224 258
224 259
224 264
224 265
224 266
224 267
224 281
224 282
224 283
224 284
224 285
224 286
224 301
224 302
224 303
224 304
224 305
224 306
224 307
224 308
224 326
224 327
224 328
224 329
224 330
224 331
224 344
224 345
224 346
224 347
224 348
224 349
224 388
224 389
224 390
224 391
224 392
224 393
224 399
224 400
224 401
224 402
224 403
224 408
224 409
224 410
224 411
224 416
224 417
224 418
224 419
224 420
224 421
224 422
224 423
224 424
224 425
224 426
224 427
224 428
224 429
224 431
224 432
224 433
224 434
224 435
224 443
224 444
224 445
224 446
224 447
224 448
224 449
224 450
224 452
224 453
224 454
224 468
224 469
224 470
224 471
225 226
225 227
225 228
225 229
225 230
225 231
225 232
225 233
225 234
225 235
225 236
225 237
225 238
225 239
225 240
225 241
225 242
225 243
225 244
225 245
225 246
225 247
225 248
225 249
225 250
225 251
225 252
225 254
225 255
225 256
225 257
225 258
225 259
225 264
225 265
225 266
225 267
225 281
225 282
225 283
225 284
225 285
225 286
225 301
225 302
225 303
225 304
225 305
225 306
225 307
225 308
225 326
225 327
225 328
225 329
225 330
225 331
225 344
225 345
225 346
225 347
225 348
225 349
225 388
225 389
225 390
225 391
225 392
225 393
225 399
225 400
225 401
225 402
225 403
225 408
225 409
225 410
225 411
225 416
225 417
225 418
225 419
225 420
225 421
225 422
225 423
225 424
225 425
225 426
225 427
225 428
225 429
225 430
225 432
225 433
225 434
225 435
225 443
225 444
225 445
225 446
225 447
225 448
225 449
225 450
225 451
225 453
225 454
225 468
225 469
225 470
225 471
226 227
226 228
226 229
226 230
226 231
226 232
226 233
226 234
226 235
226 236
226 237
226 238
226 239
226 240
226 241
226 242
226 243
226 244
226 245
226 246
226 247
226 248
226 249
226 250
226 251
226 252
226 253
226 255
226 256
226 257
226 258
226 259
226 264
226 265
226 266
226 267
226 281
226 282
226 283
226 284
226 285
226 286
226 293
226 294
226 295
226 296
226 297
226 298
226 299
226 300
226 301
226 302
226 303
226 305
226 306
226 307
226 308
226 326
226 327
226 328
226 329
226 330
226 331
226 344
226 345
226 346
226 347
226 348
226 349
226 388
226 389
226 390
226 391
226 392
226 393
226 394
226 395
226 396
226 397
226 398
226 399
226 400
226 401
226 403
226 408
226 409
226 410
226 411
226 416
226 417
226 418
226 419
226 428
226 429
226 430
226 431
226 432
226 433
226 434
226 435
226 443
226 444
226 445
226 446
226 447
226 448
226 449
226 450
226 451
226 452
226 454
226 468
226 469
226 470
226 471
227 228
227 229
227 230
227 231
227 232
227 233
227 234
227 235
227 236
227 237
227 238
227 239
227 250
227 251
227 252
227 253
227 254
227 255
227 256
227 257
227 258
227 259
227 260
227 261
227 262
227 263
227 264
227 265
227 267
227 275
227 276
227 277
227 278
227 279
227 280
227 281
227 282
227 284
227 285
227 286
227 301
227 302
227 303
227 304
227 305
227 306
227 307
227 308
227 320
227 321
227 322
227 323
227 324
227 325
227 326
227 327
227 329
227 330
227 331
227 338
227 339
227 340
227 341
227 342
227 343
227 344
227 345
227 347
227 348
227 349
227 382
227 383
227 384
227 385
227 386
227 387
227 388
227 389
227 391
227 392
227 393
227 399
227 400
227 401
227 402
227 403
227 404
227 405
227 406
227 407
227 408
227 409
227 411
227 412
227 413
227 414
227 415
227 416
227 417
227 419
227 428
227 429
227 430
227 431
227 432
227 433
227 434
227 435
227 449
227 450
227 451
227 452
227 453
227 454
227 464
227 465
227 466
227 467
227 468
227 469
227 471
228 229
228 230
228 231
228 232
228 233
228 234
228 235
228 236
228 237
228 238
228 239
228 250
228 251
228 252
228 253
228 254
228 255
228 256
228 257
228 258
228 259
228 264
228 265
228 266
228 267
228 275
228 276
228 277
228 278
228 279
228 280
228 281
228 282
228 283
228 285
228 286
228 301
228 302
228 303
228 304
228 305
228 306
228 307
228 308
228 326
228 327
228 328
228 329
228 330
228 331
228 344
228 345
228 346
228 347
228 348
228 349
228 388
228 389
228 390
228 391
228 392
228 393
228 399
228 400
228 401
228 402
228 403
228 408
228 409
228 410
228 411
228 416
228 417
228 418
228 419
228 428
228 429
228 430
228 431
228 432
228 433
228 434
228 435
228 449
228 450
228 451
228 452
228 453
228 454
228 468
228 469
228 470
228 471
229 230
229 231
229 232
229 233
229 234
229 235
229 236
229 237
229 238
229 239
229 250
229 251
229 252
229 253
229 254
229 255
229 256
229 257
229 258
229 259
229 264
229 265
229 266
229 267
229 281
229 282
229 283
229 284
229 285
229 286
229 293
229 294
229 295
229 296
229 297
229 298
229 299
229 300
229 301
229 302
229 303
229 304
229 306
229 307
229 308
229 320
229 321
229 322
229 323
229 324
229 325
229 326
229 327
229 328
229 330
229 331
229 338
229 339
229 340
229 341
229 342
229 343
229 344
229 345
229 346
229 348
229 349
229 388
229 389
229 390
229 391
229 392
229 393
229 399
229 400
229 401
229 402
229 403
229 408
229 409
229 410
229 411
229 416
229 417
229 418
229 419
229 428
229 429
229 430
229 431
229 432
229 433
229 434
229 435
229 449
229 450
229 451
229 452
229 453
229 454
229 468
229 469
229 470
229 471
230 231
230 232
230 233
230 234
230 235
230 236
230 237
230 238
230 239
230 250
230 251
230 252
230 253
230 254
230 255
230 256
230 257
230 258
230 259
230 264
230 265
230 266
230 267
230 281
230 282
230 283
230 284
230 285
230 286
230 301
230 302
230 303
230 304
230 305
230 306
230 307
230 308
230 326
230 327
230 328
230 329
230 330
230 331
230 344
230 345
230 346
230 347
230 348
230 349
230 382
230 383
230 384
230 385
230 386
230 387
230 388
230 389
230 390
230 392
230 393
230 399
230 400
230 401
230 402
230 403
230 408
230 409
230 410
230 411
230 416
230 417
230 418
230 419
230 420
230 421
230 422
230 423
230 424
230 425
230 426
230 427
230 428
230 429
230 430
230 431
230 433
230 434
230 435
230 449
230 450
230 451
230 452
230 453
230 454
230 468
230 469
230 470
230 471
231 232
231 233
231 234
231 235
231 236
231 237
231 238
231 239
231 250
231 251
231 252
231 253
231 254
231 255
231 256
231 257
231 258
231 259
231 264
231 265
231 266
231 267
231 281
231 282
231 283
231 284
231 285
231 286
231 301
231 302
231 303
231 304
231 305
231 306
231 307
231 308
231 326
231 327
231 328
231 329
231 330
231 331
231 338
231 339
231 340
231 341
231 342
231 343
231 344
231 345
231 346
231 347
231 349
231 382
231 383
231 384
231 385
231 386
231 387
231 388
231 389
231 390
231 391
231 393
231 399
231 400
231 401
231 402
231 403
231 408
231 409
231 410
231 411
231 416
231 417
231 418
231 419
231 420
231 421
231 422
231 423
231 424
231 425
231 426
231 427
231 428
231 429
231 430
231 431
231 432
231 434
231 435
231 449
231 450
231 451
231 452
231 453
231 454
231 468
231 469
231 470
231 471
232 233
232 234
232 235
232 236
232 237
232 238
232 239
232 250
232 251
232 252
232 253
232 254
232 255
232 256
232 257
232 258
232 259
232 264
232 265
232 266
232 267
232 275
232 276
232 277
232 278
232 279
232 280
232 281
232 282
232 283
232 284
232 286
232 293
232 294
232 295
232 296
232 297
232 298
232 299
232 300
232 301
232 302
232 303
232 304
232 305
232 307
232 308
232 320
232 321
232 322
232 323
232 324
232 325
232 326
232 327
232 328
232 329
232 331
232 344
232 345
232 346
232 347
232 348
232 349
232 388
232 389
232 390
232 391
232 392
232 393
232 399
232 400
232 401
232 402
232 403
232 408
232 409
232 410
232 411
232 416
232 417
232 418
232 419
232 428
232 429
232 430
232 431
232 432
232 433
232 434
232 435
232 449
232 450
232 451
232 452
232 453
232 454
232 468
232 469
232 470
232 471
233 234
233 235
233 236
233 237
233 238
233 239
233 240
233 241
233 242
233 243
233 244
233 245
233 246
233 247
233 248
233 249
233 250
233 251
233 252
233 253
233 254
233 256
233 257
233 258
233 259
233 264
233 265
233 266
233 267
233 281
233 282
233 283
233 284
233 285
233 286
233 301
233 302
233 303
233 304
233 305
233 306
233 307
233 308
233 326
233 327
233 328
233 329
233 330
233 331
233 344
233 345
233 346
233 347
233 348
233 349
233 388
233 389
233 390
233 391
233 392
233 393
233 399
233 400
233 401
233 402
233 403
233 408
233 409
233 410
233 411
233 416
233 417
233 418
233 419
233 428
233 429
233 430
233 431
233 432
233 433
233 434
233 435
233 449
233 450
233 451
233 452
233 453
233 454
233 468
233 469
233 470
233 471
234 235
234 236
234 237
234 238
234 239
234 240
234 241
234 242
234 243
234 244
234 245
234 246
234 247
234 248
234 249
234 250
234 251
234 252
234 253
234 254
234 255
234 257
234 258
234 259
234 264
234 265
234 266
234 267
234 281
234 282
234 283
234 284
234 285
234 286
234 293
234 294
234 295
234 296
234 297
234 298
234 299
234 300
234 301
234 302
234 303
234 304
234 305
234 306
234 308
234 326
234 327
234 328
234 329
234 330
234 331
234 344
234 345
234 346
234 347
234 348
234 349
234 388
234 389
234 390
234 391
234 392
234 393
234 399
234 400
234 401
234 402
234 403
234 408
234 409
234 410
234 411
234 416
234 417
234 418
234 419
234 428
234 429
234 430
234 431
234 432
234 433
234 434
234 435
234 449
234 450
234 451
234 452
234 453
234 454
234 468
234 469
234 470
234 471
235 236
235 237
235 238
235 239
235 240
235 241
235 242
235 243
235 244
235 245
235 246
235 247
235 248
235 249
235 250
235 251
235 252
235 253
235 254
235 255
235 256
235 258
235 259
235 264
235 265
235 266
235 267
235 281
235 282
235 283
235 284
235 285
235 286
235 301
235 302
235 303
235 304
235 305
235 306
235 307
235 308
235 326
235 327
235 328
235 329
235 330
235 331
235 344
235 345
235 346
235 347
235 348
235 349
235 388
235 389
235 390
235 391
235 392
235 393
235 399
235 400
235 401
235 402
235 403
235 408
235 409
235 410
235 411
235 416
235 417
235 418
235 419
235 420
235 421
235 422
235 423
235 424
235 425
235 426
235 427
235 428
235 429
235 430
235 431
235 432
235 433
235 435
235 449
235 450
235 451
235 452
235 453
235 454
235 468
235 469
235 470
235 471
236 237
236 238
236 239
236 240
236 241
236 242
236 243
236 244
236 245
236 246
236 247
236 248
236 249
236 250
236 251
236 252
236 253
236 254
236 255
236 256
236 257
236 259
236 264
236 265
236 266
236 267
236 281
236 282
236 283
236 284
236 285
236 286
236 301
236 302
236 303
236 304
236 305
236 306
236 307
236 308
236 326
236 327
236 328
236 329
236 330
236 331
236 344
236 345
236 346
236 347
236 348
236 349
236 388
236 389
236 390
236 391
236 392
236 393
236 399
236 400
236 401
236 402
236 403
236 408
236 409
236 410
236 411
236 416
236 417
236 418
236 419
236 420
236 421
236 422
236 423
236 424
236 425
236 426
236 427
236 428
236 429
236 430
236 431
236 432
236 433
236 434
236 449
236 450
236 451
236 452
236 453
236 454
236 468
236 469
236 470
236 471
237 238
237 239
237 240
237 241
237 242
237 243
237 244
237 245
237 246
237 247
237 248
237 249
237 250
237 251
237 252
237 253
237 254
237 255
237 256
237 257
237 258
237 264
237 265
237 266
237 267
237 281
237 282
237 283
237 284
237 285
237 286
237 293
237 294
237 295
237 296
237 297
237 298
237 299
237 300
237 301
237 302
237 303
237 304
237 305
237 306
237 307
237 326
237 327
237 328
237 329
237 330
237 331
237 344
237 345
237 346
237 347
237 348
237 349
237 388
237 389
237 390
237 391
237 392
237 393
237 399
237 400
237 401
237 402
237 403
237 408
237 409
237 410
237 411
237 416
237 417
237 418
237 419
237 428
237 429
237 430
237 431
237 432
237 433
237 434
237 435
237 449
237 450
237 451
237 452
237 453
237 454
237 468
237 469
237 470
237 471
238 239
238 250
238 251
238 252
238 253
238 254
238 255
238 256
238 257
238 258
238 259
238 264
238 265
238 266
238 267
238 275
238 276
238 277
238 278
238 279
238 280
238 281
238 282
238 283
238 284
238 285
238 301
238 302
238 303
238 304
238 305
238 306
238 307
238 308
238 320
238 321
238 322
238 323
238 324
238 325
238 326
238 327
238 328
238 329
238 330
238 338
238 339
238 340
238 341
238 342
238 343
238 344
238 345
238 346
238 347
238 348
238 382
238 383
238 384
238 385
238 386
238 387
238 388
238 389
238 390
238 391
238 392
238 399
238 400
238 401
238 402
238 403
238 408
238 409
238 410
238 411
238 416
238 417
238 418
238 419
238 428
238 429
238 430
238 431
238 432
238 433
238 434
238 435
238 449
238 450
238 451
238 452
238 453
238 454
238 468
238 469
238 470
238 471
239 250
239 251
239 252
239 253
239 254
239 255
239 256
239 257
239 258
239 259
239 260
239 261
239 262
239 263
239 264
239 265
239 266
239 281
239 282
239 283
239 284
239 285
239 286
239 301
239 302
239 303
239 304
239 305
239 306
239 307
239 308
239 326
239 327
239 328
239 329
239 330
239 331
239 344
239 345
239 346
239 347
239 348
239 349
239 388
239 389
239 390
239 391
239 392
239 393
239 394
239 395
239 396
239 397
239 398
239 399
239 400
239 401
239 402
239 404
239 405
239 406
239 407
239 408
239 409
239 410
239 412
239 413
239 414
239 415
239 416
239 417
239 418
239 428
239 429
239 430
239 431
239 432
239 433
239 434
239 435
239 443
239 444
239 445
239 446
239 447
239 448
239 449
239 450
239 451
239 452
239 453
239 464
239 465
239 466
239 467
239 468
239 469
239 470
240 241
240 242
240 243
240 244
240 245
240 246
240 247
240 248
240 249
240 250
240 251
240 252
240 253
240 254
240 255
240 256
240 257
240 258
240 259
240 287
240 288
240 290
240 291
240 292
240 295
240 296
240 299
240 300
240 303
240 304
240 307
240 308
240 310
240 311
240 312
240 313
240 314
240 315
240 316
240 317
240 318
240 319
240 334
240 335
240 352
240 353
240 356
240 357
240 366
240 367
240 369
240 370
240 371
240 372
240 373
240 374
240 396
240 397
240 401
240 402
240 422
240 423
240 426
240 427
240 430
240 431
240 434
240 435
240 444
240 445
240 446
240 447
240 448
240 449
240 450
240 451
240 452
240 453
240 454
240 457
240 458
240 461
240 462
241 242
241 243
241 244
241 245
241 246
241 247
241 248
241 249
241 250
241 251
241 252
241 253
241 254
241 255
241 256
241 257
241 258
241 259
241 289
241 290
241 293
241 294
241 296
241 297
241 298
241 299
241 300
241 301
241 302
241 303
241 304
241 305
241 306
241 307
241 308
241 309
241 311
241 312
241 313
241 314
241 315
241 316
241 317
241 318
241 319
241 334
241 335
241 352
241 353
241 356
241 357
241 368
241 369
241 372
241 373
241 394
241 395
241 397
241 398
241 399
241 400
241 401
241 402
241 403
241 422
241 423
241 426
241 427
241 430
241 431
241 434
241 435
241 443
241 445
241 446
241 447
241 448
241 449
241 450
241 451
241 452
241 453
241 454
241 455
241 456
241 458
241 459
241 460
241 461
241 462
241 463
242 243
242 244
242 245
242 246
242 247
242 248
242 249
242 250
242 251
242 252
242 253
242 254
242 255
242 256
242 257
242 258
242 259
242 289
242 290
242 295
242 296
242 299
242 300
242 303
242 304
242 307
242 308
242 309
242 310
242 312
242 313
242 314
242 315
242 316
242 317
242 318
242 319
242 332
242 333
242 335
242 336
242 337
242 350
242 351
242 353
242 354
242 355
242 356
242 357
242 358
242 368
242 369
242 372
242 373
242 396
242 397
242 401
242 402
242 420
242 421
242 423
242 424
242 425
242 426
242 427
242 428
242 429
242 430
242 431
242 432
242 433
242 434
242 435
242 443
242 444
242 446
242 447
242 448
242 449
242 450
242 451
242 452
242 453
242 454
242 457
242 458
242 461
242 462
243 244
243 245
243 246
243 247
243 248
243 249
243 250
243 251
243 252
243 253
243 254
243 255
243 256
243 257
243 258
243 259
243 289
243 290
243 295
243 296
243 299
243 300
243 303
243 304
243 307
243 308
243 309
243 310
243 311
243 313
243 314
243 315
243 316
243 317
243 318
243 319
243 332
243 333
243 334
243 336
243 337
243 350
243 351
243 352
243 354
243 355
243 356
243 357
243 358
243 368
243 369
243 372
243 373
243 396
243 397
243 401
243 402
243 420
243 421
243 422
243 424
243 425
243 426
243 427
243 428
243 429
243 430
243 431
243 432
243 433
243 434
243 435
243 443
243 444
243 445
243 447
243 448
243 449
243 450
243 451
243 452
243 453
243 454
243 457
243 458
243 461
243 462
244 245
244 246
244 247
244 248
244 249
244 250
244 251
244 252
244 253
244 254
244 255
244 256
244 257
244 258
244 259
244 287
244 288
244 289
244 291
244 292
244 293
244 294
244 295
244 297
244 298
244 299
244 300
244 301
244 302
244 303
244 304
244 305
244 306
244 307
244 308
244 309
244 310
244 311
244 312
244 314
244 315
244 316
244 317
244 318
244 319
244 334
244 335
244 352
244 353
244 356
244 357
244 366
244 367
244 368
244 370
244 371
244 372
244 373
244 374
244 394
244 395
244 396
244 398
244 399
244 400
244 401
244 402
244 403
244 422
244 423
244 426
244 427
244 430
244 431
244 434
244 435
244 443
244 444
244 445
244 446
244 448
244 449
244 450
244 451
244 452
244 453
244 454
244 455
244 456
244 457
244 459
244 460
244 461
244 462
244 463
245 246
245 247
245 248
245 249
245 250
245 251
245 252
245 253
245 254
245 255
245 256
245 257
245 258
245 259
245 289
245 290
245 295
245 296
245 299
245 300
245 303
245 304
245 307
245 308
245 309
245 310
245 311
245 312
245 313
245 315
245 316
245 317
245 318
245 319
245 334
245 335
245 352
245 353
245 356
245 357
245 366
245 367
245 368
245 369
245 370
245 371
245 373
245 374
245 396
245 397
245 401
245 402
245 422
245 423
245 426
245 427
245 430
245 431
245 434
245 435
245 443
245 444
245 445
245 446
245 447
245 449
245 450
245 451
245 452
245 453
245 457
245 458
245 461
245 462
246 247
246 248
246 249
246 250
246 251
246 252
246 253
246 254
246 255
246 256
246 257
246 258
246 259
246 289
246 290
246 293
246 294
246 295
246 296
246 297
246 298
246 300
246 301
246 302
246 303
246 304
246 305
246 306
246 307
246 308
246 309
246 310
246 311
246 312
246 313
246 314
246 316
246 317
246 318
246 319
246 334
246 335
246 352
246 353
246 356
246 357
246 368
246 369
246 372
246 373
246 396
246 397
246 401
246 402
246 422
246 423
246 426
246 427
246 430
246 431
246 434
246 435
246 443
246 444
246 445
246 446
246 447
246 449
246 450
246 451
246 452
246 453
246 455
246 456
246 457
246 458
246 459
246 460
246 462
246 463
247 248
247 249
247 250
247 251
247 252
247 253
247 254
247 255
247 256
247 257
247 258
247 259
247 289
247 290
247 295
247 296
247 299
247 300
247 303
247 304
247 307
247 308
247 309
247 310
247 311
247 312
247 313
247 314
247 315
247 317
247 318
247 319
247 334
247 335
247 350
247 351
247 352
247 353
247 354
247 355
247 357
247 358
247 368
247 369
247 372
247 373
247 396
247 397
247 401
247 402
247 420
247 421
247 422
247 423
247 424
247 425
247 427
247 428
247 429
247 430
247 431
247 432
247 433
247 434
247 435
247 443
247 444
247 445
247 446
247 447
247 449
247 450
247 451
247 452
247 453
247 457
247 458
247 461
247 462
248 249
248 250
248 251
248 252
248 253
248 254
248 255
248 256
248 257
248 258
248 259
248 289
248 290
248 295
248 296
248 299
248 300
248 303
248 304
248 307
248 308
248 309
248 310
248 311
248 312
248 313
248 314
248 315
248 316
248 318
248 319
248 334
248 335
248 350
248 351
248 352
248 353
248 354
248 355
248 356
248 358
248 368
248 369
248 372
248 373
248 396
248 397
248 401
248 402
248 420
248 421
248 422
248 423
248 424
248 425
248 426
248 428
248 429
248 430
248 431
248 432
248 433
248 434
248 435
248 443
248 444
248 445
248 446
248 447
248 449
248 450
248 451
248 452
248 453
248 457
248 458
248 461
248 462
249 250
249 251
249 252
249 253
249 254
249 255
249 256
249 257
249 258
249 259
249 289
249 290
249 293
249 294
249 295
249 296
249 297
249 298
249 299
249 301
249 302
249 303
249 304
249 305
249 306
249 307
249 308
249 309
249 310
249 311
249 312
249 313
249 314
249 315
249 316
249 317
249 319
249 334
249 335
249 352
249 353
249 356
249 357
249 366
249 367
249 368
249 369
249 370
249 371
249 372
249 374
249 396
249 397
249 401
249 402
249 422
249 423
249 426
249 427
249 430
249 431
249 434
249 435
249 443
249 444
249 445
249 446
249 447
249 449
249 450
249 451
249 452
249 453
249 455
249 456
249 457
249 458
249 459
249 460
249 461
249 463
250 251
250 252
250 253
250 254
250 255
250 256
250 257
250 258
250 259
250 289
250 290
250 295
250 296
250 299
250 300
250 303
250 304
250 307
250 308
250 309
250 310
250 311
250 312
250 313
250 314
250 315
250 316
250 317
250 318
250 334
250 335
250 352
250 353
250 356
250 357
250 368
250 369
250 372
250 373
250 396
250 397
250 401
250 402
250 422
250 423
250 426
250 427
250 430
250 431
250 434
250 435
250 443
250 444
250 445
250 446
250 447
250 448
250 450
250 451
250 452
250 453
250 454
250 457
250 458
250 461
250 462
251 252
251 253
251 254
251 255
251 256
251 257
251 258
251 259
251 289
251 290
251 293
251 294
251 295
251 296
251 297
251 298
251 299
251 300
251 301
251 302
251 304
251 305
251 306
251 307
251 308
251 309
251 310
251 311
251 312
251 313
251 314
251 315
251 316
251 317
251 318
251 334
251 335
251 352
251 353
251 356
251 357
251 368
251 369
251 372
251 373
251 394
251 395
251 396
251 397
251 398
251 399
251 400
251 402
251 403
251 422
251 423
251 426
251 427
251 430
251 431
251 434
251 435
251 443
251 444
251 445
251 446
251 447
251 448
251 449
251 451
251 452
251 453
251 454
251 457
251 458
251 461
251 462
252 253
252 254
252 255
252 256
252 257
252 258
252 259
252 289
252 290
252 295
252 296
252 299
252 300
252 303
252 304
252 307
252 308
252 309
252 310
252 311
252 312
252 313
252 314
252 315
252 316
252 317
252 318
252 334
252 335
252 352
252 353
252 356
252 357
252 368
252 369
252 372
252 373
252 396
252 397
252 401
252 402
252 420
252 421
252 422
252 423
252 424
252 425
252 426
252 427
252 428
252 429
252 431
252 432
252 433
252 434
252 435
252 443
252 444
252 445
252 446
252 447
252 448
252 449
252 450
252 452
252 453
252 454
252 457
252 458
252 461
252 462
253 254
253 255
253 256
253 257
253 258
253 259
253 289
253 290
253 295
253 296
253 299
253 300
253 303
253 304
253 307
253 308
253 309
253 310
253 311
253 312
253 313
253 314
253 315
253 316
253 317
253 318
253 334
253 335
253 352
253 353
253 356
253 357
253 368
253 369
253 372
253 373
253 396
253 397
253 401
253 402
253 420
253 421
253 422
253 423
253 424
253 425
253 426
253 427
253 428
253 429
253 430
253 432
253 433
253 434
253 435
253 443
253 444
253 445
253 446
253 447
253 448
253 449
253 450
253 451
253 453
253 454
253 457
253 458
253 461
253 462
254 255
254 256
254 257
254 258
254 259
254 289
254 290
254 293
254 294
254 295
254 296
254 297
254 298
254 299
254 300
254 301
254 302
254 303
254 305
254 306
254 307
254 308
254 309
254 310
254 311
254 312
254 313
254 314
254 315
254 316
254 317
254 318
254 334
254 335
254 352
254 353
254 356
254 357
254 368
254 369
254 372
254 373
254 394
254 395
254 396
254 397
254 398
254 399
254 400
254 401
254 403
254 422
254 423
254 426
254 427
254 430
254 431
254 434
254 435
254 443
254 444
254 445
254 446
254 447
254 448
254 449
254 450
254 451
254 452
254 454
254 457
254 458
254 461
254 462
255 256
255 257
255 258
255 259
255 289
255 290
255 295
255 296
255 299
255 300
255 303
255 304
255 307
255 308
255 309
255 310
255 311
255 312
255 313
255 314
255 315
255 316
255 317
255 318
255 334
255 335
255 352
255 353
255 356
255 357
255 368
255 369
255 372
255 373
255 396
255 397
255 401
255 402
255 422
255 423
255 426
255 427
255 430
255 431
255 434
255 435
255 443
255 444
255 445
255 446
255 447
255 449
255 450
255 451
255 452
255 453
255 457
255 458
255 461
255 462
256 257
256 258
256 259
256 289
256 290
256 293
256 294
256 295
256 296
256 297
256 298
256 299
256 300
256 301
256 302
256 303
256 304
256 305
256 306
256 308
256 309
256 310
256 311
256 312
256 313
256 314
256 315
256 316
256 317
256 318
256 334
256 335
256 352
256 353
256 356
256 357
256 368
256 369
256 372
256 373
256 396
256 397
256 401
256 402
256 422
256 423
256 426
256 427
256 430
256 431
256 434
256 435
256 443
256 444
256 445
256 446
256 447
256 449
256 450
256 451
256 452
256 453
256 457
256 458
256 461
256 462
257 258
257 259
257 289
257 290
257 295
257 296
257 299
257 300
257 303
257 304
257 307
257 308
257 309
257 310
257 311
257 312
257 313
257 314
257 315
257 316
257 317
257 318
257 334
257 335
257 352
257 353
257 356
257 357
257 368
257 369
257 372
257 373
257 396
257 397
257 401
257 402
257 420
257 421
257 422
257 423
257 424
257 425
257 426
257 427
257 428
257 429
257 430
257 431
257 432
257 433
257 435
257 443
257 444
257 445
257 446
257 447
257 449
257 450
257 451
257 452
257 453
257 457
257 458
257 461
257 462
258 259
258 289
258 290
258 295
258 296
258 299
258 300
258 303
258 304
258 307
258 308
258 309
258 310
258 311
258 312
258 313
258 314
258 315
258 316
258 317
258 318
258 334
258 335
258 352
258 353
258 356
258 357
258 368
258 369
258 372
258 373
258 396
258 397
258 401
258 402
258 420
258 421
258 422
258 423
258 424
258 425
258 426
258 427
258 428
258 429
258 430
258 431
258 432
258 433
258 434
258 443
258 444
258 445
258 446
258 447
258 449
258 450
258 451
258 452
258 453
258 457
258 458
258 461
258 462
259 289
259 290
259 293
259 294
259 295
259 296
259 297
259 298
259 299
259 300
259 301
259 302
259 303
259 304
259 305
259 306
259 307
259 309
259 310
259 311
259 312
259 313
259 314
259 315
259 316
259 317
259 318
259 334
259 335
259 352
259 353
259 356
259 357
259 368
259 369
259 372
259 373
259 396
259 397
259 401
259 402
259 422
259 423
259 426
259 427
259 430
259 431
259 434
259 435
259 443
259 444
259 445
259 446
259 447
259 449
259 450
259 451
259 452
259 453
259 457
259 458
259 461
259 462
260 261
260 262
260 263
260 264
260 265
260 266
260 267
260 270
260 277
260 283
260 291
260 322
260 328
260 333
260 334
260 335
260 336
260 337
260 339
260 340
260 345
260 346
260 351
260 352
260 353
260 354
260 355
260 356
260 357
260 358
260 359
260 361
260 362
260 363
260 364
260 365
260 376
260 377
260 378
260 379
260 380
260 381
260 383
260 384
260 385
260 386
260 387
260 388
260 389
260 390
260 391
260 392
260 393
260 398
260 403
260 406
260 407
260 410
260 411
260 414
260 415
260 418
260 419
260 421
260 422
260 423
260 424
260 425
260 426
260 427
260 428
260 429
260 430
260 431
260 432
260 433
260 434
260 435
260 438
260 448
260 454
260 465
260 466
260 467
260 469
260 470
260 471
261 262
261 263
261 264
261 265
261 266
261 267
261 270
261 277
261 283
261 291
261 322
261 328
261 332
261 334
261 335
261 336
261 337
261 338
261 340
261 341
261 342
261 343
261 344
261 345
261 346
261 347
261 348
261 349
261 350
261 352
261 353
261 354
261 355
261 356
261 357
261 358
261 360
261 361
261 375
261 377
261 378
261 379
261 380
261 381
261 382
261 384
261 385
261 386
261 387
261 388
261 389
261 390
261 391
261 392
261 393
261 398
261 403
261 406
261 407
261 410
261 411
261 414
261 415
261 418
261 419
261 420
261 422
261 423
261 424
261 425
261 426
261 427
261 428
261 429
261 430
261 431
261 432
261 433
261 434
261 435
261 438
261 448
261 454
261 464
261 466
261 467
261 468
261 469
261 470
261 471
262 263
262 264
262 265
262 266
262 267
262 268
262 269
262 271
262 272
262 273
262 274
262 275
262 276
262 278
262 279
262 280
262 281
262 282
262 283
262 284
262 285
262 286
262 291
262 320
262 321
262 323
262 324
262 325
262 326
262 327
262 328
262 329
262 330
262 331
262 332
262 333
262 336
262 338
262 339
262 341
262 342
262 343
262 344
262 345
262 346
262 347
262 348
262 349
262 350
262 351
262 359
262 360
262 362
262 363
262 364
262 365
262 375
262 376
262 378
262 379
262 380
262 381
262 382
262 383
262 385
262 386
262 387
262 388
262 389
262 390
262 391
262 392
262 393
262 398
262 403
262 404
262 405
262 407
262 408
262 409
262 410
262 411
262 412
262 413
262 415
262 416
262 417
262 418
262 419
262 420
262 421
262 428
262 429
262 436
262 437
262 439
262 440
262 441
262 442
262 448
262 454
262 464
262 465
262 467
262 468
262 469
262 470
262 471
263 264
263 265
263 266
263 267
263 270
263 277
263 283
263 287
263 288
263 289
263 290
263 292
263 322
263 328
263 332
263 333
263 334
263 335
263 337
263 339
263 340
263 345
263 346
263 350
263 351
263 360
263 361
263 375
263 376
263 377
263 382
263 383
263 384
263 388
263 389
263 390
263 394
263 395
263 396
263 397
263 399
263 400
263 401
263 402
263 403
263 404
263 405
263 406
263 408
263 409
263 410
263 411
263 412
263 413
263 414
263 416
263 417
263 418
263 419
263 420
263 421
263 428
263 429
263 438
263 443
263 444
263 445
263 446
263 447
263 449
263 450
263 451
263 452
263 453
263 454
263 464
263 465
263 466
263 468
263 469
263 470
263 471
264 265
264 266
264 267
264 270
264 277
264 283
264 291
264 322
264 328
264 332
264 333
264 336
264 339
264 340
264 345
264 346
264 350
264 351
264 360
264 361
264 375
264 376
264 377
264 382
264 383
264 384
264 385
264 386
264 387
264 389
264 390
264 391
264 392
264 393
264 398
264 403
264 406
264 407
264 410
264 411
264 414
264 415
264 418
264 419
264 420
264 421
264 422
264 423
264 424
264 425
264 426
264 427
264 429
264 430
264 431
264 432
264 433
264 434
264 435
264 438
264 448
264 454
264 465
264 466
264 467
264 469
264 470
264 471
265 266
265 267
265 270
265 277
265 283
265 291
265 322
265 328
265 332
265 333
265 336
265 338
265 339
265 340
265 341
265 342
265 343
265 344
265 346
265 347
265 348
265 349
265 350
265 351
265 360
265 361
265 375
265 376
265 377
265 382
265 383
265 384
265 385
265 386
265 387
265 388
265 390
265 391
265 392
265 393
265 398
265 403
265 406
265 407
265 410
265 411
265 414
265 415
265 418
265 419
265 420
265 421
265 422
265 423
265 424
265 425
265 426
265 427
265 428
265 430
265 431
265 432
265 433
265 434
265 435
265 438
265 448
265 454
265 464
265 465
265 466
265 467
265 468
265 470
265 471
266 267
266 270
266 275
266 276
266 277
266 278
266 279
266 280
266 281
266 282
266 284
266 285
266 286
266 291
266 320
266 321
266 322
266 323
266 324
266 325
266 326
266 327
266 329
266 330
266 331
266 332
266 333
266 336
266 338
266 339
266 340
266 341
266 342
266 343
266 344
266 345
266 347
266 348
266 349
266 350
266 351
266 360
266 361
266 375
266 376
266 377
266 382
266 383
266 384
266 385
266 386
266 387
266 388
266 389
266 391
266 392
266 393
266 398
266 403
266 404
266 405
266 406
266 407
266 408
266 409
266 411
266 412
266 413
266 414
266 415
266 416
266 417
266 419
266 420
266 421
266 428
266 429
266 438
266 448
266 454
266 464
266 465
266 466
266 467
266 468
266 469
266 471
267 270
267 277
267 283
267 291
267 322
267 328
267 332
267 333
267 336
267 339
267 340
267 345
267 346
267 350
267 351
267 360
267 361
267 375
267 376
267 377
267 382
267 383
267 384
267 388
267 389
267 390
267 394
267 395
267 396
267 397
267 398
267 399
267 400
267 401
267 402
267 404
267 405
267 406
267 407
267 408
267 409
267 410
267 412
267 413
267 414
267 415
267 416
267 417
267 418
267 420
267 421
267 428
267 429
267 438
267 443
267 444
267 445
267 446
267 447
267 448
267 449
267 450
267 451
267 452
267 453
267 464
267 465
267 466
267 467
267 468
267 469
267 470
268 269
268 270
268 271
268 272
268 273
268 274
268 276
268 277
268 278
268 279
268 280
268 281
268 282
268 283
268 284
268 285
268 286
268 288
268 289
268 290
268 291
268 292
268 294
268 298
268 319
268 321
268 322
268 324
268 325
268 337
268 340
268 343
268 358
268 360
268 361
268 362
268 363
268 364
268 365
268 367
268 368
268 369
268 370
268 371
268 372
268 373
268 374
268 377
268 380
268 381
268 384
268 387
268 395
268 405
268 406
268 407
268 408
268 409
268 410
268 411
268 413
268 414
268 437
268 438
268 440
268 441
268 442
268 456
268 460
268 463
268 466
269 270
269 271
269 272
269 273
269 274
269 275
269 277
269 278
269 279
269 280
269 281
269 282
269 283
269 284
269 285
269 286
269 287
269 289
269 290
269 291
269 292
269 293
269 295
269 296
269 297
269 298
269 299
269 300
269 301
269 302
269 303
269 304
269 305
269 306
269 307
269 308
269 319
269 320
269 322
269 323
269 324
269 325
269 326
269 327
269 328
269 329
269 330
269 331
269 337
269 340
269 343
269 358
269 359
269 361
269 362
269 364
269 365
269 366
269 368
269 369
269 370
269 371
269 372
269 373
269 374
269 377
269 380
269 381
269 384
269 387
269 394
269 396
269 397
269 398
269 399
269 400
269 401
269 402
269 403
269 404
269 406
269 407
269 408
269 409
269 410
269 411
269 412
269 414
269 415
269 416
269 417
269 418
269 419
269 436
269 438
269 439
269 440
269 441
269 442
269 455
269 457
269 458
269 459
269 460
269 461
269 462
269 463
269 466
270 271
270 272
270 273
270 274
270 275
270 276
270 278
270 279
270 280
270 281
270 282
270 283
270 284
270 285
270 286
270 287
270 288
270 292
270 294
270 298
270 319
270 320
270 321
270 323
270 324
270 325
270 326
270 327
270 328
270 329
270 330
270 331
270 337
270 338
270 339
270 341
270 342
270 343
270 344
270 345
270 346
270 347
270 348
270 349
270 358
270 359
270 360
270 362
270 363
270 364
270 365
270 366
270 367
270 370
270 371
270 374
270 375
270 376
270 378
270 379
270 380
270 381
270 382
270 383
270 385
270 386
270 387
270 388
270 389
270 390
270 391
270 392
270 393
270 395
270 404
270 405
270 407
270 408
270 409
270 410
270 411
270 412
270 413
270 415
270 416
270 417
270 418
270 419
270 436
270 437
270 439
270 440
270 441
270 442
270 456
270 460
270 463
270 464
270 465
270 467
270 468
270 469
270 470
270 471
271 272
271 273
271 274
271 275
271 276
271 277
271 279
271 280
271 281
271 282
271 283
271 284
271 285
271 286
271 287
271 288
271 292
271 294
271 298
271 319
271 321
271 322
271 324
271 325
271 337
271 340
271 343
271 358
271 359
271 360
271 361
271 363
271 364
271 365
271 366
271 367
271 368
271 369
271 371
271 372
271 373
271 374
271 377
271 380
271 381
271 384
271 387
271 395
271 404
271 405
271 406
271 413
271 414
271 437
271 438
271 440
271 441
271 442
271 456
271 460
271 463
271 466
272 273
272 274
272 275
272 276
272 277
272 278
272 280
272 281
272 282
272 283
272 284
272 285
272 286
272 287
272 288
272 292
272 293
272 294
272 295
272 296
272 297
272 299
272 300
272 301
272 302
272 303
272 304
272 305
272 306
272 307
272 308
272 319
272 320
272 321
272 322
272 323
272 325
272 326
272 327
272 328
272 329
272 330
272 331
272 337
272 340
272 343
272 358
272 359
272 361
272 362
272 364
272 365
272 366
272 367
272 368
272 369
272 370
272 372
272 373
272 374
272 377
272 380
272 381
272 384
272 387
272 395
272 404
272 405
272 406
272 413
272 414
272 436
272 437
272 438
272 439
272 441
272 442
272 455
272 456
272 457
272 458
272 459
272 461
272 462
272 463
272 466
273 274
273 275
273 276
273 277
273 278
273 279
273 281
273 282
273 283
273 284
273 285
273 286
273 287
273 288
273 292
273 294
273 298
273 319
273 320
273 321
273 322
273 323
273 324
273 326
273 327
273 328
273 329
273 330
273 331
273 337
273 338
273 339
273 340
273 341
273 342
273 344
273 345
273 346
273 347
273 348
273 349
273 358
273 359
273 360
273 361
273 362
273 363
273 365
273 366
273 367
273 370
273 371
273 374
273 375
273 376
273 377
273 378
273 379
273 381
273 382
273 383
273 384
273 385
273 386
273 388
273 389
273 390
273 391
273 392
273 393
273 395
273 404
273 405
273 406
273 413
273 414
273 436
273 437
273 438
273 439
273 440
273 442
273 456
273 460
273 463
273 466
274 275
274 276
274 277
274 278
274 279
274 280
274 287
274 288
274 289
274 290
274 291
274 294
274 298
274 309
274 310
274 311
274 312
274 313
274 314
274 315
274 316
274 317
274 318
274 321
274 322
274 324
274 325
274 332
274 333
274 334
274 335
274 336
274 340
274 343
274 350
274 351
274 352
274 353
274 354
274 355
274 356
274 357
274 359
274 360
274 361
274 362
274 363
274 364
274 366
274 367
274 368
274 369
274 370
274 371
274 372
274 373
274 375
274 376
274 377
274 378
274 379
274 380
274 384
274 387
274 395
274 404
274 405
274 406
274 413
274 414
274 436
274 437
274 438
274 439
274 440
274 441
274 455
274 456
274 457
274 458
274 459
274 460
274 461
274 462
274 466
275 276
275 277
275 278
275 279
275 280
275 281
275 282
275 283
275 284
275 285
275 286
275 288
275 289
275 290
275 291
275 292
275 294
275 298
275 302
275 306
275 321
275 322
275 324
275 325
275 327
275 328
275 330
275 331
275 340
275 343
275 346
275 349
275 360
275 361
275 362
275 363
275 364
275 365
275 367
275 368
275 369
275 370
275 371
275 372
275 373
275 374
275 377
275 380
275 384
275 387
275 390
275 393
275 395
275 400
275 405
275 406
275 407
275 408
275 409
275 410
275 411
275 413
275 414
275 417
275 418
275 437
275 438
275 440
275 441
275 456
275 460
275 466
275 470
276 277
276 278
276 279
276 280
276 281
276 282
276 283
276 284
276 285
276 286
276 287
276 289
276 290
276 291
276 292
276 293
276 295
276 296
276 297
276 298
276 299
276 300
276 301
276 302
276 303
276 304
276 305
276 306
276 307
276 308
276 320
276 322
276 323
276 324
276 325
276 326
276 327
276 328
276 329
276 330
276 331
276 340
276 343
276 346
276 349
276 359
276 361
276 362
276 364
276 366
276 368
276 369
276 370
276 371
276 372
276 373
276 374
276 377
276 380
276 384
276 387
276 390
276 393
276 394
276 396
276 397
276 398
276 399
276 400
276 401
276 402
276 403
276 404
276 406
276 407
276 408
276 409
276 410
276 411
276 412
276 414
276 415
276 416
276 417
276 418
276 419
276 436
276 438
276 439
276 440
276 441
276 442
276 455
276 457
276 458
276 459
276 460
276 461
276 462
276 463
276 466
276 470
277 278
277 279
277 280
277 281
277 282
277 283
277 284
277 285
277 286
277 287
277 288
277 294
277 298
277 302
277 306
277 320
277 321
277 323
277 324
277 325
277 326
277 327
277 328
277 329
277 330
277 331
277 338
277 339
277 341
277 342
277 343
277 344
277 345
277 346
277 347
277 348
277 349
277 359
277 360
277 362
277 363
277 364
277 365
277 366
277 367
277 370
277 371
277 375
277 376
277 378
277 379
277 380
277 381
277 382
277 383
277 385
277 386
277 387
277 388
277 389
277 390
277 391
277 392
277 393
277 395
277 400
277 404
277 405
277 407
277 408
277 409
277 410
277 411
277 412
277 413
277 415
277 416
277 417
277 418
277 419
277 436
277 437
277 439
277 440
277 441
277 442
277 456
277 460
277 464
277 465
277 467
277 468
277 469
277 470
277 471
278 279
278 280
278 281
278 282
278 283
278 284
278 285
278 286
278 287
278 288
278 294
278 298
278 302
278 306
278 321
278 322
278 324
278 325
278 327
278 328
278 330
278 331
278 340
278 343
278 346
278 349
278 359
278 360
278 361
278 363
278 364
278 365
278 366
278 367
278 368
278 369
278 371
278 372
278 373
278 374
278 377
278 380
278 384
278 387
278 390
278 393
278 395
278 400
278 404
278 405
278 406
278 408
278 409
278 410
278 413
278 414
278 417
278 418
278 437
278 438
278 440
278 441
278 456
278 460
278 466
278 470
279 280
279 281
279 282
279 283
279 284
279 285
279 286
279 287
279 288
279 293
279 294
279 295
279 296
279 297
279 299
279 300
279 301
279 302
279 303
279 304
279 305
279 306
279 307
279 308
279 320
279 321
279 322
279 323
279 325
279 326
279 327
279 328
279 329
279 330
279 331
279 340
279 343
279 346
279 349
279 359
279 361
279 362
279 364
279 366
279 367
279 368
279 369
279 370
279 372
279 373
279 374
279 377
279 380
279 384
279 387
279 390
279 393
279 395
279 400
279 404
279 405
279 406
279 408
279 409
279 410
279 413
279 414
279 417
279 418
279 436
279 437
279 438
279 439
279 441
279 442
279 455
279 456
279 457
279 458
279 459
279 461
279 462
279 463
279 466
279 470
280 281
280 282
280 283
280 284
280 285
280 286
280 287
280 288
280 294
280 298
280 302
280 306
280 320
280 321
280 322
280 323
280 324
280 326
280 327
280 328
280 329
280 330
280 331
280 338
280 339
280 340
280 341
280 342
280 344
280 345
280 346
280 347
280 348
280 349
280 359
280 360
280 361
280 362
280 363
280 365
280 366
280 367
280 370
280 371
280 375
280 376
280 377
280 378
280 379
280 381
280 382
280 383
280 384
280 385
280 386
280 388
280 389
280 390
280 391
280 392
280 393
280 395
280 400
280 404
280 405
280 406
280 408
280 409
280 410
280 413
280 414
280 417
280 418
280 436
280 437
280 438
280 439
280 440
280 442
280 456
280 460
280 466
280 470
281 282
281 283
281 284
281 285
281 286
281 287
281 288
281 294
281 298
281 302
281 306
281 321
281 322
281 324
281 325
281 327
281 328
281 330
281 331
281 340
281 343
281 346
281 349
281 359
281 361
281 362
281 364
281 366
281 367
281 370
281 371
281 377
281 380
281 384
281 387
281 390
281 393
281 395
281 400
281 404
281 405
281 406
281 407
281 409
281 410
281 411
281 413
281 414
281 417
281 418
281 437
281 438
281 440
281 441
281 456
281 460
281 466
281 470
282 283
282 284
282 285
282 286
282 287
282 288
282 293
282 294
282 295
282 296
282 297
282 298
282 299
282 300
282 301
282 303
282 304
282 305
282 306
282 307
282 308
282 320
282 321
282 322
282 323
282 324
282 325
282 326
282 328
282 329
282 330
282 331
282 340
282 343
282 346
282 349
282 359
282 361
282 362
282 364
282 366
282 367
282 370
282 371
282 377
282 380
282 384
282 387
282 390
282 393
282 394
282 395
282 396
282 397
282 398
282 399
282 401
282 402
282 403
282 404
282 405
282 406
282 407
282 408
282 410
282 411
282 412
282 413
282 414
282 415
282 416
282 418
282 419
282 437
282 438
282 440
282 441
282 456
282 460
282 466
282 470
283 284
283 285
283 286
283 287
283 288
283 294
283 298
283 302
283 306
283 320
283 321
283 322
283 323
283 324
283 325
283 326
283 327
283 329
283 330
283 331
283 338
283 339
283 340
283 341
283 342
283 343
283 344
283 345
283 347
283 348
283 349
283 359
283 361
283 362
283 364
283 366
283 367
283 370
283 371
283 377
283 380
283 382
283 383
283 384
283 385
283 386
283 387
283 388
283 389
283 391
283 392
283 393
283 395
283 400
283 404
283 405
283 406
283 407
283 408
283 409
283 411
283 412
283 413
283 414
283 415
283 416
283 417
283 419
283 437
283 438
283 440
283 441
283 456
283 460
283 464
283 465
283 466
283 467
283 468
283 469
283 471
284 285
284 286
284 287
284 288
284 294
284 298
284 302
284 306
284 321
284 322
284 324
284 325
284 327
284 328
284 330
284 331
284 340
284 343
284 346
284 349
284 359
284 361
284 362
284 364
284 366
284 367
284 370
284 371
284 377
284 380
284 384
284 387
284 390
284 393
284 395
284 400
284 404
284 405
284 406
284 408
284 409
284 410
284 413
284 414
284 417
284 418
284 437
284 438
284 440
284 441
284 456
284 460
284 466
284 470
285 286
285 287
285 288
285 293
285 294
285 295
285 296
285 297
285 298
285 299
285 300
285 301
285 302
285 303
285 304
285 305
285 307
285 308
285 320
285 321
285 322
285 323
285 324
285 325
285 326
285 327
285 328
285 329
285 331
285 340
285 343
285 346
285 349
285 359
285 361
285 362
285 364
285 366
285 367
285 370
285 371
285 377
285 380
285 384
285 387
285 390
285 393
285 395
285 400
285 404
285 405
285 406
285 408
285 409
285 410
285 413
285 414
285 417
285 418
285 437
285 438
285 440
285 441
285 456
285 460
285 466
285 470
286 287
286 288
286 294
286 298
286 302
286 306
286 320
286 321
286 322
286 323
286 324
286 325
286 326
286 327
286 328
286 329
286 330
286 338
286 339
286 340
286 341
286 342
286 343
286 344
286 345
286 346
286 347
286 348
286 359
286 361
286 362
286 364
286 366
286 367
286 370
286 371
286 377
286 380
286 382
286 383
286 384
286 385
286 386
286 387
286 388
286 389
286 390
286 391
286 392
286 395
286 400
286 404
286 405
286 406
286 408
286 409
286 410
286 413
286 414
286 417
286 418
286 437
286 438
286 440
286 441
286 456
286 460
286 466
286 470
287 288
287 289
287 290
287 291
287 292
287 294
287 296
287 309
287 313
287 319
287 321
287 336
287 337
287 358
287 360
287 361
287 362
287 363
287 364
287 365
287 367
287 368
287 369
287 370
287 371
287 372
287 373
287 374
287 381
287 395
287 397
287 398
287 405
287 406
287 407
287 408
287 409
287 410
287 411
287 413
287 415
287 437
287 442
287 443
287 447
287 448
287 456
287 458
287 463
287 467
288 289
288 290
288 291
288 292
288 293
288 295
288 296
288 297
288 298
288 299
288 300
288 301
288 302
288 303
288 304
288 305
288 306
288 307
288 308
288 309
288 313
288 319
288 320
288 322
288 323
288 324
288 325
288 326
288 327
288 328
288 329
288 330
288 331
288 336
288 337
288 358
288 359
288 365
288 366
288 368
288 369
288 370
288 371
288 372
288 373
288 374
288 381
288 394
288 396
288 397
288 398
288 399
288 400
288 401
288 402
288 403
288 404
288 406
288 407
288 408
288 409
288 410
288 411
288 412
288 414
288 415
288 416
288 417
288 418
288 419
288 436
288 438
288 439
288 440
288 441
288 442
288 443
288 447
288 448
288 455
288 457
288 458
288 459
288 460
288 461
288 462
288 463
288 467
289 290
289 291
289 292
289 294
289 296
289 310
289 311
289 312
289 313
289 314
289 315
289 316
289 317
289 318
289 319
289 321
289 336
289 337
289 358
289 359
289 365
289 366
289 367
289 369
289 370
289 371
289 372
289 373
289 374
289 381
289 395
289 397
289 398
289 404
289 405
289 407
289 413
289 415
289 437
289 442
289 444
289 445
289 446
289 447
289 448
289 449
289 450
289 451
289 452
289 453
289 454
289 456
289 458
289 463
289 467
290 291
290 292
290 293
290 294
290 295
290 297
290 298
290 299
290 300
290 301
290 302
290 303
290 304
290 305
290 306
290 307
290 308
290 309
290 310
290 311
290 312
290 314
290 315
290 316
290 317
290 318
290 319
290 321
290 336
290 337
290 358
290 359
290 365
290 366
290 367
290 368
290 370
290 371
290 372
290 373
290 374
290 381
290 394
290 395
290 396
290 398
290 399
290 400
290 401
290 402
290 403
290 404
290 405
290 407
290 413
290 415
290 437
290 442
290 443
290 444
290 445
290 446
290 448
290 449
290 450
290 451
290 452
290 453
290 454
290 455
290 456
290 457
290 459
290 460
290 461
290 462
290 463
290 467
291 292
291 294
291 296
291 309
291 313
291 319
291 321
291 332
291 333
291 334
291 335
291 337
291 358
291 359
291 365
291 366
291 367
291 368
291 369
291 374
291 381
291 394
291 395
291 396
291 397
291 399
291 400
291 401
291 402
291 403
291 404
291 405
291 406
291 408
291 409
291 410
291 411
291 412
291 413
291 414
291 416
291 417
291 418
291 419
291 437
291 442
291 443
291 444
291 445
291 446
291 447
291 449
291 450
291 451
291 452
291 453
291 454
291 456
291 458
291 463
291 464
291 465
291 466
291 468
291 469
291 470
291 471
292 294
292 296
292 309
292 310
292 311
292 312
292 313
292 314
292 315
292 316
292 317
292 318
292 321
292 332
292 333
292 334
292 335
292 336
292 350
292 351
292 352
292 353
292 354
292 355
292 356
292 357
292 359
292 360
292 361
292 362
292 363
292 364
292 366
292 367
292 368
292 369
292 370
292 371
292 372
292 373
292 375
292 376
292 377
292 378
292 379
292 380
292 395
292 397
292 398
292 404
292 405
292 407
292 413
292 415
292 436
292 437
292 438
292 439
292 440
292 441
292 443
292 447
292 448
292 455
292 456
292 457
292 458
292 459
292 460
292 461
292 462
292 467
293 294
293 295
293 296
293 297
293 298
293 299
293 300
293 301
293 302
293 303
293 304
293 305
293 306
293 307
293 308
293 310
293 313
293 315
293 318
293 321
293 322
293 323
293 324
293 325
293 326
293 327
293 328
293 329
293 330
293 331
293 339
293 340
293 341
293 342
293 343
293 344
293 345
293 346
293 347
293 348
293 349
293 367
293 369
293 371
293 373
293 395
293 396
293 397
293 398
293 399
293 400
293 401
293 402
293 403
293 405
293 409
293 413
293 414
293 415
293 416
293 417
293 418
293 419
293 437
293 438
293 439
293 440
293 441
293 442
293 444
293 447
293 450
293 453
293 456
293 457
293 458
293 459
293 460
293 461
293 462
293 463
293 465
293 466
293 467
293 468
293 469
293 470
293 471
294 295
294 296
294 297
294 298
294 299
294 300
294 301
294 302
294 303
294 304
294 305
294 306
294 307
294 308
294 310
294 313
294 315
294 318
294 320
294 322
294 323
294 324
294 325
294 326
294 327
294 328
294 329
294 330
294 331
294 338
294 341
294 344
294 347
294 366
294 368
294 369
294 370
294 371
294 372
294 373
294 374
294 394
294 396
294 397
294 398
294 399
294 400
294 401
294 402
294 403
294 404
294 406
294 407
294 408
294 409
294 410
294 411
294 412
294 414
294 415
294 416
294 417
294 418
294 419
294 436
294 438
294 439
294 440
294 441
294 442
294 444
294 447
294 450
294 453
294 455
294 457
294 458
294 459
294 460
294 461
294 462
294 463
294 464
294 468
295 296
295 297
295 298
295 299
295 300
295 301
295 302
295 303
295 304
295 305
295 306
295 307
295 308
295 309
295 311
295 312
295 313
295 314
295 315
295 316
295 317
295 318
295 319
295 320
295 321
295 323
295 324
295 326
295 327
295 329
295 330
295 338
295 341
295 344
295 347
295 367
295 369
295 371
295 373
295 394
295 395
295 397
295 398
295 399
295 400
295 401
295 402
295 403
295 405
295 409
295 412
295 413
295 416
295 417
295 436
295 437
295 439
295 440
295 443
295 445
295 446
295 447
295 448
295 449
295 450
295 451
295 452
295 453
295 454
295 455
295 456
295 458
295 459
295 460
295 461
295 462
295 463
295 464
295 468
296 297
296 298
296 299
296 300
296 301
296 302
296 303
296 304
296 305
296 306
296 307
296 308
296 309
296 310
296 311
296 312
296 314
296 315
296 316
296 317
296 318
296 319
296 320
296 321
296 323
296 324
296 326
296 327
296 329
296 330
296 338
296 341
296 344
296 347
296 366
296 367
296 368
296 370
296 371
296 372
296 373
296 374
296 394
296 395
296 396
296 398
296 399
296 400
296 401
296 402
296 403
296 405
296 409
296 412
296 413
296 416
296 417
296 436
296 437
296 439
296 440
296 443
296 444
296 445
296 446
296 448
296 449
296 450
296 451
296 452
296 453
296 454
296 455
296 456
296 457
296 459
296 460
296 461
296 462
296 463
296 464
296 468
297 298
297 299
297 300
297 301
297 302
297 303
297 304
297 305
297 306
297 307
297 308
297 310
297 313
297 315
297 318
297 320
297 321
297 322
297 324
297 325
297 326
297 327
297 328
297 329
297 330
297 331
297 338
297 339
297 340
297 342
297 343
297 344
297 345
297 346
297 347
297 348
297 349
297 367
297 369
297 371
297 373
297 394
297 395
297 396
297 397
297 399
297 400
297 401
297 402
297 405
297 409
297 412
297 413
297 416
297 417
297 436
297 437
297 438
297 440
297 441
297 442
297 444
297 447
297 450
297 453
297 455
297 456
297 457
297 458
297 460
297 461
297 462
297 463
297 464
297 468
298 299
298 300
298 301
298 302
298 303
298 304
298 305
298 306
298 307
298 308
298 310
298 313
298 315
298 318
298 320
298 321
298 322
298 323
298 325
298 326
298 327
298 328
298 329
298 330
298 331
298 338
298 341
298 344
298 347
298 366
298 367
298 368
298 369
298 370
298 372
298 373
298 374
298 394
298 395
298 396
298 397
298 399
298 400
298 401
298 402
298 405
298 409
298 412
298 413
298 416
298 417
298 436
298 437
298 438
298 439
298 441
298 442
298 444
298 447
298 450
298 453
298 455
298 456
298 457
298 458
298 459
298 461
298 462
298 463
298 464
298 468
299 300
299 301
299 302
299 303
299 304
299 305
299 306
299 307
299 308
299 309
299 310
299 311
299 312
299 313
299 314
299 316
299 317
299 318
299 319
299 320
299 321
299 323
299 324
299 326
299 327
299 329
299 330
299 338
299 341
299 344
299 347
299 367
299 369
299 371
299 373
299 394
299 395
299 396
299 397
299 399
299 400
299 401
299 402
299 405
299 409
299 412
299 413
299 416
299 417
299 436
299 437
299 439
299 440
299 444
299 447
299 450
299 453
299 455
299 456
299 457
299 458
299 459
299 460
299 462
299 463
299 464
299 468
300 301
300 302
300 303
300 304
300 305
300 306
300 307
300 308
300 309
300 310
300 311
300 312
300 313
300 314
300 315
300 316
300 317
300 319
300 320
300 321
300 323
300 324
300 326
300 327
300 329
300 330
300 338
300 341
300 344
300 347
300 366
300 367
300 368
300 369
300 370
300 371
300 372
300 374
300 394
300 395
300 396
300 397
300 399
300 400
300 401
300 402
300 405
300 409
300 412
300 413
300 416
300 417
300 436
300 437
300 439
300 440
300 444
300 447
300 450
300 453
300 455
300 456
300 457
300 458
300 459
300 460
300 461
300 463
300 464
300 468
301 302
301 303
301 304
301 305
301 306
301 307
301 308
301 310
301 313
301 315
301 318
301 320
301 321
301 322
301 323
301 324
301 325
301 327
301 328
301 329
301 330
301 331
301 338
301 339
301 340
301 341
301 342
301 343
301 345
301 346
301 347
301 348
301 349
301 367
301 369
301 371
301 373
301 394
301 395
301 396
301 397
301 398
301 400
301 401
301 402
301 403
301 405
301 409
301 412
301 413
301 414
301 415
301 417
301 418
301 419
301 436
301 437
301 439
301 440
301 444
301 447
301 450
301 453
301 455
301 456
301 457
301 458
301 459
301 460
301 461
301 462
301 464
301 465
301 466
301 467
301 469
301 470
301 471
302 303
302 304
302 305
302 306
302 307
302 308
302 310
302 313
302 315
302 318
302 320
302 321
302 322
302 323
302 324
302 325
302 326
302 328
302 329
302 330
302 331
302 338
302 341
302 344
302 347
302 367
302 369
302 371
302 373
302 394
302 395
302 396
302 397
302 398
302 399
302 401
302 402
302 403
302 404
302 405
302 406
302 407
302 408
302 410
302 411
302 412
302 413
302 414
302 415
302 416
302 418
302 419
302 436
302 437
302 439
302 440
302 444
302 447
302 450
302 453
302 455
302 456
302 457
302 458
302 459
302 460
302 461
302 462
302 464
302 468
303 304
303 305
303 306
303 307
303 308
303 310
303 313
303 315
303 318
303 320
303 321
303 323
303 324
303 326
303 327
303 329
303 330
303 338
303 341
303 344
303 347
303 367
303 369
303 371
303 373
303 394
303 395
303 396
303 397
303 398
303 399
303 400
303 402
303 403
303 405
303 409
303 412
303 413
303 416
303 417
303 436
303 437
303 439
303 440
303 443
303 444
303 445
303 446
303 447
303 448
303 449
303 451
303 452
303 453
303 454
303 455
303 456
303 457
303 458
303 459
303 460
303 461
303 462
303 464
303 468
304 305
304 306
304 307
304 308
304 310
304 313
304 315
304 318
304 320
304 321
304 323
304 324
304 326
304 327
304 329
304 330
304 338
304 341
304 344
304 347
304 367
304 369
304 371
304 373
304 394
304 395
304 396
304 397
304 398
304 399
304 400
304 401
304 403
304 405
304 409
304 412
304 413
304 416
304 417
304 436
304 437
304 439
304 440
304 443
304 444
304 445
304 446
304 447
304 448
304 449
304 450
304 451
304 452
304 454
304 455
304 456
304 457
304 458
304 459
304 460
304 461
304 462
304 464
304 468
305 306
305 307
305 308
305 310
305 313
305 315
305 318
305 320
305 321
305 322
305 323
305 324
305 325
305 326
305 327
305 328
305 330
305 331
305 338
305 339
305 340
305 341
305 342
305 343
305 344
305 345
305 346
305 348
305 349
305 367
305 369
305 371
305 373
305 394
305 395
305 396
305 397
305 399
305 400
305 401
305 402
305 405
305 409
305 412
305 413
305 416
305 417
305 436
305 437
305 439
305 440
305 444
305 447
305 450
305 453
305 455
305 456
305 457
305 458
305 459
305 460
305 461
305 462
305 464
305 468
306 307
306 308
306 310
306 313
306 315
306 318
306 320
306 321
306 322
306 323
306 324
306 325
306 326
306 327
306 328
306 329
306 331
306 338
306 341
306 344
306 347
306 367
306 369
306 371
306 373
306 394
306 395
306 396
306 397
306 399
306 400
306 401
306 402
306 405
306 409
306 412
306 413
306 416
306 417
306 436
306 437
306 439
306 440
306 444
306 447
306 450
306 453
306 455
306 456
306 457
306 458
306 459
306 460
306 461
306 462
306 464
306 468
307 308
307 310
307 313
307 315
307 318
307 320
307 321
307 323
307 324
307 326
307 327
307 329
307 330
307 338
307 341
307 344
307 347
307 367
307 369
307 371
307 373
307 394
307 395
307 396
307 397
307 399
307 400
307 401
307 402
307 405
307 409
307 412
307 413
307 416
307 417
307 436
307 437
307 439
307 440
307 444
307 447
307 450
307 453
307 455
307 456
307 457
307 458
307 459
307 460
307 461
307 462
307 464
307 468
308 310
308 313
308 315
308 318
308 320
308 321
308 323
308 324
308 326
308 327
308 329
308 330
308 338
308 341
308 344
308 347
308 367
308 369
308 371
308 373
308 394
308 395
308 396
308 397
308 399
308 400
308 401
308 402
308 405
308 409
308 412
308 413
308 416
308 417
308 436
308 437
308 439
308 440
308 444
308 447
308 450
308 453
308 455
308 456
308 457
308 458
308 459
308 460
308 461
308 462
308 464
308 468
309 310
309 311
309 312
309 313
309 314
309 315
309 316
309 317
309 318
309 319
309 334
309 335
309 337
309 352
309 353
309 356
309 357
309 358
309 365
309 366
309 367
309 369
309 370
309 371
309 372
309 373
309 374
309 381
309 396
309 397
309 422
309 423
309 426
309 427
309 442
309 444
309 445
309 446
309 447
309 448
309 449
309 450
309 451
309 452
309 453
309 454
309 457
309 458
309 461
309 462
309 463
310 311
310 312
310 313
310 314
310 315
310 316
310 317
310 318
310 319
310 334
310 335
310 337
310 352
310 353
310 356
310 357
310 358
310 365
310 368
310 369
310 372
310 373
310 374
310 381
310 394
310 395
310 397
310 398
310 399
310 400
310 401
310 402
310 403
310 422
310 423
310 426
310 427
310 442
310 443
310 445
310 446
310 447
310 448
310 449
310 450
310 451
310 452
310 453
310 454
310 455
310 456
310 458
310 459
310 460
310 461
310 462
310 463
311 312
311 313
311 314
311 315
311 316
311 317
311 318
311 319
311 332
311 333
311 335
311 336
311 337
311 350
311 351
311 353
311 354
311 355
311 356
311 357
311 358
311 365
311 368
311 369
311 372
311 373
311 374
311 381
311 396
311 397
311 420
311 421
311 423
311 424
311 425
311 426
311 427
311 428
311 429
311 430
311 431
311 432
311 433
311 434
311 435
311 442
311 443
311 444
311 446
311 447
311 448
311 449
311 450
311 451
311 452
311 453
311 454
311 457
311 458
311 461
311 462
311 463
312 313
312 314
312 315
312 316
312 317
312 318
312 319
312 332
312 333
312 334
312 336
312 337
312 350
312 351
312 352
312 354
312 355
312 356
312 357
312 358
312 365
312 368
312 369
312 372
312 373
312 374
312 381
312 396
312 397
312 420
312 421
312 422
312 424
312 425
312 426
312 427
312 428
312 429
312 430
312 431
312 432
312 433
312 434
312 435
312 442
312 443
312 444
312 445
312 447
312 448
312 449
312 450
312 451
312 452
312 453
312 454
312 457
312 458
312 461
312 462
312 463
313 314
313 315
313 316
313 317
313 318
313 319
313 334
313 335
313 337
313 352
313 353
313 356
313 357
313 358
313 365
313 366
313 367
313 368
313 370
313 371
313 372
313 373
313 374
313 381
313 394
313 395
313 396
313 398
313 399
313 400
313 401
313 402
313 403
313 422
313 423
313 426
313 427
313 442
313 443
313 444
313 445
313 446
313 448
313 449
313 450
313 451
313 452
313 453
313 454
313 455
313 456
313 457
313 459
313 460
313 461
313 462
313 463
314 315
314 316
314 317
314 318
314 319
314 334
314 335
314 337
314 352
314 353
314 356
314 357
314 358
314 365
314 366
314 367
314 368
314 369
314 370
314 371
314 373
314 374
314 381
314 396
314 397
314 422
314 423
314 426
314 427
314 442
314 443
314 444
314 445
314 446
314 447
314 457
314 458
314 461
314 462
314 463
315 316
315 317
315 318
315 319
315 334
315 335
315 337
315 352
315 353
315 356
315 357
315 358
315 365
315 368
315 369
315 372
315 373
315 374
315 381
315 396
315 397
315 422
315 423
315 426
315 427
315 442
315 443
315 444
315 445
315 446
315 447
315 455
315 456
315 457
315 458
315 459
315 460
315 462
315 463
316 317
316 318
316 319
316 334
316 335
316 337
316 350
316 351
316 352
316 353
316 354
316 355
316 357
316 358
316 365
316 368
316 369
316 372
316 373
316 374
316 381
316 396
316 397
316 420
316 421
316 422
316 423
316 424
316 425
316 427
316 428
316 429
316 430
316 431
316 432
316 433
316 434
316 435
316 442
316 443
316 444
316 445
316 446
316 447
316 457
316 458
316 461
316 462
316 463
317 318
317 319
317 334
317 335
317 337
317 350
317 351
317 352
317 353
317 354
317 355
317 356
317 358
317 365
317 368
317 369
317 372
317 373
317 374
317 381
317 396
317 397
317 420
317 421
317 422
317 423
317 424
317 425
317 426
317 428
317 429
317 430
317 431
317 432
317 433
317 434
317 435
317 442
317 443
317 444
317 445
317 446
317 447
317 457
317 458
317 461
317 462
317 463
318 319
318 334
318 335
318 337
318 352
318 353
318 356
318 357
318 358
318 365
318 366
318 367
318 368
318 369
318 370
318 371
318 372
318 374
318 381
318 396
318 397
318 422
318 423
318 426
318 427
318 442
318 443
318 444
318 445
318 446
318 447
318 455
318 456
318 457
318 458
318 459
318 460
318 461
318 463
319 332
319 333
319 334
319 335
319 336
319 350
319 351
319 352
319 353
319 354
319 355
319 356
319 357
319 359
319 360
319 361
319 362
319 363
319 364
319 366
319 367
319 368
319 369
319 370
319 371
319 372
319 373
319 375
319 376
319 377
319 378
319 379
319 380
319 396
319 397
319 422
319 423
319 426
319 427
319 436
319 437
319 438
319 439
319 440
319 441
319 443
319 444
319 445
319 446
319 447
319 455
319 456
319 457
319 458
319 459
319 460
319 461
319 462
320 321
320 322
320 323
320 324
320 325
320 326
320 327
320 328
320 329
320 330
320 331
320 339
320 340
320 341
320 342
320 343
320 344
320 345
320 346
320 347
320 348
320 349
320 361
320 364
320 367
320 371
320 377
320 380
320 384
320 387
320 390
320 393
320 395
320 396
320 397
320 398
320 399
320 400
320 401
320 402
320 403
320 405
320 406
320 409
320 410
320 413
320 414
320 415
320 416
320 417
320 418
320 419
320 437
320 438
320 439
320 440
320 441
320 442
320 456
320 457
320 458
320 459
320 460
320 461
320 462
320 463
320 465
320 466
320 467
320 468
320 469
320 470
320 471
321 322
321 323
321 324
321 325
321 326
321 327
321 328
321 329
321 330
321 331
321 338
321 340
321 341
321 343
321 344
321 346
321 347
321 349
321 361
321 364
321 366
321 368
321 369
321 370
321 371
321 372
321 373
321 374
321 377
321 380
321 384
321 387
321 390
321 393
321 394
321 396
321 397
321 398
321 399
321 400
321 401
321 402
321 403
321 404
321 406
321 407
321 408
321 409
321 410
321 411
321 412
321 414
321 415
321 416
321 417
321 418
321 419
321 436
321 438
321 439
321 440
321 441
321 442
321 455
321 457
321 458
321 459
321 460
321 461
321 462
321 463
321 464
321 466
321 468
321 470
322 323
322 324
322 325
322 326
322 327
322 328
322 329
322 330
322 331
322 338
322 339
322 341
322 342
322 343
322 344
322 345
322 346
322 347
322 348
322 349
322 359
322 360
322 362
322 363
322 364
322 365
322 367
322 371
322 375
322 376
322 378
322 379
322 380
322 381
322 382
322 383
322 385
322 386
322 387
322 388
322 389
322 390
322 391
322 392
322 393
322 394
322 395
322 399
322 400
322 404
322 405
322 407
322 408
322 409
322 410
322 411
322 412
322 413
322 415
322 416
322 417
322 418
322 419
322 436
322 437
322 439
322 440
322 441
322 442
322 455
322 456
322 459
322 460
322 464
322 465
322 467
322 468
322 469
322 470
322 471
323 324
323 325
323 326
323 327
323 328
323 329
323 330
323 331
323 338
323 339
323 340
323 342
323 343
323 344
323 345
323 346
323 347
323 348
323 349
323 361
323 364
323 367
323 371
323 377
323 380
323 384
323 387
323 390
323 393
323 394
323 395
323 399
323 400
323 405
323 406
323 409
323 410
323 412
323 413
323 414
323 416
323 417
323 418
323 436
323 437
323 438
323 440
323 441
323 442
323 455
323 456
323 457
323 458
323 460
323 461
323 462
323 463
323 464
323 466
323 468
323 470
324 325
324 326
324 327
324 328
324 329
324 330
324 331
324 338
324 340
324 341
324 343
324 344
324 346
324 347
324 349
324 361
324 364
324 366
324 367
324 368
324 369
324 370
324 372
324 373
324 374
324 377
324 380
324 384
324 387
324 390
324 393
324 394
324 395
324 399
324 400
324 405
324 406
324 409
324 410
324 412
324 413
324 414
324 416
324 417
324 418
324 436
324 437
324 438
324 439
324 441
324 442
324 455
324 456
324 457
324 458
324 459
324 461
324 462
324 463
324 464
324 466
324 468
324 470
325 326
325 327
325 328
325 329
325 330
325 331
325 338
325 339
325 340
325 341
325 342
325 344
325 345
325 346
325 347
325 348
325 349
325 359
325 360
325 361
325 362
325 363
325 365
325 367
325 371
325 375
325 376
325 377
325 378
325 379
325 381
325 382
325 383
325 384
325 385
325 386
325 388
325 389
325 390
325 391
325 392
325 393
325 394
325 395
325 399
325 400
325 405
325 406
325 409
325 410
325 412
325 413
325 414
325 416
325 417
325 418
325 436
325 437
325 438
325 439
325 440
325 442
325 455
325 456
325 459
325 460
325 464
325 466
325 468
325 470
326 327
326 328
326 329
326 330
326 331
326 338
326 339
326 340
326 341
326 342
326 343
326 345
326 346
326 347
326 348
326 349
326 361
326 364
326 367
326 371
326 377
326 380
326 384
326 387
326 390
326 393
326 394
326 395
326 396
326 397
326 398
326 400
326 401
326 402
326 403
326 405
326 406
326 409
326 410
326 412
326 413
326 414
326 415
326 417
326 418
326 419
326 436
326 437
326 438
326 439
326 440
326 441
326 455
326 456
326 459
326 460
326 464
326 465
326 466
326 467
326 469
326 470
326 471
327 328
327 329
327 330
327 331
327 338
327 340
327 341
327 343
327 344
327 346
327 347
327 349
327 361
327 364
327 367
327 371
327 377
327 380
327 384
327 387
327 390
327 393
327 394
327 395
327 396
327 397
327 398
327 399
327 401
327 402
327 403
327 404
327 405
327 406
327 407
327 408
327 410
327 411
327 412
327 413
327 414
327 415
327 416
327 418
327 419
327 436
327 437
327 438
327 439
327 440
327 441
327 455
327 456
327 459
327 460
327 464
327 466
327 468
327 470
328 329
328 330
328 331
328 338
328 339
328 340
328 341
328 342
328 343
328 344
328 345
328 347
328 348
328 349
328 361
328 364
328 367
328 371
328 377
328 380
328 382
328 383
328 384
328 385
328 386
328 387
328 388
328 389
328 391
328 392
328 393
328 394
328 395
328 399
328 400
328 404
328 405
328 406
328 407
328 408
328 409
328 411
328 412
328 413
328 414
328 415
328 416
328 417
328 419
328 436
328 437
328 438
328 439
328 440
328 441
328 455
328 456
328 459
328 460
328 464
328 465
328 466
328 467
328 468
328 469
328 471
329 330
329 331
329 338
329 339
329 340
329 341
329 342
329 343
329 344
329 345
329 346
329 348
329 349
329 361
329 364
329 367
329 371
329 377
329 380
329 384
329 387
329 390
329 393
329 394
329 395
329 399
329 400
329 405
329 406
329 409
329 410
329 412
329 413
329 414
329 416
329 417
329 418
329 436
329 437
329 438
329 439
329 440
329 441
329 455
329 456
329 459
329 460
329 464
329 466
329 468
329 470
330 331
330 338
330 340
330 341
330 343
330 344
330 346
330 347
330 349
330 361
330 364
330 367
330 371
330 377
330 380
330 384
330 387
330 390
330 393
330 394
330 395
330 399
330 400
330 405
330 406
330 409
330 410
330 412
330 413
330 414
330 416
330 417
330 418
330 436
330 437
330 438
330 439
330 440
330 441
330 455
330 456
330 459
330 460
330 464
330 466
330 468
330 470
331 338
331 339
331 340
331 341
331 342
331 343
331 344
331 345
331 346
331 347
331 348
331 361
331 364
331 367
331 371
331 377
331 380
331 382
331 383
331 384
331 385
331 386
331 387
331 388
331 389
331 390
331 391
331 392
331 394
331 395
331 399
331 400
331 405
331 406
331 409
331 410
331 412
331 413
331 414
331 416
331 417
331 418
331 436
331 437
331 438
331 439
331 440
331 441
331 455
331 456
331 459
331 460
331 464
331 466
331 468
331 470
332 333
332 334
332 335
332 336
332 337
332 339
332 351
332 352
332 353
332 354
332 355
332 356
332 357
332 358
332 359
332 361
332 362
332 363
332 364
332 365
332 374
332 376
332 377
332 378
332 379
332 380
332 381
332 383
332 384
332 385
332 386
332 387
332 388
332 389
332 390
332 391
332 392
332 393
332 398
332 407
332 415
332 421
332 422
332 423
332 424
332 425
332 426
332 427
332 428
332 429
332 430
332 431
332 432
332 433
332 434
332 435
332 442
332 445
332 446
332 448
332 463
332 465
332 467
333 334
333 335
333 336
333 337
333 338
333 340
333 341
333 342
333 343
333 344
333 345
333 346
333 347
333 348
333 349
333 350
333 352
333 353
333 354
333 355
333 356
333 357
333 358
333 360
333 365
333 374
333 375
333 377
333 378
333 379
333 380
333 381
333 382
333 384
333 385
333 386
333 387
333 388
333 389
333 390
333 391
333 392
333 393
333 398
333 407
333 415
333 420
333 422
333 423
333 424
333 425
333 426
333 427
333 428
333 429
333 430
333 431
333 432
333 433
333 434
333 435
333 442
333 445
333 446
333 448
333 463
333 464
333 466
333 467
333 468
333 469
333 470
333 471
334 335
334 336
334 337
334 339
334 350
334 351
334 353
334 354
334 355
334 356
334 357
334 358
334 360
334 365
334 374
334 375
334 376
334 381
334 382
334 383
334 398
334 407
334 415
334 420
334 421
334 423
334 424
334 425
334 426
334 427
334 428
334 429
334 430
334 431
334 432
334 433
334 434
334 435
334 442
334 443
334 444
334 446
334 447
334 448
334 449
334 450
334 451
334 452
334 453
334 454
334 463
334 465
334 467
335 336
335 337
335 339
335 350
335 351
335 352
335 354
335 355
335 356
335 357
335 358
335 360
335 365
335 374
335 375
335 376
335 381
335 382
335 383
335 398
335 407
335 415
335 420
335 421
335 422
335 424
335 425
335 426
335 427
335 428
335 429
335 430
335 431
335 432
335 433
335 434
335 435
335 442
335 443
335 444
335 445
335 447
335 448
335 449
335 450
335 451
335 452
335 453
335 454
335 463
335 465
335 467
336 337
336 339
336 350
336 351
336 352
336 353
336 358
336 360
336 365
336 374
336 375
336 376
336 381
336 382
336 383
336 394
336 395
336 396
336 397
336 399
336 400
336 401
336 402
336 403
336 404
336 405
336 406
336 408
336 409
336 410
336 411
336 412
336 413
336 414
336 416
336 417
336 418
336 419
336 420
336 421
336 422
336 423
336 442
336 443
336 444
336 445
336 446
336 447
336 449
336 450
336 451
336 452
336 453
336 454
336 463
336 464
336 465
336 466
336 468
336 469
336 470
336 471
337 339
337 350
337 351
337 352
337 353
337 354
337 355
337 356
337 357
337 359
337 360
337 361
337 362
337 363
337 364
337 366
337 367
337 368
337 369
337 370
337 371
337 372
337 373
337 375
337 376
337 377
337 378
337 379
337 380
337 382
337 383
337 398
337 407
337 415
337 420
337 421
337 422
337 423
337 436
337 437
337 438
337 439
337 440
337 441
337 445
337 446
337 448
337 455
337 456
337 457
337 458
337 459
337 460
337 461
337 462
337 465
337 467
338 339
338 340
338 341
338 342
338 343
338 344
338 345
338 346
338 347
338 348
338 349
338 351
338 355
338 361
338 364
338 376
338 377
338 379
338 380
338 383
338 384
338 386
338 387
338 389
338 390
338 392
338 393
338 395
338 396
338 397
338 398
338 399
338 400
338 401
338 402
338 403
338 406
338 410
338 413
338 414
338 415
338 416
338 417
338 418
338 419
338 421
338 425
338 429
338 433
338 437
338 438
338 439
338 440
338 441
338 442
338 456
338 457
338 458
338 459
338 460
338 461
338 462
338 463
338 465
338 466
338 467
338 468
338 469
338 470
338 471
339 340
339 341
339 342
339 343
339 344
339 345
339 346
339 347
339 348
339 349
339 350
339 352
339 353
339 354
339 355
339 356
339 357
339 358
339 361
339 364
339 375
339 377
339 378
339 379
339 380
339 381
339 382
339 384
339 385
339 386
339 387
339 388
339 389
339 390
339 391
339 392
339 393
339 394
339 399
339 406
339 410
339 412
339 414
339 416
339 418
339 420
339 422
339 423
339 424
339 425
339 426
339 427
339 428
339 429
339 430
339 431
339 432
339 433
339 434
339 435
339 436
339 438
339 439
339 441
339 455
339 459
339 464
339 466
339 467
339 468
339 469
339 470
339 471
340 341
340 342
340 343
340 344
340 345
340 346
340 347
340 348
340 349
340 351
340 355
340 359
340 360
340 362
340 363
340 364
340 365
340 375
340 376
340 378
340 379
340 380
340 381
340 382
340 383
340 385
340 386
340 387
340 388
340 389
340 390
340 391
340 392
340 393
340 394
340 399
340 404
340 405
340 407
340 408
340 409
340 410
340 411
340 412
340 413
340 415
340 416
340 417
340 418
340 419
340 421
340 425
340 429
340 433
340 436
340 437
340 439
340 440
340 441
340 442
340 455
340 459
340 464
340 465
340 467
340 468
340 469
340 470
340 471
341 342
341 343
341 344
341 345
341 346
341 347
341 348
341 349
341 351
341 355
341 361
341 364
341 376
341 377
341 379
341 380
341 383
341 384
341 386
341 387
341 389
341 390
341 392
341 393
341 394
341 399
341 406
341 410
341 412
341 414
341 416
341 418
341 421
341 425
341 429
341 433
341 436
341 437
341 438
341 440
341 441
341 442
341 455
341 456
341 457
341 458
341 460
341 461
341 462
341 463
341 464
341 465
341 466
341 468
341 469
341 470
342 343
342 344
342 345
342 346
342 347
342 348
342 349
342 350
342 351
342 352
342 353
342 354
342 356
342 357
342 358
342 361
342 364
342 375
342 376
342 377
342 378
342 380
342 381
342 382
342 383
342 384
342 385
342 387
342 388
342 389
342 390
342 391
342 392
342 393
342 394
342 399
342 406
342 410
342 412
342 414
342 416
342 418
342 420
342 421
342 422
342 423
342 424
342 426
342 427
342 428
342 429
342 430
342 431
342 432
342 433
342 434
342 435
342 436
342 438
342 439
342 441
342 455
342 459
342 464
342 465
342 466
342 468
342 469
342 470
343 344
343 345
343 346
343 347
343 348
343 349
343 351
343 355
343 359
343 360
343 361
343 362
343 363
343 365
343 375
343 376
343 377
343 378
343 379
343 381
343 382
343 383
343 384
343 385
343 386
343 388
343 389
343 390
343 391
343 392
343 393
343 394
343 399
343 406
343 410
343 412
343 414
343 416
343 418
343 421
343 425
343 429
343 433
343 436
343 437
343 438
343 439
343 440
343 442
343 455
343 459
343 464
343 465
343 466
343 468
343 469
343 470
344 345
344 346
344 347
344 348
344 349
344 351
344 355
344 361
344 364
344 376
344 377
344 379
344 380
344 383
344 384
344 386
344 387
344 389
344 390
344 392
344 393
344 394
344 395
344 396
344 397
344 398
344 400
344 401
344 402
344 403
344 406
344 410
344 412
344 413
344 414
344 415
344 417
344 418
344 419
344 421
344 425
344 429
344 433
344 436
344 438
344 439
344 441
344 455
344 459
344 464
344 465
344 466
344 467
344 469
344 470
344 471
345 346
345 347
345 348
345 349
345 351
345 355
345 361
345 364
345 376
345 377
345 379
345 380
345 382
345 383
345 384
345 385
345 386
345 387
345 388
345 390
345 391
345 392
345 393
345 394
345 399
345 406
345 410
345 412
345 414
345 416
345 418
345 420
345 421
345 422
345 423
345 424
345 425
345 426
345 427
345 428
345 430
345 431
345 432
345 433
345 434
345 435
345 436
345 438
345 439
345 441
345 455
345 459
345 464
345 465
345 466
345 467
345 468
345 470
345 471
346 347
346 348
346 349
346 351
346 355
346 361
346 364
346 376
346 377
346 379
346 380
346 382
346 383
346 384
346 385
346 386
346 387
346 388
346 389
346 391
346 392
346 393
346 394
346 399
346 404
346 405
346 406
346 407
346 408
346 409
346 411
346 412
346 413
346 414
346 415
346 416
346 417
346 419
346 421
346 425
346 429
346 433
346 436
346 438
346 439
346 441
346 455
346 459
346 464
346 465
346 466
346 467
346 468
346 469
346 471
347 348
347 349
347 351
347 355
347 361
347 364
347 376
347 377
347 379
347 380
347 383
347 384
347 386
347 387
347 389
347 390
347 392
347 393
347 394
347 399
347 406
347 410
347 412
347 414
347 416
347 418
347 421
347 425
347 429
347 433
347 436
347 438
347 439
347 441
347 455
347 459
347 464
347 465
347 466
347 468
347 469
347 470
348 349
348 351
348 355
348 361
348 364
348 376
348 377
348 379
348 380
348 382
348 383
348 384
348 385
348 386
348 387
348 388
348 389
348 390
348 391
348 393
348 394
348 399
348 406
348 410
348 412
348 414
348 416
348 418
348 420
348 421
348 422
348 423
348 424
348 425
348 426
348 427
348 428
348 429
348 430
348 431
348 432
348 434
348 435
348 436
348 438
348 439
348 441
348 455
348 459
348 464
348 465
348 466
348 468
348 469
348 470
349 351
349 355
349 361
349 364
349 376
349 377
349 379
349 380
349 382
349 383
349 384
349 385
349 386
349 387
349 388
349 389
349 390
349 391
349 392
349 394
349 399
349 406
349 410
349 412
349 414
349 416
349 418
349 421
349 425
349 429
349 433
349 436
349 438
349 439
349 441
349 455
349 459
349 464
349 465
349 466
349 468
349 469
349 470
350 351
350 352
350 353
350 354
350 355
350 356
350 357
350 358
350 359
350 361
350 362
350 363
350 364
350 365
350 374
350 376
350 377
350 378
350 379
350 380
350 381
350 383
350 384
350 385
350 386
350 387
350 388
350 389
350 390
350 391
350 392
350 393
350 421
350 422
350 423
350 424
350 425
350 426
350 427
350 428
350 429
350 430
350 431
350 432
350 433
350 434
350 435
350 442
350 445
350 446
350 463
350 465
351 352
351 353
351 354
351 355
351 356
351 357
351 358
351 360
351 363
351 365
351 374
351 375
351 377
351 378
351 379
351 380
351 381
351 382
351 384
351 385
351 386
351 387
351 388
351 389
351 390
351 391
351 392
351 393
351 420
351 422
351 423
351 424
351 425
351 426
351 427
351 428
351 429
351 430
351 431
351 432
351 433
351 434
351 435
351 442
351 445
351 446
351 463
351 464
351 466
351 467
351 468
351 469
351 470
351 471
352 353
352 354
352 355
352 356
352 357
352 358
352 360
352 363
352 365
352 374
352 375
352 376
352 378
352 379
352 381
352 382
352 383
352 385
352 386
352 420
352 421
352 423
352 424
352 425
352 426
352 427
352 428
352 429
352 430
352 431
352 432
352 433
352 434
352 435
352 442
352 443
352 444
352 446
352 447
352 448
352 449
352 450
352 451
352 452
352 453
352 454
352 463
352 465
353 354
353 355
353 356
353 357
353 358
353 360
353 363
353 365
353 374
353 375
353 376
353 378
353 379
353 381
353 382
353 383
353 385
353 386
353 420
353 421
353 422
353 424
353 425
353 426
353 427
353 428
353 429
353 430
353 431
353 432
353 433
353 434
353 435
353 442
353 443
353 444
353 445
353 447
353 448
353 449
353 450
353 451
353 452
353 453
353 454
353 463
353 465
354 355
354 356
354 357
354 358
354 359
354 360
354 361
354 362
354 364
354 365
354 374
354 375
354 376
354 377
354 379
354 380
354 381
354 382
354 383
354 384
354 386
354 387
354 388
354 389
354 390
354 391
354 392
354 393
354 420
354 421
354 422
354 423
354 425
354 426
354 427
354 428
354 429
354 430
354 431
354 432
354 433
354 434
354 435
354 442
354 445
354 446
354 463
354 465
355 356
355 357
355 358
355 360
355 363
355 365
355 374
355 375
355 376
355 377
355 378
355 380
355 381
355 382
355 383
355 384
355 385
355 387
355 388
355 389
355 390
355 391
355 392
355 393
355 420
355 421
355 422
355 423
355 424
355 426
355 427
355 428
355 429
355 430
355 431
355 432
355 433
355 434
355 435
355 442
355 445
355 446
355 463
355 465
356 357
356 358
356 360
356 363
356 365
356 374
356 375
356 376
356 378
356 379
356 381
356 382
356 383
356 385
356 386
356 420
356 421
356 422
356 423
356 424
356 425
356 427
356 428
356 429
356 430
356 431
356 432
356 433
356 434
356 435
356 442
356 445
356 446
356 463
356 465
357 358
357 360
357 363
357 365
357 374
357 375
357 376
357 378
357 379
357 381
357 382
357 383
357 385
357 386
357 420
357 421
357 422
357 423
357 424
357 425
357 426
357 428
357 429
357 430
357 431
357 432
357 433
357 434
357 435
357 442
357 445
357 446
357 463
357 465
358 359
358 360
358 361
358 362
358 363
358 364
358 366
358 367
358 368
358 369
358 370
358 371
358 372
358 373
358 375
358 376
358 377
358 378
358 379
358 380
358 382
358 383
358 385
358 386
358 420
358 421
358 422
358 423
358 424
358 425
358 426
358 427
358 436
358 437
358 438
358 439
358 440
358 441
358 445
358 446
358 455
358 456
358 457
358 458
358 459
358 460
358 461
358 462
358 465
359 360
359 361
359 362
359 363
359 364
359 365
359 367
359 368
359 369
359 370
359 371
359 372
359 373
359 374
359 375
359 377
359 378
359 380
359 381
359 382
359 384
359 385
359 387
359 405
359 406
359 407
359 408
359 409
359 410
359 411
359 414
359 420
359 424
359 438
359 441
359 442
359 463
359 466
360 361
360 362
360 363
360 364
360 365
360 366
360 370
360 374
360 376
360 377
360 378
360 379
360 380
360 381
360 383
360 384
360 385
360 386
360 387
360 388
360 389
360 390
360 391
360 392
360 393
360 404
360 406
360 414
360 421
360 422
360 423
360 424
360 425
360 426
360 427
360 428
360 429
360 430
360 431
360 432
360 433
360 434
360 435
360 438
360 441
360 442
360 463
360 466
361 362
361 363
361 364
361 365
361 366
361 370
361 374
361 375
361 376
361 378
361 379
361 380
361 381
361 382
361 383
361 385
361 386
361 387
361 388
361 389
361 390
361 391
361 392
361 393
361 404
361 405
361 407
361 408
361 409
361 410
361 411
361 412
361 413
361 415
361 416
361 417
361 418
361 419
361 420
361 424
361 436
361 437
361 439
361 440
361 441
361 442
361 463
361 464
361 465
361 467
361 468
361 469
361 470
361 471
362 363
362 364
362 365
362 366
362 367
362 368
362 369
362 371
362 372
362 373
362 374
362 375
362 377
362 378
362 380
362 381
362 382
362 384
362 385
362 387
362 404
362 406
362 414
362 420
362 424
362 438
362 441
362 442
362 463
362 466
363 364
363 365
363 366
363 370
363 374
363 375
363 376
363 377
363 379
363 380
363 381
363 382
363 383
363 384
363 386
363 387
363 388
363 389
363 390
363 391
363 392
363 393
363 404
363 406
363 414
363 420
363 421
363 422
363 423
363 425
363 426
363 427
363 428
363 429
363 430
363 431
363 432
363 433
363 434
363 435
363 438
363 441
363 442
363 463
363 466
364 365
364 366
364 370
364 374
364 375
364 376
364 377
364 378
364 379
364 381
364 382
364 383
364 384
364 385
364 386
364 388
364 389
364 390
364 391
364 392
364 393
364 404
364 406
364 414
364 420
364 424
364 436
364 437
364 438
364 439
364 440
364 442
364 463
364 466
365 366
365 367
365 368
365 369
365 370
365 371
365 372
365 373
365 375
365 376
365 377
365 378
365 379
365 380
365 382
365 384
365 385
365 387
365 404
365 406
365 414
365 420
365 424
365 436
365 437
365 438
365 439
365 440
365 441
365 455
365 456
365 457
365 458
365 459
365 460
365 461
365 462
365 466
366 367
366 368
366 369
366 370
366 371
366 372
366 373
366 374
366 381
366 395
366 397
366 405
366 406
366 407
366 408
366 409
366 410
366 411
366 413
366 437
366 440
366 442
366 443
366 447
366 456
366 458
366 460
366 462
366 463
367 368
367 369
367 370
367 371
367 372
367 373
367 374
367 381
367 394
367 396
367 397
367 398
367 399
367 400
367 401
367 402
367 403
367 404
367 406
367 407
367 408
367 409
367 410
367 411
367 412
367 414
367 415
367 416
367 417
367 418
367 419
367 436
367 438
367 439
367 440
367 441
367 442
367 443
367 447
367 455
367 457
367 458
367 459
367 460
367 461
367 462
367 463
368 369
368 370
368 371
368 372
368 373
368 374
368 381
368 395
368 397
368 404
368 405
368 413
368 437
368 440
368 442
368 444
368 445
368 446
368 447
368 448
368 449
368 450
368 451
368 452
368 453
368 454
368 456
368 458
368 460
368 462
368 463
369 370
369 371
369 372
369 373
369 374
369 381
369 394
369 395
369 396
369 398
369 399
369 400
369 401
369 402
369 403
369 404
369 405
369 413
369 437
369 440
369 442
369 443
369 444
369 445
369 446
369 448
369 449
369 450
369 451
369 452
369 453
369 454
369 455
369 456
369 457
369 459
369 460
369 461
369 462
369 463
370 371
370 372
370 373
370 374
370 381
370 395
370 397
370 404
370 405
370 413
370 437
370 440
370 442
370 443
370 447
370 456
370 458
370 460
370 462
370 463
371 372
371 373
371 374
371 381
371 395
371 397
371 404
371 405
371 413
371 436
371 437
371 438
371 439
371 441
371 442
371 443
371 447
371 455
371 456
371 457
371 458
371 459
371 461
371 462
371 463
372 373
372 374
372 381
372 395
372 397
372 404
372 405
372 413
372 437
372 440
372 442
372 443
372 447
372 456
372 458
372 460
372 462
372 463
373 374
373 381
373 395
373 397
373 404
373 405
373 413
373 437
373 440
373 442
373 443
373 447
373 455
373 456
373 457
373 458
373 459
373 460
373 461
373 463
374 375
374 376
374 377
374 378
374 379
374 380
374 395
374 397
374 404
374 405
374 413
374 436
374 437
374 438
374 439
374 440
374 441
374 443
374 447
374 455
374 456
374 457
374 458
374 459
374 460
374 461
374 462
375 376
375 377
375 378
375 379
375 380
375 381
375 383
375 384
375 385
375 386
375 387
375 388
375 389
375 390
375 391
375 392
375 393
375 406
375 414
375 421
375 422
375 423
375 424
375 425
375 426
375 427
375 428
375 429
375 430
375 431
375 432
375 433
375 434
375 435
375 438
375 441
375 442
375 463
375 465
375 466
376 377
376 378
376 379
376 380
376 381
376 382
376 384
376 385
376 386
376 387
376 388
376 389
376 390
376 391
376 392
376 393
376 406
376 414
376 420
376 422
376 423
376 424
376 425
376 426
376 427
376 428
376 429
376 430
376 431
376 432
376 433
376 434
376 435
376 438
376 441
376 442
376 463
376 464
376 466
376 467
376 468
376 469
376 470
376 471
377 378
377 379
377 380
377 381
377 382
377 383
377 385
377 386
377 387
377 388
377 389
377 390
377 391
377 392
377 393
377 404
377 405
377 407
377 408
377 409
377 410
377 411
377 412
377 413
377 415
377 416
377 417
377 418
377 419
377 420
377 421
377 424
377 425
377 436
377 437
377 439
377 440
377 441
377 442
377 463
377 464
377 465
377 467
377 468
377 469
377 470
377 471
378 379
378 380
378 381
378 382
378 383
378 384
378 386
378 387
378 388
378 389
378 390
378 391
378 392
378 393
378 406
378 414
378 420
378 421
378 422
378 423
378 425
378 426
378 427
378 428
378 429
378 430
378 431
378 432
378 433
378 434
378 435
378 438
378 441
378 442
378 463
378 465
378 466
379 380
379 381
379 382
379 383
379 384
379 385
379 387
379 388
379 389
379 390
379 391
379 392
379 393
379 406
379 414
379 420
379 421
379 422
379 423
379 424
379 426
379 427
379 428
379 429
379 430
379 431
379 432
379 433
379 434
379 435
379 438
379 441
379 442
379 463
379 465
379 466
380 381
380 382
380 383
380 384
380 385
380 386
380 388
380 389
380 390
380 391
380 392
380 393
380 406
380 414
380 420
380 421
380 424
380 425
380 436
380 437
380 438
380 439
380 440
380 442
380 463
380 465
380 466
381 382
381 383
381 384
381 385
381 386
381 387
381 406
381 414
381 420
381 421
381 424
381 425
381 436
381 437
381 438
381 439
381 440
381 441
381 455
381 456
381 457
381 458
381 459
381 460
381 461
381 462
381 465
381 466
382 383
382 384
382 385
382 386
382 387
382 388
382 389
382 390
382 391
382 392
382 393
382 406
382 410
382 414
382 418
382 421
382 422
382 423
382 424
382 425
382 426
382 427
382 428
382 429
382 430
382 431
382 432
382 433
382 434
382 435
382 438
382 441
382 465
382 466
382 469
382 470
383 384
383 385
383 386
383 387
383 388
383 389
383 390
383 391
383 392
383 393
383 406
383 410
383 414
383 418
383 420
383 422
383 423
383 424
383 425
383 426
383 427
383 428
383 429
383 430
383 431
383 432
383 433
383 434
383 435
383 438
383 441
383 464
383 466
383 467
383 468
383 469
383 470
383 471
384 385
384 386
384 387
384 388
384 389
384 390
384 391
384 392
384 393
384 404
384 405
384 407
384 408
384 409
384 410
384 411
384 412
384 413
384 415
384 416
384 417
384 418
384 419
384 420
384 421
384 424
384 425
384 428
384 429
384 432
384 433
384 436
384 437
384 439
384 440
384 441
384 442
384 464
384 465
384 467
384 468
384 469
384 470
384 471
385 386
385 387
385 388
385 389
385 390
385 391
385 392
385 393
385 406
385 410
385 414
385 418
385 420
385 421
385 422
385 423
385 425
385 426
385 427
385 428
385 429
385 430
385 431
385 432
385 433
385 434
385 435
385 438
385 441
385 465
385 466
385 469
385 470
386 387
386 388
386 389
386 390
386 391
386 392
386 393
386 406
386 410
386 414
386 418
386 420
386 421
386 422
386 423
386 424
386 426
386 427
386 428
386 429
386 430
386 431
386 432
386 433
386 434
386 435
386 438
386 441
386 465
386 466
386 469
386 470
387 388
387 389
387 390
387 391
387 392
387 393
387 406
387 410
387 414
387 418
387 420
387 421
387 424
387 425
387 428
387 429
387 432
387 433
387 436
387 437
387 438
387 439
387 440
387 442
387 465
387 466
387 469
387 470
388 389
388 390
388 391
388 392
388 393
388 406
388 410
388 414
388 418
388 420
388 421
388 422
388 423
388 424
388 425
388 426
388 427
388 429
388 430
388 431
388 432
388 433
388 434
388 435
388 438
388 441
388 465
388 466
388 469
388 470
389 390
389 391
389 392
389 393
389 406
389 410
389 414
389 418
389 420
389 421
389 422
389 423
389 424
389 425
389 426
389 427
389 428
389 430
389 431
389 432
389 433
389 434
389 435
389 438
389 441
389 464
389 465
389 466
389 467
389 468
389 470
389 471
390 391
390 392
390 393
390 404
390 405
390 406
390 407
390 408
390 409
390 411
390 412
390 413
390 414
390 415
390 416
390 417
390 419
390 420
390 421
390 424
390 425
390 428
390 429
390 432
390 433
390 438
390 441
390 464
390 465
390 466
390 467
390 468
390 469
390 471
391 392
391 393
391 406
391 410
391 414
391 418
391 420
391 421
391 422
391 423
391 424
391 425
391 426
391 427
391 428
391 429
391 430
391 431
391 433
391 434
391 435
391 438
391 441
391 465
391 466
391 469
391 470
392 393
392 406
392 410
392 414
392 418
392 420
392 421
392 422
392 423
392 424
392 425
392 426
392 427
392 428
392 429
392 430
392 431
392 432
392 434
392 435
392 438
392 441
392 465
392 466
392 469
392 470
393 406
393 410
393 414
393 418
393 420
393 421
393 424
393 425
393 428
393 429
393 432
393 433
393 438
393 441
393 465
393 466
393 469
393 470
394 395
394 396
394 397
394 398
394 399
394 400
394 401
394 402
394 403
394 405
394 407
394 409
394 411
394 413
394 414
394 415
394 416
394 417
394 418
394 419
394 437
394 438
394 439
394 440
394 441
394 442
394 444
394 447
394 448
394 450
394 453
394 454
394 456
394 457
394 458
394 459
394 460
394 461
394 462
394 463
394 465
394 466
394 467
394 468
394 469
394 470
394 471
395 396
395 397
395 398
395 399
395 400
395 401
395 402
395 403
395 404
395 406
395 407
395 408
395 409
395 410
395 411
395 412
395 414
395 415
395 416
395 417
395 418
395 419
395 436
395 438
395 439
395 440
395 441
395 442
395 444
395 447
395 448
395 450
395 453
395 454
395 455
395 457
395 458
395 459
395 460
395 461
395 462
395 463
395 464
395 467
395 468
395 471
396 397
396 398
396 399
396 400
396 401
396 402
396 403
396 405
396 407
396 409
396 411
396 412
396 413
396 415
396 416
396 417
396 419
396 436
396 437
396 443
396 445
396 446
396 447
396 448
396 449
396 450
396 451
396 452
396 453
396 454
396 455
396 456
396 458
396 459
396 460
396 461
396 462
396 463
396 464
396 467
396 468
396 471
397 398
397 399
397 400
397 401
397 402
397 403
397 405
397 407
397 409
397 411
397 412
397 413
397 415
397 416
397 417
397 419
397 436
397 437
397 443
397 444
397 445
397 446
397 448
397 449
397 450
397 451
397 452
397 453
397 454
397 455
397 456
397 457
397 459
397 460
397 461
397 462
397 463
397 464
397 467
397 468
397 471
398 399
398 400
398 401
398 402
398 403
398 404
398 405
398 406
398 408
398 409
398 410
398 411
398 412
398 413
398 414
398 416
398 417
398 418
398 419
398 436
398 437
398 443
398 444
398 445
398 446
398 447
398 449
398 450
398 451
398 452
398 453
398 454
398 455
398 456
398 457
398 458
398 464
398 465
398 466
398 468
398 469
398 470
398 471
399 400
399 401
399 402
399 403
399 405
399 407
399 409
399 411
399 412
399 413
399 414
399 415
399 417
399 418
399 419
399 436
399 437
399 444
399 447
399 448
399 450
399 453
399 454
399 455
399 456
399 457
399 458
399 464
399 465
399 466
399 467
399 469
399 470
399 471
400 401
400 402
400 403
400 404
400 405
400 406
400 407
400 408
400 410
400 411
400 412
400 413
400 414
400 415
400 416
400 418
400 419
400 436
400 437
400 444
400 447
400 448
400 450
400 453
400 454
400 455
400 456
400 457
400 458
400 464
400 467
400 468
400 471
401 402
401 403
401 405
401 407
401 409
401 411
401 412
401 413
401 415
401 416
401 417
401 419
401 436
401 437
401 443
401 444
401 445
401 446
401 447
401 448
401 449
401 451
401 452
401 453
401 454
401 455
401 456
401 457
401 458
401 464
401 467
401 468
401 471
402 403
402 405
402 407
402 409
402 411
402 412
402 413
402 415
402 416
402 417
402 419
402 436
402 437
402 443
402 444
402 445
402 446
402 447
402 448
402 449
402 450
402 451
402 452
402 454
402 455
402 456
402 457
402 458
402 464
402 467
402 468
402 471
403 404
403 405
403 406
403 407
403 408
403 409
403 410
403 412
403 413
403 414
403 415
403 416
403 417
403 418
403 436
403 437
403 443
403 444
403 445
403 446
403 447
403 448
403 449
403 450
403 451
403 452
403 453
403 455
403 456
403 457
403 458
403 464
403 465
403 466
403 467
403 468
403 469
403 470
404 405
404 406
404 407
404 408
404 409
404 410
404 411
404 413
404 414
404 415
404 417
404 418
404 419
404 437
404 438
404 448
404 454
404 456
404 466
404 467
404 470
404 471
405 406
405 407
405 408
405 409
405 410
405 411
405 412
405 414
405 415
405 416
405 417
405 418
405 419
405 436
405 438
405 439
405 440
405 441
405 442
405 448
405 454
405 455
405 457
405 458
405 459
405 460
405 461
405 462
405 463
405 466
405 467
405 470
405 471
406 407
406 408
406 409
406 410
406 411
406 412
406 413
406 415
406 416
406 417
406 418
406 419
406 436
406 437
406 439
406 440
406 441
406 442
406 448
406 454
406 456
406 464
406 465
406 467
406 468
406 469
406 470
406 471
407 408
407 409
407 410
407 411
407 412
407 413
407 414
407 416
407 417
407 418
407 419
407 437
407 438
407 443
407 444
407 445
407 446
407 447
407 449
407 450
407 451
407 452
407 453
407 454
407 456
407 464
407 465
407 466
407 468
407 469
407 470
407 471
408 409
408 410
408 411
408 413
408 414
408 415
408 417
408 418
408 419
408 437
408 438
408 448
408 454
408 456
408 466
408 467
408 470
408 471
409 410
409 411
409 412
409 413
409 414
409 415
409 416
409 418
409 419
409 437
409 438
409 448
409 454
409 456
409 466
409 467
409 470
409 471
410 411
410 412
410 413
410 414
410 415
410 416
410 417
410 419
410 437
410 438
410 448
410 454
410 456
410 464
410 465
410 466
410 467
410 468
410 469
410 471
411 412
411 413
411 414
411 415
411 416
411 417
411 418
411 437
411 438
411 443
411 444
411 445
411 446
411 447
411 448
411 449
411 450
411 451
411 452
411 453
411 456
411 464
411 465
411 466
411 467
411 468
411 469
411 470
412 413
412 414
412 415
412 416
412 417
412 418
412 419
412 437
412 438
412 439
412 440
412 441
412 442
412 448
412 454
412 456
412 457
412 458
412 459
412 460
412 461
412 462
412 463
412 465
412 466
412 467
412 468
412 469
412 470
412 471
413 414
413 415
413 416
413 417
413 418
413 419
413 436
413 438
413 439
413 440
413 441
413 442
413 448
413 454
413 455
413 457
413 458
413 459
413 460
413 461
413 462
413 463
413 464
413 466
413 467
413 468
413 470
413 471
414 415
414 416
414 417
414 418
414 419
414 436
414 437
414 439
414 440
414 441
414 442
414 448
414 454
414 455
414 456
414 464
414 465
414 467
414 468
414 469
414 470
414 471
415 416
415 417
415 418
415 419
415 436
415 437
415 438
415 443
415 444
415 445
415 446
415 447
415 449
415 450
415 451
415 452
415 453
415 454
415 455
415 456
415 464
415 465
415 466
415 468
415 469
415 470
415 471
416 417
416 418
416 419
416 436
416 437
416 438
416 448
416 454
416 455
416 456
416 464
416 465
416 466
416 467
416 469
416 470
416 471
417 418
417 419
417 436
417 437
417 438
417 448
417 454
417 455
417 456
417 464
417 466
417 467
417 468
417 470
417 471
418 419
418 436
418 437
418 438
418 448
418 454
418 455
418 456
418 464
418 465
418 466
418 467
418 468
418 469
418 471
419 436
419 437
419 438
419 443
419 444
419 445
419 446
419 447
419 448
419 449
419 450
419 451
419 452
419 453
419 455
419 456
419 464
419 465
419 466
419 467
419 468
419 469
419 470
420 421
420 422
420 423
420 424
420 425
420 426
420 427
420 428
420 429
420 430
420 431
420 432
420 433
420 434
420 435
420 445
420 446
420 451
420 452
420 465
420 469
421 422
421 423
421 424
421 425
421 426
421 427
421 428
421 429
421 430
421 431
421 432
421 433
421 434
421 435
421 445
421 446
421 451
421 452
421 464
421 466
421 467
421 468
421 469
421 470
421 471
422 423
422 424
422 425
422 426
422 427
422 428
422 429
422 430
422 431
422 432
422 433
422 434
422 435
422 443
422 444
422 446
422 447
422 448
422 449
422 450
422 451
422 452
422 453
422 454
422 465
422 469
423 424
423 425
423 426
423 427
423 428
423 429
423 430
423 431
423 432
423 433
423 434
423 435
423 443
423 444
423 445
423 447
423 448
423 449
423 450
423 451
423 452
423 453
423 454
423 465
423 469
424 425
424 426
424 427
424 428
424 429
424 430
424 431
424 432
424 433
424 434
424 435
424 445
424 446
424 451
424 452
424 465
424 469
425 426
425 427
425 428
425 429
425 430
425 431
425 432
425 433
425 434
425 435
425 445
425 446
425 451
425 452
425 465
425 469
426 427
426 428
426 429
426 430
426 431
426 432
426 433
426 434
426 435
426 445
426 446
426 451
426 452
426 465
426 469
427 428
427 429
427 430
427 431
427 432
427 433
427 434
427 435
427 445
427 446
427 451
427 452
427 465
427 469
428 429
428 430
428 431
428 432
428 433
428 434
428 435
428 445
428 446
428 451
428 452
428 465
428 469
429 430
429 431
429 432
429 433
429 434
429 435
429 445
429 446
429 451
429 452
429 464
429 465
429 466
429 467
429 468
429 470
429 471
430 431
430 432
430 433
430 434
430 435
430 443
430 444
430 445
430 446
430 447
430 448
430 449
430 450
430 452
430 453
430 454
430 465
430 469
431 432
431 433
431 434
431 435
431 443
431 444
431 445
431 446
431 447
431 448
431 449
431 450
431 451
431 453
431 454
431 465
431 469
432 433
432 434
432 435
432 445
432 446
432 451
432 452
432 465
432 469
433 434
433 435
433 445
433 446
433 451
433 452
433 465
433 469
434 435
434 445
434 446
434 451
434 452
434 465
434 469
435 445
435 446
435 451
435 452
435 465
435 469
436 437
436 438
436 439
436 440
436 441
436 442
436 456
436 457
436 458
436 459
436 460
436 461
436 462
436 463
436 465
436 466
436 467
436 468
436 469
436 470
436 471
437 438
437 439
437 440
437 441
437 442
437 455
437 457
437 458
437 459
437 460
437 461
437 462
437 463
437 464
437 466
438 439
438 440
438 441
438 442
438 455
438 456
438 459
438 460
438 463
438 464
438 465
438 467
438 468
438 469
438 470
438 471
439 440
439 441
439 442
439 455
439 456
439 457
439 458
439 460
439 461
439 462
439 463
439 464
439 466
440 441
440 442
440 455
440 456
440 457
440 458
440 459
440 461
440 462
440 463
440 464
440 466
441 442
441 455
441 456
441 459
441 460
441 463
441 464
441 466
442 455
442 456
442 457
442 458
442 459
442 460
442 461
442 462
442 464
442 466
443 444
443 445
443 446
443 447
443 448
443 449
443 450
443 451
443 452
443 453
443 454
443 457
443 458
443 467
443 471
444 445
444 446
444 447
444 448
444 449
444 450
444 451
444 452
444 453
444 454
444 455
444 456
444 458
444 459
444 460
444 461
444 462
444 463
444 467
444 471
445 446
445 447
445 448
445 449
445 450
445 451
445 452
445 453
445 454
445 457
445 458
445 467
445 471
446 447
446 448
446 449
446 450
446 451
446 452
446 453
446 454
446 457
446 458
446 467
446 471
447 448
447 449
447 450
447 451
447 452
447 453
447 454
447 455
447 456
447 457
447 459
447 460
447 461
447 462
447 463
447 467
447 471
448 449
448 450
448 451
448 452
448 453
448 454
448 457
448 458
448 464
448 465
448 466
448 468
448 469
448 470
448 471
449 450
449 451
449 452
449 453
449 454
449 457
449 458
449 467
449 471
450 451
450 452
450 453
450 454
450 457
450 458
450 467
450 471
451 452
451 453
451 454
451 457
451 458
451 467
451 471
452 453
452 454
452 457
452 458
452 467
452 471
453 454
453 457
453 458
453 467
453 471
454 457
454 458
454 464
454 465
454 466
454 467
454 468
454 469
454 470
455 456
455 457
455 458
455 459
455 460
455 461
455 462
455 463
455 465
455 466
455 467
455 468
455 469
455 470
455 471
456 457
456 458
456 459
456 460
456 461
456 462
456 463
456 464
457 458
457 459
457 460
457 461
457 462
457 463
457 464
458 459
458 460
458 461
458 462
458 463
458 464
459 460
459 461
459 462
459 463
459 464
460 461
460 462
460 463
460 464
461 462
461 463
461 464
462 463
462 464
463 464
464 465
464 466
464 467
464 468
464 469
464 470
464 471
465 466
465 467
465 468
465 469
465 470
465 471
466 467
466 468
466 469
466 470
466 471
467 468
467 469
467 470
467 471
468 469
468 470
468 471
469 470
469 471
470 471
