40:305
0 1
0 2
0 3
0 4
0 6
0 10
0 12
0 13
0 19
0 20
0 23
0 25
0 31
0 34
0 35
1 2
1 3
1 5
1 11
1 13
1 19
1 20
1 22
1 24
1 25
1 30
1 32
1 33
1 35
2 3
2 5
2 10
2 11
2 12
2 17
2 18
2 20
2 21
2 23
2 25
2 31
2 33
2 34
3 5
3 11
3 13
3 17
3 18
3 19
3 21
3 22
3 23
3 24
3 31
3 33
3 34
4 5
4 6
4 9
4 11
4 12
4 13
4 15
4 16
4 27
4 28
4 29
4 32
4 33
4 35
5 6
5 9
5 10
5 12
5 13
5 14
5 16
5 26
5 32
5 34
5 35
6 7
6 8
6 10
6 11
6 14
6 15
6 26
6 30
6 31
6 33
6 34
7 8
7 9
7 15
7 16
7 23
7 24
7 25
7 27
7 31
7 32
7 35
7 37
7 38
7 39
8 9
8 14
8 16
8 22
8 26
8 28
8 29
8 30
8 32
8 35
8 36
8 38
8 39
9 14
9 15
9 22
9 27
9 30
9 31
9 33
9 34
9 36
9 37
10 11
10 12
10 13
10 15
10 16
10 17
10 19
10 27
10 28
10 29
10 33
11 12
11 13
11 14
11 17
11 19
11 26
11 28
11 34
11 35
12 13
12 14
12 18
12 19
12 20
12 21
12 26
12 27
12 29
12 33
13 14
13 17
13 18
13 20
13 21
13 26
13 28
13 33
14 15
14 16
14 27
14 28
14 29
14 32
14 35
14 37
15 16
15 26
15 28
15 29
15 32
15 35
15 36
15 38
15 39
16 26
16 27
16 30
16 31
16 33
16 34
16 37
17 18
17 19
17 20
17 21
17 24
17 25
17 26
17 27
17 29
17 38
17 39
18 19
18 20
18 21
18 22
18 23
18 25
18 28
18 29
18 36
18 37
18 39
19 20
19 21
19 24
19 25
19 28
19 29
19 38
19 39
20 21
20 22
20 23
20 24
20 28
20 29
20 38
20 39
21 24
21 25
21 26
21 27
21 28
21 36
21 37
21 38
22 23
22 24
22 25
22 31
22 32
22 34
22 37
22 38
22 39
23 24
23 25
23 30
23 32
23 33
23 35
23 36
23 38
24 25
24 30
24 31
24 34
24 36
24 37
24 39
25 30
25 31
25 34
25 36
25 38
26 27
26 28
26 29
26 37
26 39
27 28
27 29
27 36
27 38
27 39
28 29
28 37
28 39
29 36
29 37
29 38
30 31
30 32
30 34
30 35
30 37
30 38
30 39
31 32
31 33
31 35
31 36
32 33
32 34
32 36
33 34
33 35
34 35
36 37
36 38
36 39
37 38
37 39
38 39
