142:4030
0 1
0 2
0 3
0 4
0 5
0 6
0 7
0 20
0 21
0 22
0 23
0 24
0 30
0 31
0 32
0 33
0 35
0 36
0 37
0 38
0 40
0 43
0 45
0 62
0 63
0 64
0 65
0 66
0 72
0 74
0 77
0 79
0 82
0 84
0 96
0 97
0 98
0 100
0 101
0 102
0 103
0 104
0 106
0 108
0 110
0 118
0 120
0 124
0 127
0 131
0 132
0 133
0 134
0 135
0 136
0 137
0 138
1 2
1 3
1 4
1 5
1 6
1 7
1 19
1 22
1 29
1 31
1 34
1 36
1 37
1 38
1 40
1 43
1 45
1 61
1 63
1 64
1 65
1 66
1 73
1 74
1 75
1 76
1 77
1 79
1 82
1 84
1 95
1 99
1 101
1 102
1 103
1 105
1 106
1 107
1 108
1 109
1 110
1 111
1 118
1 120
1 125
1 126
1 127
1 128
1 129
1 130
1 132
1 134
1 136
1 139
1 140
1 141
2 3
2 4
2 5
2 6
2 7
2 19
2 22
2 29
2 30
2 32
2 33
2 34
2 35
2 38
2 40
2 43
2 45
2 61
2 62
2 64
2 65
2 72
2 74
2 78
2 79
2 80
2 81
2 82
2 83
2 84
2 85
2 86
2 95
2 99
2 100
2 102
2 103
2 104
2 106
2 108
2 110
2 119
2 120
2 121
2 122
2 123
2 124
2 127
2 130
2 131
2 133
2 134
2 135
2 136
2 137
2 138
3 4
3 5
3 6
3 7
3 19
3 22
3 29
3 31
3 34
3 35
3 38
3 40
3 43
3 45
3 61
3 62
3 64
3 65
3 72
3 73
3 75
3 76
3 77
3 78
3 80
3 81
3 82
3 83
3 84
3 85
3 86
3 95
3 99
3 100
3 101
3 103
3 104
3 105
3 107
3 108
3 109
3 110
3 111
3 118
3 119
3 121
3 122
3 123
3 124
3 127
3 130
3 132
3 134
3 136
3 138
4 5
4 6
4 7
4 19
4 20
4 21
4 23
4 24
4 29
4 31
4 34
4 35
4 39
4 40
4 41
4 42
4 43
4 44
4 45
4 46
4 47
4 48
4 61
4 62
4 63
4 65
4 66
4 72
4 74
4 77
4 79
4 82
4 84
4 95
4 99
4 100
4 101
4 102
4 104
4 106
4 108
4 110
4 118
4 120
4 124
4 127
4 130
4 131
4 132
4 133
4 135
4 136
4 137
4 138
5 6
5 7
5 19
5 22
5 29
5 31
5 34
5 35
5 38
5 39
5 41
5 42
5 43
5 44
5 45
5 46
5 47
5 48
5 61
5 62
5 63
5 64
5 66
5 72
5 74
5 77
5 79
5 82
5 84
5 95
5 99
5 100
5 101
5 102
5 104
5 105
5 106
5 107
5 109
5 110
5 111
5 118
5 120
5 124
5 125
5 126
5 128
5 129
5 130
5 132
5 134
5 136
5 138
6 7
6 19
6 22
6 29
6 31
6 34
6 35
6 38
6 39
6 40
6 41
6 42
6 44
6 45
6 46
6 47
6 48
6 61
6 62
6 64
6 65
6 72
6 74
6 77
6 78
6 79
6 80
6 81
6 83
6 84
6 85
6 86
6 95
6 99
6 100
6 101
6 102
6 104
6 106
6 108
6 110
6 118
6 120
6 124
6 127
6 130
6 131
6 132
6 133
6 134
6 135
6 137
6 138
7 19
7 22
7 29
7 31
7 34
7 35
7 38
7 39
7 40
7 41
7 42
7 43
7 44
7 46
7 47
7 48
7 61
7 62
7 64
7 65
7 72
7 74
7 77
7 78
7 79
7 80
7 81
7 82
7 83
7 85
7 86
7 95
7 99
7 100
7 101
7 102
7 104
7 105
7 106
7 107
7 108
7 109
7 111
7 118
7 120
7 124
7 127
7 130
7 132
7 134
7 136
7 138
8 9
8 10
8 11
8 12
8 13
8 15
8 16
8 17
8 18
8 21
8 24
8 26
8 27
8 28
8 36
8 39
8 41
8 48
8 50
8 51
8 52
8 54
8 55
8 56
8 57
8 58
8 59
8 60
8 63
8 66
8 68
8 69
8 70
8 71
8 73
8 88
8 89
8 90
8 91
8 92
8 93
8 94
8 97
8 105
8 109
8 113
8 114
8 115
8 116
8 117
8 125
8 126
8 128
8 129
8 139
8 140
9 10
9 11
9 12
9 13
9 14
9 16
9 17
9 18
9 21
9 24
9 25
9 27
9 28
9 36
9 39
9 41
9 48
9 49
9 51
9 53
9 55
9 56
9 57
9 58
9 59
9 60
9 63
9 66
9 67
9 72
9 74
9 75
9 76
9 87
9 91
9 97
9 104
9 106
9 107
9 108
9 109
9 110
9 111
9 112
9 114
9 115
9 117
9 124
9 126
9 127
9 128
9 129
9 138
9 140
9 141
10 11
10 12
10 13
10 14
10 15
10 19
10 20
10 22
10 23
10 24
10 25
10 26
10 28
10 34
10 35
10 37
10 39
10 41
10 48
10 49
10 50
10 52
10 53
10 54
10 57
10 58
10 61
10 62
10 64
10 65
10 66
10 67
10 73
10 87
10 91
10 95
10 96
10 98
10 105
10 109
10 112
10 113
10 115
10 116
10 117
10 124
10 125
10 127
10 128
10 129
10 138
10 139
10 141
11 12
11 13
11 14
11 15
11 21
11 24
11 25
11 26
11 27
11 36
11 38
11 40
11 41
11 42
11 43
11 44
11 45
11 46
11 47
11 48
11 49
11 51
11 53
11 54
11 55
11 56
11 58
11 59
11 60
11 63
11 66
11 67
11 73
11 87
11 88
11 89
11 90
11 92
11 93
11 94
11 97
11 105
11 109
11 112
11 113
11 114
11 116
11 117
11 125
11 126
11 128
11 129
11 139
11 140
12 13
12 14
12 15
12 21
12 24
12 25
12 26
12 27
12 36
12 38
12 39
12 40
12 42
12 43
12 44
12 45
12 46
12 47
12 48
12 49
12 51
12 53
12 54
12 55
12 56
12 57
12 59
12 60
12 63
12 66
12 67
12 73
12 87
12 91
12 97
12 104
12 105
12 106
12 107
12 108
12 110
12 111
12 112
12 114
12 115
12 117
12 124
12 125
12 126
12 127
12 129
12 139
12 140
13 14
13 15
13 19
13 20
13 21
13 22
13 23
13 25
13 26
13 27
13 36
13 38
13 39
13 40
13 41
13 42
13 43
13 44
13 45
13 46
13 47
13 49
13 51
13 53
13 54
13 57
13 58
13 61
13 62
13 63
13 64
13 65
13 67
13 73
13 87
13 91
13 97
13 105
13 109
13 112
13 113
13 114
13 115
13 116
13 124
13 125
13 126
13 127
13 128
13 139
13 140
14 15
14 16
14 17
14 18
14 26
14 27
14 28
14 33
14 37
14 50
14 51
14 52
14 54
14 55
14 56
14 57
14 58
14 59
14 60
14 68
14 69
14 70
14 71
14 73
14 75
14 76
14 78
14 80
14 88
14 89
14 90
14 91
14 92
14 93
14 94
14 98
14 103
14 105
14 107
14 113
14 114
14 115
14 116
14 117
14 119
14 121
14 123
14 125
14 139
14 141
15 16
15 17
15 18
15 25
15 27
15 28
15 33
15 37
15 49
15 52
15 53
15 55
15 56
15 57
15 58
15 59
15 60
15 67
15 69
15 71
15 72
15 74
15 75
15 76
15 78
15 80
15 87
15 89
15 98
15 103
15 104
15 106
15 107
15 108
15 109
15 110
15 111
15 112
15 119
15 121
15 123
15 124
15 126
15 127
15 128
15 129
15 138
15 140
15 141
16 17
16 18
16 25
16 26
16 28
16 33
16 37
16 49
16 52
16 53
16 54
16 56
16 57
16 58
16 59
16 60
16 67
16 68
16 70
16 71
16 73
16 75
16 76
16 77
16 79
16 80
16 81
16 82
16 83
16 84
16 85
16 86
16 87
16 88
16 90
16 91
16 92
16 93
16 94
16 98
16 103
16 105
16 107
16 112
16 118
16 120
16 121
16 122
16 123
16 125
16 139
16 141
17 18
17 25
17 26
17 28
17 33
17 37
17 49
17 52
17 53
17 54
17 55
17 57
17 58
17 59
17 60
17 67
17 69
17 71
17 72
17 73
17 74
17 76
17 77
17 78
17 79
17 81
17 82
17 83
17 84
17 85
17 86
17 87
17 89
17 98
17 103
17 104
17 105
17 106
17 108
17 109
17 110
17 111
17 112
17 118
17 119
17 120
17 122
17 123
17 125
17 139
17 141
18 25
18 26
18 27
18 29
18 30
18 31
18 32
18 34
18 35
18 36
18 49
18 50
18 51
18 53
18 54
18 55
18 56
18 67
18 68
18 69
18 70
18 72
18 73
18 74
18 75
18 78
18 80
18 87
18 89
18 95
18 96
18 97
18 99
18 100
18 101
18 102
18 105
18 107
18 112
18 118
18 119
18 120
18 121
18 122
18 125
18 138
18 139
18 140
19 20
19 21
19 22
19 23
19 24
19 27
19 30
19 31
19 32
19 33
19 35
19 36
19 37
19 38
19 42
19 48
19 50
19 51
19 62
19 63
19 64
19 65
19 66
19 68
19 88
19 92
19 96
19 97
19 98
19 100
19 101
19 102
19 103
19 113
19 114
19 116
19 117
19 126
19 129
19 131
19 132
19 133
19 134
19 135
19 136
19 137
19 140
20 21
20 22
20 23
20 24
20 27
20 29
20 31
20 32
20 33
20 34
20 36
20 38
20 42
20 48
20 49
20 51
20 52
20 61
20 63
20 64
20 66
20 67
20 69
20 70
20 71
20 87
20 89
20 90
20 91
20 92
20 93
20 94
20 95
20 97
20 98
20 99
20 112
20 114
20 115
20 116
20 117
20 126
20 129
20 130
20 132
20 133
20 134
20 135
20 136
20 137
20 140
21 22
21 23
21 24
21 25
21 26
21 28
21 29
21 30
21 34
21 35
21 37
21 38
21 42
21 48
21 49
21 50
21 52
21 61
21 62
21 64
21 65
21 66
21 68
21 88
21 92
21 95
21 96
21 98
21 99
21 112
21 113
21 115
21 116
21 117
21 124
21 125
21 127
21 128
21 129
21 130
21 131
21 134
21 135
21 138
21 139
21 141
22 23
22 24
22 27
22 29
22 30
22 34
22 36
22 39
22 40
22 41
22 42
22 43
22 44
22 45
22 46
22 47
22 48
22 50
22 51
22 61
22 62
22 63
22 65
22 66
22 68
22 88
22 92
22 95
22 96
22 97
22 99
22 113
22 114
22 116
22 117
22 126
22 129
22 130
22 131
22 132
22 133
22 135
22 136
22 137
22 140
23 24
23 27
23 29
23 30
23 34
23 36
23 38
23 39
23 40
23 41
23 43
23 44
23 45
23 46
23 47
23 48
23 50
23 51
23 61
23 63
23 64
23 66
23 68
23 87
23 88
23 89
23 90
23 91
23 93
23 94
23 95
23 96
23 97
23 99
23 112
23 113
23 114
23 115
23 117
23 126
23 129
23 130
23 131
23 132
23 133
23 134
23 136
23 137
23 140
24 27
24 29
24 30
24 34
24 36
24 38
24 39
24 40
24 41
24 42
24 43
24 44
24 45
24 46
24 47
24 50
24 51
24 61
24 62
24 63
24 64
24 65
24 68
24 88
24 92
24 95
24 96
24 97
24 99
24 112
24 113
24 114
24 115
24 116
24 124
24 125
24 126
24 127
24 128
24 130
24 131
24 134
24 135
24 140
25 26
25 27
25 28
25 33
25 36
25 37
25 50
25 51
25 52
25 54
25 55
25 56
25 57
25 58
25 59
25 60
25 63
25 68
25 69
25 70
25 71
25 73
25 76
25 88
25 89
25 90
25 91
25 92
25 93
25 94
25 97
25 98
25 103
25 105
25 113
25 114
25 115
25 116
25 117
25 123
25 125
25 126
25 139
25 140
25 141
26 27
26 28
26 33
26 36
26 37
26 49
26 51
26 52
26 53
26 55
26 56
26 57
26 58
26 59
26 60
26 63
26 67
26 71
26 72
26 74
26 75
26 76
26 87
26 97
26 98
26 103
26 104
26 106
26 107
26 108
26 109
26 110
26 111
26 112
26 114
26 123
26 124
26 126
26 127
26 128
26 129
26 138
26 140
26 141
27 28
27 33
27 34
27 35
27 37
27 49
27 50
27 52
27 53
27 54
27 61
27 62
27 64
27 65
27 66
27 67
27 71
27 73
27 76
27 87
27 95
27 96
27 98
27 103
27 105
27 112
27 113
27 115
27 116
27 117
27 123
27 124
27 125
27 127
27 128
27 129
27 138
27 139
27 141
28 29
28 30
28 31
28 32
28 34
28 35
28 36
28 49
28 50
28 51
28 53
28 54
28 63
28 67
28 68
28 69
28 70
28 72
28 73
28 74
28 75
28 87
28 95
28 96
28 97
28 99
28 100
28 101
28 102
28 105
28 112
28 114
28 118
28 119
28 120
28 121
28 122
28 125
28 126
28 138
28 139
28 140
29 30
29 31
29 32
29 33
29 35
29 36
29 37
29 50
29 52
29 62
29 63
29 64
29 65
29 66
29 68
29 70
29 71
29 76
29 77
29 81
29 88
29 90
29 96
29 97
29 98
29 100
29 101
29 102
29 103
29 113
29 118
29 122
29 123
29 131
29 132
29 133
29 134
29 135
29 136
29 137
29 141
30 31
30 32
30 33
30 34
30 37
30 49
30 51
30 52
30 61
30 67
30 69
30 70
30 71
30 76
30 77
30 81
30 87
30 89
30 90
30 91
30 92
30 93
30 94
30 95
30 97
30 98
30 99
30 101
30 103
30 112
30 114
30 115
30 116
30 117
30 118
30 122
30 123
30 130
30 132
30 133
30 134
30 135
30 136
30 137
30 141
31 32
31 33
31 34
31 37
31 50
31 52
31 61
31 68
31 70
31 71
31 76
31 78
31 79
31 80
31 81
31 82
31 83
31 84
31 85
31 86
31 88
31 90
31 95
31 96
31 98
31 99
31 100
31 102
31 103
31 113
31 119
31 120
31 121
31 122
31 123
31 130
31 131
31 133
31 134
31 135
31 136
31 137
31 141
32 33
32 34
32 37
32 50
32 52
32 61
32 67
32 68
32 69
32 71
32 76
32 77
32 78
32 79
32 80
32 82
32 83
32 84
32 85
32 86
32 87
32 88
32 89
32 91
32 92
32 93
32 94
32 95
32 96
32 98
32 99
32 101
32 103
32 113
32 118
32 119
32 120
32 121
32 123
32 130
32 131
32 132
32 134
32 135
32 136
32 137
32 141
33 34
33 35
33 36
33 49
33 50
33 51
33 61
33 67
33 68
33 69
33 70
33 72
33 73
33 74
33 75
33 77
33 81
33 88
33 90
33 95
33 96
33 97
33 99
33 100
33 101
33 102
33 113
33 118
33 119
33 120
33 121
33 122
33 130
33 131
33 132
33 133
33 138
33 139
33 140
34 35
34 36
34 37
34 51
34 52
34 62
34 63
34 64
34 65
34 66
34 71
34 72
34 76
34 96
34 97
34 98
34 100
34 101
34 102
34 103
34 104
34 114
34 123
34 124
34 126
34 131
34 132
34 133
34 134
34 135
34 136
34 137
34 138
34 140
34 141
35 36
35 37
35 51
35 52
35 61
35 63
35 64
35 65
35 66
35 71
35 73
35 74
35 75
35 76
35 95
35 97
35 98
35 99
35 101
35 102
35 103
35 105
35 106
35 107
35 108
35 109
35 110
35 111
35 114
35 123
35 125
35 126
35 127
35 128
35 129
35 130
35 139
35 140
35 141
36 37
36 49
36 50
36 52
36 61
36 62
36 64
36 65
36 66
36 71
36 72
36 76
36 95
36 96
36 98
36 99
36 100
36 103
36 104
36 112
36 113
36 115
36 116
36 117
36 123
36 124
36 125
36 127
36 128
36 129
36 130
36 138
36 139
36 141
37 49
37 50
37 51
37 61
37 62
37 63
37 67
37 68
37 69
37 70
37 72
37 73
37 74
37 75
37 95
37 96
37 97
37 99
37 100
37 101
37 102
37 104
37 114
37 118
37 119
37 120
37 121
37 122
37 124
37 126
37 130
37 138
37 139
37 140
38 39
38 40
38 41
38 42
38 43
38 44
38 45
38 46
38 47
38 48
38 57
38 58
38 59
38 60
38 61
38 62
38 63
38 65
38 66
38 82
38 83
38 84
38 85
38 86
38 91
38 92
38 93
38 94
38 108
38 109
38 110
38 111
38 115
38 116
38 117
38 127
38 128
38 129
38 130
38 131
38 132
38 133
38 135
38 136
38 137
39 40
39 41
39 42
39 43
39 44
39 45
39 46
39 47
39 48
39 53
39 54
39 55
39 56
39 58
39 59
39 60
39 64
39 65
39 66
39 82
39 83
39 84
39 85
39 86
39 87
39 88
39 89
39 90
39 92
39 93
39 94
39 108
39 109
39 110
39 111
39 112
39 113
39 114
39 116
39 117
39 127
39 128
39 129
39 134
39 135
39 136
39 137
40 41
40 42
40 43
40 44
40 45
40 46
40 47
40 48
40 57
40 58
40 59
40 60
40 61
40 62
40 63
40 64
40 66
40 82
40 83
40 84
40 85
40 86
40 91
40 92
40 93
40 94
40 104
40 105
40 106
40 107
40 109
40 110
40 111
40 115
40 116
40 117
40 124
40 125
40 126
40 128
40 129
40 134
40 135
40 136
40 137
41 42
41 43
41 44
41 45
41 46
41 47
41 48
41 53
41 54
41 55
41 56
41 57
41 59
41 60
41 64
41 65
41 66
41 82
41 83
41 84
41 85
41 86
41 91
41 92
41 93
41 94
41 104
41 105
41 106
41 107
41 108
41 110
41 111
41 115
41 116
41 117
41 124
41 125
41 126
41 127
41 129
41 134
41 135
41 136
41 137
42 43
42 44
42 45
42 46
42 47
42 48
42 57
42 58
42 59
42 60
42 64
42 65
42 66
42 82
42 83
42 84
42 85
42 86
42 87
42 88
42 89
42 90
42 91
42 93
42 94
42 108
42 109
42 110
42 111
42 112
42 113
42 114
42 115
42 117
42 127
42 128
42 129
42 130
42 131
42 132
42 133
42 134
42 136
42 137
43 44
43 45
43 46
43 47
43 48
43 57
43 58
43 59
43 60
43 64
43 65
43 66
43 77
43 78
43 79
43 80
43 81
43 83
43 84
43 85
43 86
43 91
43 92
43 93
43 94
43 108
43 109
43 110
43 111
43 115
43 116
43 117
43 127
43 128
43 129
43 130
43 131
43 132
43 133
43 134
43 135
43 137
44 45
44 46
44 47
44 48
44 53
44 54
44 55
44 56
44 57
44 58
44 60
44 64
44 65
44 66
44 77
44 78
44 79
44 80
44 81
44 82
44 84
44 85
44 86
44 87
44 88
44 89
44 90
44 91
44 92
44 94
44 108
44 109
44 110
44 111
44 115
44 116
44 117
44 127
44 128
44 129
44 134
44 135
44 136
44 137
45 46
45 47
45 48
45 57
45 58
45 59
45 60
45 64
45 65
45 66
45 77
45 78
45 79
45 80
45 81
45 82
45 83
45 85
45 86
45 91
45 92
45 93
45 94
45 104
45 105
45 106
45 107
45 108
45 109
45 111
45 115
45 116
45 117
45 127
45 128
45 129
45 134
45 135
45 136
45 137
46 47
46 48
46 53
46 54
46 55
46 56
46 57
46 58
46 59
46 64
46 65
46 66
46 77
46 78
46 79
46 80
46 81
46 82
46 83
46 84
46 86
46 91
46 92
46 93
46 94
46 104
46 105
46 106
46 107
46 108
46 109
46 110
46 115
46 116
46 117
46 127
46 128
46 129
46 134
46 135
46 136
46 137
47 48
47 57
47 58
47 59
47 60
47 64
47 65
47 66
47 77
47 78
47 79
47 80
47 81
47 82
47 83
47 84
47 85
47 87
47 88
47 89
47 90
47 91
47 92
47 93
47 108
47 109
47 110
47 111
47 115
47 116
47 117
47 127
47 128
47 129
47 130
47 131
47 132
47 133
47 134
47 135
47 136
48 57
48 58
48 59
48 60
48 61
48 62
48 63
48 64
48 65
48 82
48 83
48 84
48 85
48 86
48 91
48 92
48 93
48 94
48 108
48 109
48 110
48 111
48 112
48 113
48 114
48 115
48 116
48 124
48 125
48 126
48 127
48 128
48 134
48 135
48 136
48 137
49 50
49 51
49 52
49 54
49 55
49 56
49 57
49 58
49 59
49 60
49 63
49 68
49 69
49 70
49 71
49 76
49 88
49 89
49 90
49 91
49 92
49 93
49 94
49 96
49 97
49 98
49 103
49 113
49 114
49 115
49 116
49 117
49 123
49 126
49 131
49 140
49 141
50 51
50 52
50 53
50 63
50 67
50 69
50 70
50 71
50 76
50 87
50 89
50 90
50 91
50 92
50 93
50 94
50 95
50 97
50 98
50 103
50 112
50 114
50 115
50 116
50 117
50 123
50 126
50 130
50 132
50 133
50 134
50 135
50 136
50 137
50 140
50 141
51 52
51 53
51 61
51 62
51 64
51 65
51 66
51 67
51 68
51 71
51 76
51 87
51 88
51 95
51 96
51 98
51 103
51 112
51 113
51 115
51 116
51 117
51 123
51 124
51 125
51 127
51 128
51 129
51 131
51 138
51 139
51 141
52 53
52 63
52 67
52 68
52 69
52 70
52 72
52 73
52 74
52 75
52 87
52 88
52 95
52 96
52 97
52 99
52 100
52 101
52 102
52 112
52 113
52 114
52 118
52 119
52 120
52 121
52 122
52 126
52 131
52 138
52 139
52 140
53 54
53 55
53 56
53 57
53 58
53 59
53 60
53 68
53 69
53 70
53 71
53 73
53 75
53 78
53 80
53 83
53 85
53 88
53 89
53 90
53 91
53 92
53 93
53 94
53 105
53 107
53 109
53 111
53 113
53 114
53 115
53 116
53 117
53 119
53 121
53 125
53 128
53 139
54 55
54 56
54 57
54 58
54 59
54 60
54 67
54 69
54 72
54 74
54 75
54 76
54 78
54 80
54 83
54 85
54 87
54 89
54 91
54 93
54 104
54 106
54 107
54 108
54 109
54 110
54 111
54 112
54 115
54 119
54 121
54 124
54 126
54 127
54 128
54 129
54 138
54 140
54 141
55 56
55 57
55 58
55 59
55 60
55 67
55 68
55 70
55 71
55 73
55 75
55 77
55 79
55 80
55 81
55 82
55 83
55 84
55 85
55 86
55 87
55 88
55 90
55 91
55 92
55 93
55 94
55 105
55 107
55 109
55 111
55 112
55 115
55 118
55 120
55 121
55 122
55 123
55 125
55 128
55 139
56 57
56 58
56 59
56 60
56 67
56 69
56 72
56 73
56 74
56 76
56 77
56 78
56 79
56 81
56 82
56 83
56 84
56 85
56 86
56 87
56 89
56 91
56 93
56 104
56 105
56 106
56 108
56 109
56 110
56 111
56 112
56 115
56 118
56 119
56 120
56 122
56 123
56 125
56 128
56 139
57 58
57 59
57 60
57 67
57 69
57 73
57 75
57 78
57 80
57 83
57 85
57 87
57 88
57 89
57 90
57 92
57 93
57 94
57 105
57 107
57 109
57 111
57 112
57 113
57 114
57 116
57 117
57 119
57 121
57 125
57 128
57 139
58 59
58 60
58 67
58 69
58 73
58 75
58 78
58 80
58 83
58 85
58 87
58 89
58 91
58 93
58 104
58 105
58 106
58 107
58 108
58 110
58 111
58 112
58 115
58 119
58 121
58 124
58 125
58 126
58 127
58 129
58 139
59 60
59 67
59 69
59 73
59 75
59 77
59 78
59 79
59 80
59 81
59 82
59 84
59 85
59 86
59 87
59 88
59 89
59 90
59 91
59 92
59 94
59 105
59 107
59 109
59 111
59 112
59 115
59 119
59 121
59 125
59 128
59 139
60 67
60 69
60 73
60 75
60 77
60 78
60 79
60 80
60 81
60 82
60 83
60 84
60 86
60 87
60 89
60 91
60 93
60 104
60 105
60 106
60 107
60 108
60 109
60 110
60 112
60 115
60 119
60 121
60 125
60 128
60 139
61 62
61 63
61 64
61 65
61 66
61 72
61 96
61 97
61 98
61 100
61 101
61 102
61 103
61 104
61 108
61 114
61 117
61 124
61 126
61 127
61 129
61 131
61 132
61 133
61 134
61 135
61 136
61 137
61 138
61 140
62 63
62 64
62 65
62 66
62 73
62 74
62 75
62 76
62 95
62 97
62 99
62 101
62 102
62 103
62 105
62 106
62 107
62 108
62 109
62 110
62 111
62 114
62 117
62 125
62 126
62 127
62 128
62 129
62 130
62 134
62 139
62 140
62 141
63 64
63 65
63 66
63 72
63 95
63 96
63 98
63 99
63 100
63 104
63 108
63 112
63 113
63 115
63 116
63 117
63 124
63 125
63 127
63 128
63 129
63 130
63 134
63 138
63 139
63 141
64 65
64 66
64 72
64 95
64 97
64 99
64 100
64 104
64 108
64 114
64 117
64 124
64 126
64 127
64 129
64 130
64 131
64 132
64 133
64 135
64 136
64 137
64 138
64 140
65 66
65 72
65 95
65 97
65 99
65 100
65 104
65 105
65 106
65 107
65 109
65 110
65 111
65 114
65 117
65 124
65 125
65 126
65 128
65 129
65 130
65 134
65 138
65 140
66 72
66 95
66 97
66 99
66 100
66 104
66 108
66 112
66 113
66 114
66 115
66 116
66 124
66 125
66 126
66 127
66 128
66 130
66 134
66 138
66 140
67 68
67 69
67 70
67 71
67 76
67 78
67 81
67 88
67 89
67 90
67 91
67 92
67 93
67 94
67 96
67 98
67 103
67 113
67 114
67 115
67 116
67 117
67 119
67 122
67 123
67 131
67 133
67 141
68 69
68 70
68 71
68 76
68 78
68 81
68 87
68 89
68 90
68 91
68 92
68 93
68 94
68 95
68 97
68 98
68 103
68 112
68 114
68 115
68 116
68 117
68 119
68 122
68 123
68 130
68 132
68 133
68 134
68 135
68 136
68 137
68 141
69 70
69 71
69 76
69 77
69 79
69 80
69 81
69 82
69 83
69 84
69 85
69 86
69 87
69 88
69 90
69 91
69 92
69 93
69 94
69 96
69 98
69 103
69 112
69 113
69 118
69 120
69 121
69 122
69 123
69 131
69 133
69 141
70 71
70 76
70 77
70 78
70 79
70 80
70 82
70 83
70 84
70 85
70 86
70 87
70 88
70 89
70 91
70 92
70 93
70 94
70 96
70 98
70 103
70 112
70 113
70 118
70 119
70 120
70 121
70 123
70 130
70 131
70 132
70 134
70 135
70 136
70 137
70 141
71 72
71 73
71 74
71 75
71 78
71 81
71 87
71 88
71 89
71 90
71 95
71 96
71 97
71 99
71 100
71 101
71 102
71 112
71 113
71 118
71 119
71 120
71 121
71 122
71 131
71 133
71 138
71 139
71 140
72 73
72 74
72 75
72 76
72 79
72 80
72 98
72 99
72 101
72 102
72 103
72 105
72 106
72 107
72 108
72 109
72 110
72 111
72 120
72 121
72 123
72 125
72 126
72 127
72 128
72 129
72 139
72 140
72 141
73 74
73 75
73 76
73 79
73 80
73 98
73 100
73 102
73 103
73 104
73 106
73 107
73 108
73 109
73 110
73 111
73 120
73 121
73 123
73 124
73 126
73 127
73 128
73 129
73 138
73 140
73 141
74 75
74 76
74 77
74 78
74 80
74 81
74 82
74 83
74 84
74 85
74 86
74 98
74 99
74 100
74 101
74 103
74 104
74 105
74 107
74 108
74 109
74 110
74 111
74 118
74 119
74 121
74 122
74 123
74 124
74 125
74 138
74 139
74 141
75 76
75 77
75 78
75 79
75 81
75 82
75 83
75 84
75 85
75 86
75 98
75 100
75 102
75 103
75 104
75 105
75 106
75 108
75 109
75 110
75 111
75 118
75 119
75 120
75 122
75 123
75 124
75 125
75 138
75 139
75 141
76 79
76 80
76 95
76 96
76 97
76 99
76 100
76 101
76 102
76 104
76 105
76 106
76 107
76 118
76 119
76 120
76 121
76 122
76 124
76 125
76 138
76 139
76 140
77 78
77 79
77 80
77 81
77 82
77 83
77 84
77 85
77 86
77 89
77 90
77 93
77 94
77 99
77 100
77 102
77 103
77 106
77 107
77 110
77 111
77 119
77 120
77 121
77 122
77 123
77 130
77 131
77 133
77 134
77 135
77 136
77 137
78 79
78 80
78 81
78 82
78 83
78 84
78 85
78 86
78 87
78 88
78 90
78 91
78 92
78 93
78 94
78 101
78 102
78 106
78 107
78 110
78 111
78 118
78 120
78 121
78 122
78 123
78 132
78 133
78 136
78 137
79 80
79 81
79 82
79 83
79 84
79 85
79 86
79 89
79 90
79 93
79 94
79 99
79 100
79 101
79 103
79 104
79 105
79 107
79 108
79 109
79 110
79 111
79 118
79 119
79 121
79 122
79 123
79 132
79 133
79 136
79 137
80 81
80 82
80 83
80 84
80 85
80 86
80 89
80 90
80 93
80 94
80 101
80 102
80 104
80 105
80 106
80 108
80 109
80 110
80 111
80 118
80 119
80 120
80 122
80 123
80 132
80 133
80 136
80 137
81 82
81 83
81 84
81 85
81 86
81 87
81 88
81 89
81 91
81 92
81 93
81 94
81 101
81 102
81 106
81 107
81 110
81 111
81 118
81 119
81 120
81 121
81 123
81 130
81 131
81 132
81 134
81 135
81 136
81 137
82 83
82 84
82 85
82 86
82 89
82 90
82 93
82 94
82 101
82 102
82 106
82 107
82 110
82 111
82 118
82 119
82 120
82 121
82 122
82 130
82 131
82 132
82 133
82 134
82 135
82 137
83 84
83 85
83 86
83 87
83 88
83 89
83 90
83 91
83 92
83 94
83 101
83 102
83 106
83 107
83 110
83 111
83 118
83 119
83 120
83 121
83 122
83 132
83 133
83 136
83 137
84 85
84 86
84 89
84 90
84 93
84 94
84 101
84 102
84 104
84 105
84 106
84 107
84 108
84 109
84 111
84 118
84 119
84 120
84 121
84 122
84 132
84 133
84 136
84 137
85 86
85 89
85 90
85 93
85 94
85 101
85 102
85 104
85 105
85 106
85 107
85 108
85 109
85 110
85 118
85 119
85 120
85 121
85 122
85 132
85 133
85 136
85 137
86 87
86 88
86 89
86 90
86 91
86 92
86 93
86 101
86 102
86 106
86 107
86 110
86 111
86 118
86 119
86 120
86 121
86 122
86 130
86 131
86 132
86 133
86 134
86 135
86 136
87 88
87 89
87 90
87 91
87 92
87 93
87 94
87 96
87 113
87 114
87 115
87 116
87 117
87 119
87 122
87 131
87 133
87 135
87 137
88 89
88 90
88 91
88 92
88 93
88 94
88 95
88 97
88 98
88 112
88 114
88 115
88 116
88 117
88 119
88 122
88 130
88 132
88 133
88 134
88 135
88 136
88 137
89 90
89 91
89 92
89 93
89 94
89 96
89 112
89 113
89 115
89 116
89 118
89 120
89 121
89 122
89 123
89 131
89 133
89 135
89 137
90 91
90 92
90 93
90 94
90 96
90 112
90 113
90 115
90 116
90 118
90 119
90 120
90 121
90 123
90 130
90 131
90 132
90 134
90 135
90 136
90 137
91 92
91 93
91 94
91 96
91 112
91 113
91 114
91 116
91 117
91 119
91 122
91 131
91 133
91 135
91 137
92 93
92 94
92 96
92 112
92 113
92 114
92 115
92 117
92 119
92 122
92 130
92 131
92 132
92 133
92 134
92 136
92 137
93 94
93 96
93 112
93 113
93 115
93 116
93 119
93 122
93 131
93 133
93 135
93 137
94 96
94 112
94 113
94 115
94 116
94 119
94 122
94 130
94 131
94 132
94 133
94 134
94 135
94 136
95 96
95 97
95 98
95 100
95 101
95 102
95 103
95 113
95 114
95 123
95 126
95 131
95 132
95 133
95 134
95 135
95 136
95 137
95 140
95 141
96 97
96 98
96 99
96 103
96 112
96 114
96 115
96 116
96 117
96 123
96 126
96 130
96 132
96 133
96 134
96 135
96 136
96 137
96 140
96 141
97 98
97 99
97 103
97 112
97 113
97 115
97 116
97 117
97 123
97 124
97 125
97 127
97 128
97 129
97 130
97 131
97 138
97 139
97 141
98 99
98 100
98 101
98 102
98 113
98 114
98 118
98 119
98 120
98 121
98 122
98 126
98 130
98 131
98 138
98 139
98 140
99 100
99 101
99 102
99 103
99 104
99 106
99 118
99 120
99 123
99 124
99 131
99 132
99 133
99 134
99 135
99 136
99 137
99 138
99 141
100 101
100 102
100 103
100 105
100 106
100 107
100 108
100 109
100 110
100 111
100 118
100 120
100 123
100 125
100 126
100 127
100 128
100 129
100 130
100 132
100 139
100 140
100 141
101 102
101 103
101 104
101 106
101 119
101 120
101 121
101 122
101 123
101 124
101 130
101 131
101 133
101 134
101 135
101 136
101 137
101 138
101 141
102 103
102 104
102 105
102 107
102 108
102 109
102 110
102 111
102 118
102 119
102 121
102 122
102 123
102 124
102 130
102 132
102 138
102 141
103 104
103 106
103 118
103 119
103 120
103 121
103 122
103 124
103 130
103 132
103 138
103 139
103 140
104 105
104 106
104 107
104 108
104 109
104 110
104 111
104 120
104 121
104 125
104 126
104 127
104 128
104 129
104 139
104 140
104 141
105 106
105 107
105 108
105 109
105 110
105 111
105 120
105 121
105 124
105 126
105 127
105 128
105 129
105 138
105 140
105 141
106 107
106 108
106 109
106 110
106 111
106 118
106 119
106 121
106 122
106 123
106 124
106 125
106 127
106 128
106 138
106 139
107 108
107 109
107 110
107 111
107 118
107 119
107 120
107 122
107 123
107 124
107 125
107 127
107 128
107 138
107 139
108 109
108 110
108 111
108 120
108 121
108 124
108 125
108 126
108 128
108 129
108 138
108 139
109 110
109 111
109 120
109 121
109 124
109 125
109 126
109 127
109 129
109 138
109 139
110 111
110 120
110 121
110 124
110 125
110 127
110 128
110 138
110 139
111 120
111 121
111 124
111 125
111 127
111 128
111 138
111 139
112 113
112 114
112 115
112 116
112 117
112 126
112 129
112 131
112 135
112 140
113 114
113 115
113 116
113 117
113 126
113 129
113 130
113 132
113 133
113 134
113 135
113 136
113 137
113 140
114 115
114 116
114 117
114 124
114 125
114 127
114 128
114 129
114 131
114 135
114 138
114 139
114 141
115 116
115 117
115 126
115 129
115 131
115 135
115 140
116 117
116 126
116 129
116 130
116 131
116 132
116 133
116 134
116 136
116 137
116 140
117 124
117 125
117 126
117 127
117 128
117 131
117 135
117 140
118 119
118 120
118 121
118 122
118 123
118 130
118 131
118 133
118 134
118 135
118 136
118 137
118 141
119 120
119 121
119 122
119 123
119 132
119 133
119 141
120 121
120 122
120 123
120 132
120 133
120 141
121 122
121 123
121 132
121 133
121 141
122 123
122 130
122 131
122 132
122 134
122 135
122 136
122 137
122 141
123 132
123 133
123 138
123 139
123 140
124 125
124 126
124 127
124 128
124 129
124 139
124 140
124 141
125 126
125 127
125 128
125 129
125 138
125 140
125 141
126 127
126 128
126 129
126 138
126 139
126 141
127 128
127 129
127 138
127 139
127 140
128 129
128 138
128 139
128 140
129 138
129 139
129 140
130 131
130 132
130 133
130 134
130 135
130 136
130 137
131 132
131 133
131 134
131 135
131 136
131 137
132 133
132 134
132 135
132 136
132 137
133 134
133 135
133 136
133 137
134 135
134 136
134 137
135 136
135 137
136 137
138 139
138 140
138 141
139 140
139 141
140 141
