580:111092
0 1
0 2
0 3
0 4
0 5
0 6
0 7
0 8
0 9
0 10
0 11
0 12
0 13
0 14
0 15
0 16
0 19
0 23
0 25
0 26
0 27
0 30
0 31
0 32
0 33
0 36
0 38
0 39
0 40
0 41
0 42
0 43
0 44
0 45
0 46
0 47
0 48
0 49
0 50
0 52
0 53
0 54
0 55
0 56
0 57
0 58
0 59
0 60
0 61
0 62
0 63
0 64
0 65
0 66
0 67
0 71
0 75
0 76
0 79
0 80
0 82
0 83
0 84
0 85
0 92
0 93
0 94
0 98
0 100
0 101
0 106
0 108
0 110
0 111
0 112
0 115
0 116
0 123
0 124
0 126
0 128
0 129
0 130
0 131
0 132
0 134
0 136
0 137
0 138
0 139
0 140
0 141
0 142
0 143
0 144
0 145
0 146
0 147
0 148
0 150
0 151
0 154
0 156
0 160
0 161
0 162
0 166
0 168
0 172
0 175
0 178
0 179
0 184
0 187
0 189
0 194
0 195
0 196
0 199
0 200
0 206
0 207
0 208
0 209
0 210
0 214
0 215
0 216
0 217
0 218
0 219
0 220
0 221
0 222
0 223
0 224
0 225
0 226
0 227
0 228
0 229
0 231
0 232
0 233
0 234
0 235
0 236
0 237
0 238
0 239
0 240
0 241
0 242
0 243
0 244
0 248
0 249
0 251
0 254
0 255
0 256
0 257
0 258
0 261
0 262
0 263
0 264
0 265
0 266
0 267
0 268
0 269
0 270
0 271
0 272
0 273
0 274
0 275
0 276
0 277
0 278
0 279
0 281
0 282
0 283
0 284
0 285
0 286
0 287
0 288
0 289
0 290
0 291
0 292
0 293
0 294
0 295
0 297
0 298
0 299
0 300
0 301
0 302
0 303
0 304
0 305
0 306
0 307
0 308
0 309
0 310
0 311
0 312
0 314
0 317
0 318
0 320
0 321
0 322
0 327
0 328
0 329
0 330
0 333
0 334
0 335
0 336
0 337
0 338
0 339
0 340
0 341
0 342
0 343
0 344
0 345
0 346
0 347
0 348
0 353
0 355
0 358
0 360
0 363
0 364
0 367
0 368
0 369
0 370
0 371
0 372
0 373
0 374
0 375
0 376
0 377
0 378
0 379
0 380
0 381
0 383
0 384
0 385
0 386
0 387
0 388
0 389
0 390
0 391
0 392
0 393
0 394
0 395
0 397
0 399
0 402
0 407
0 408
0 409
0 414
0 415
0 418
0 419
0 420
0 421
0 422
0 423
0 427
0 432
0 433
0 434
0 437
0 438
0 442
0 443
0 444
0 445
0 446
0 447
0 448
0 449
0 450
0 451
0 452
0 453
0 454
0 455
0 456
0 458
0 459
0 460
0 461
0 462
0 463
0 464
0 465
0 466
0 467
0 468
0 469
0 470
0 473
0 474
0 480
0 482
0 483
0 484
0 488
0 490
0 491
0 492
0 493
0 494
0 495
0 496
0 497
0 498
0 499
0 500
0 501
0 502
0 509
0 510
0 512
0 513
0 514
0 515
0 516
0 517
0 520
0 521
0 523
0 525
0 526
0 527
0 528
0 529
0 530
0 537
0 538
0 541
0 542
0 543
0 544
0 549
0 551
0 553
0 554
0 555
0 556
0 558
0 559
0 566
0 567
0 569
0 572
0 574
0 575
0 576
0 577
1 2
1 3
1 4
1 5
1 6
1 7
1 8
1 9
1 10
1 11
1 12
1 13
1 14
1 15
1 16
1 19
1 23
1 25
1 26
1 27
1 30
1 31
1 32
1 33
1 36
1 37
1 38
1 39
1 41
1 42
1 43
1 44
1 45
1 46
1 47
1 48
1 49
1 50
1 51
1 54
1 58
1 61
1 62
1 63
1 65
1 66
1 71
1 75
1 76
1 79
1 80
1 82
1 83
1 84
1 85
1 92
1 93
1 94
1 98
1 100
1 101
1 102
1 103
1 104
1 105
1 107
1 108
1 109
1 110
1 111
1 112
1 113
1 114
1 115
1 116
1 123
1 124
1 126
1 128
1 129
1 130
1 131
1 132
1 135
1 139
1 141
1 143
1 146
1 147
1 149
1 151
1 152
1 153
1 154
1 155
1 156
1 157
1 158
1 159
1 160
1 161
1 162
1 163
1 164
1 165
1 167
1 168
1 169
1 170
1 171
1 172
1 173
1 174
1 175
1 176
1 177
1 178
1 179
1 180
1 184
1 187
1 189
1 194
1 195
1 196
1 198
1 200
1 201
1 202
1 203
1 204
1 205
1 206
1 207
1 208
1 209
1 210
1 211
1 212
1 213
1 215
1 218
1 220
1 221
1 225
1 227
1 228
1 230
1 231
1 232
1 233
1 235
1 236
1 237
1 238
1 239
1 240
1 241
1 242
1 243
1 244
1 248
1 249
1 251
1 254
1 255
1 256
1 257
1 258
1 260
1 261
1 263
1 264
1 265
1 266
1 267
1 268
1 269
1 270
1 271
1 272
1 273
1 274
1 275
1 276
1 277
1 278
1 280
1 285
1 288
1 290
1 293
1 294
1 296
1 300
1 302
1 304
1 306
1 307
1 308
1 310
1 311
1 312
1 313
1 315
1 316
1 317
1 318
1 319
1 320
1 321
1 322
1 323
1 324
1 325
1 326
1 327
1 328
1 329
1 330
1 331
1 332
1 335
1 336
1 339
1 340
1 341
1 344
1 345
1 346
1 347
1 353
1 355
1 358
1 360
1 363
1 364
1 366
1 368
1 369
1 370
1 371
1 372
1 373
1 374
1 375
1 376
1 377
1 378
1 379
1 380
1 381
1 382
1 383
1 384
1 386
1 387
1 388
1 389
1 390
1 391
1 392
1 393
1 394
1 395
1 396
1 398
1 399
1 400
1 401
1 402
1 403
1 404
1 405
1 406
1 407
1 408
1 409
1 410
1 414
1 415
1 418
1 419
1 420
1 421
1 422
1 423
1 426
1 428
1 429
1 430
1 431
1 432
1 433
1 434
1 435
1 436
1 437
1 438
1 439
1 440
1 441
1 442
1 444
1 446
1 448
1 450
1 451
1 452
1 457
1 458
1 461
1 464
1 465
1 466
1 467
1 468
1 469
1 473
1 474
1 480
1 482
1 483
1 484
1 488
1 489
1 490
1 491
1 493
1 494
1 495
1 496
1 497
1 498
1 499
1 500
1 501
1 502
1 509
1 510
1 512
1 513
1 514
1 515
1 516
1 517
1 520
1 521
1 523
1 525
1 526
1 527
1 528
1 529
1 530
1 537
1 538
1 541
1 542
1 543
1 544
1 548
1 550
1 551
1 552
1 553
1 554
1 555
1 556
1 557
1 558
1 559
1 560
1 561
1 562
1 566
1 567
1 569
1 572
1 574
1 575
1 576
1 577
2 3
2 4
2 5
2 6
2 7
2 8
2 9
2 10
2 11
2 12
2 13
2 14
2 15
2 16
2 17
2 18
2 20
2 21
2 22
2 23
2 24
2 25
2 26
2 27
2 28
2 29
2 30
2 31
2 32
2 33
2 34
2 35
2 37
2 40
2 43
2 44
2 45
2 47
2 49
2 51
2 52
2 53
2 55
2 56
2 57
2 58
2 59
2 60
2 61
2 62
2 63
2 64
2 65
2 66
2 67
2 68
2 69
2 70
2 72
2 73
2 74
2 75
2 76
2 77
2 78
2 79
2 80
2 81
2 82
2 83
2 84
2 85
2 86
2 92
2 93
2 94
2 98
2 100
2 101
2 102
2 103
2 104
2 105
2 106
2 107
2 109
2 110
2 111
2 112
2 113
2 114
2 115
2 116
2 123
2 124
2 126
2 128
2 129
2 130
2 131
2 132
2 135
2 139
2 141
2 143
2 146
2 147
2 150
2 151
2 154
2 156
2 160
2 161
2 162
2 164
2 165
2 166
2 167
2 169
2 170
2 171
2 172
2 173
2 174
2 175
2 176
2 177
2 178
2 179
2 180
2 184
2 187
2 189
2 194
2 195
2 196
2 198
2 199
2 201
2 202
2 203
2 204
2 205
2 206
2 207
2 208
2 209
2 210
2 211
2 212
2 213
2 214
2 216
2 217
2 218
2 219
2 220
2 221
2 222
2 223
2 224
2 225
2 226
2 227
2 228
2 229
2 230
2 231
2 232
2 233
2 234
2 235
2 237
2 238
2 239
2 240
2 241
2 242
2 243
2 244
2 245
2 246
2 247
2 249
2 250
2 251
2 252
2 253
2 254
2 255
2 256
2 257
2 258
2 259
2 260
2 262
2 265
2 267
2 271
2 275
2 276
2 277
2 280
2 285
2 288
2 290
2 293
2 294
2 296
2 297
2 298
2 299
2 301
2 302
2 303
2 304
2 305
2 306
2 307
2 308
2 309
2 310
2 311
2 312
2 314
2 317
2 318
2 320
2 321
2 322
2 327
2 328
2 329
2 330
2 332
2 335
2 336
2 339
2 340
2 341
2 344
2 345
2 346
2 347
2 349
2 350
2 351
2 352
2 354
2 355
2 356
2 357
2 358
2 359
2 360
2 361
2 362
2 363
2 364
2 365
2 366
2 367
2 370
2 374
2 376
2 377
2 378
2 381
2 382
2 383
2 384
2 385
2 387
2 388
2 389
2 390
2 391
2 392
2 393
2 394
2 395
2 396
2 397
2 398
2 400
2 401
2 402
2 403
2 404
2 405
2 406
2 407
2 408
2 409
2 410
2 414
2 415
2 418
2 419
2 420
2 421
2 422
2 423
2 427
2 432
2 433
2 434
2 437
2 438
2 441
2 443
2 444
2 445
2 446
2 447
2 448
2 449
2 450
2 451
2 452
2 453
2 454
2 455
2 456
2 457
2 459
2 460
2 461
2 462
2 463
2 464
2 465
2 466
2 467
2 468
2 469
2 470
2 471
2 472
2 474
2 475
2 476
2 477
2 478
2 479
2 480
2 481
2 482
2 483
2 484
2 485
2 486
2 487
2 489
2 492
2 494
2 498
2 500
2 501
2 509
2 510
2 512
2 513
2 514
2 515
2 516
2 517
2 520
2 521
2 523
2 525
2 526
2 527
2 528
2 529
2 530
2 537
2 538
2 541
2 542
2 543
2 544
2 549
2 551
2 553
2 554
2 555
2 556
2 558
2 559
2 566
2 567
2 569
2 572
2 574
2 575
2 576
2 577
3 4
3 5
3 6
3 7
3 8
3 9
3 10
3 11
3 12
3 13
3 14
3 15
3 16
3 19
3 23
3 25
3 26
3 27
3 30
3 31
3 32
3 33
3 36
3 37
3 38
3 39
3 40
3 41
3 42
3 44
3 45
3 46
3 47
3 48
3 49
3 50
3 51
3 54
3 58
3 61
3 62
3 63
3 65
3 66
3 71
3 75
3 76
3 79
3 80
3 82
3 83
3 84
3 85
3 92
3 93
3 94
3 98
3 100
3 101
3 106
3 108
3 110
3 111
3 112
3 115
3 116
3 123
3 124
3 126
3 128
3 129
3 130
3 131
3 132
3 134
3 135
3 136
3 137
3 138
3 140
3 141
3 142
3 143
3 144
3 145
3 146
3 147
3 148
3 149
3 150
3 152
3 153
3 154
3 155
3 156
3 157
3 158
3 159
3 160
3 161
3 162
3 163
3 166
3 168
3 172
3 175
3 178
3 179
3 181
3 182
3 183
3 185
3 186
3 187
3 188
3 189
3 190
3 191
3 192
3 193
3 194
3 195
3 196
3 197
3 199
3 200
3 206
3 207
3 208
3 209
3 210
3 213
3 215
3 218
3 220
3 221
3 225
3 227
3 228
3 230
3 234
3 236
3 239
3 241
3 242
3 243
3 248
3 249
3 251
3 254
3 255
3 256
3 257
3 258
3 260
3 261
3 262
3 263
3 264
3 266
3 267
3 268
3 269
3 270
3 271
3 272
3 273
3 274
3 275
3 276
3 277
3 278
3 279
3 280
3 281
3 282
3 283
3 284
3 286
3 287
3 288
3 289
3 290
3 291
3 292
3 293
3 294
3 295
3 296
3 297
3 298
3 299
3 300
3 301
3 303
3 304
3 305
3 306
3 307
3 308
3 309
3 310
3 311
3 312
3 313
3 314
3 315
3 316
3 318
3 319
3 320
3 321
3 322
3 323
3 324
3 325
3 326
3 327
3 328
3 329
3 330
3 331
3 332
3 333
3 334
3 336
3 337
3 338
3 339
3 340
3 341
3 342
3 343
3 344
3 345
3 346
3 347
3 348
3 349
3 350
3 351
3 352
3 353
3 354
3 356
3 357
3 358
3 359
3 360
3 361
3 362
3 363
3 364
3 365
3 366
3 367
3 370
3 374
3 376
3 377
3 378
3 382
3 385
3 386
3 392
3 394
3 395
3 396
3 397
3 398
3 399
3 400
3 401
3 403
3 404
3 405
3 406
3 407
3 408
3 409
3 410
3 414
3 415
3 418
3 419
3 420
3 421
3 422
3 423
3 427
3 432
3 433
3 434
3 437
3 438
3 441
3 442
3 444
3 446
3 448
3 450
3 451
3 452
3 456
3 457
3 458
3 459
3 460
3 462
3 463
3 464
3 465
3 466
3 467
3 468
3 469
3 470
3 471
3 472
3 473
3 475
3 476
3 477
3 478
3 479
3 480
3 481
3 482
3 483
3 484
3 485
3 486
3 487
3 488
3 489
3 490
3 491
3 492
3 493
3 495
3 496
3 497
3 498
3 499
3 500
3 501
3 502
3 509
3 510
3 512
3 513
3 514
3 515
3 516
3 517
3 518
3 519
3 521
3 522
3 523
3 524
3 525
3 526
3 527
3 528
3 529
3 530
3 531
3 532
3 537
3 538
3 541
3 542
3 543
3 544
3 548
3 549
3 550
3 552
3 553
3 554
3 555
3 556
3 557
3 558
3 559
3 560
3 561
3 562
3 566
3 567
3 569
3 572
3 574
3 575
3 576
3 577
4 5
4 6
4 7
4 8
4 9
4 10
4 11
4 12
4 13
4 14
4 15
4 16
4 19
4 23
4 25
4 26
4 27
4 30
4 31
4 32
4 33
4 36
4 37
4 38
4 39
4 40
4 41
4 42
4 43
4 45
4 46
4 47
4 48
4 49
4 50
4 51
4 54
4 58
4 61
4 62
4 63
4 65
4 66
4 68
4 69
4 70
4 71
4 72
4 73
4 74
4 76
4 77
4 78
4 79
4 80
4 81
4 82
4 83
4 84
4 85
4 86
4 87
4 88
4 89
4 90
4 91
4 93
4 94
4 95
4 96
4 97
4 98
4 99
4 100
4 101
4 102
4 103
4 104
4 105
4 106
4 107
4 108
4 109
4 111
4 112
4 113
4 114
4 115
4 116
4 123
4 124
4 126
4 128
4 129
4 130
4 131
4 132
4 135
4 139
4 141
4 143
4 146
4 147
4 149
4 150
4 151
4 152
4 153
4 155
4 156
4 157
4 158
4 159
4 160
4 161
4 162
4 163
4 166
4 168
4 172
4 175
4 178
4 179
4 181
4 182
4 183
4 184
4 185
4 186
4 188
4 189
4 190
4 191
4 192
4 193
4 194
4 195
4 196
4 197
4 199
4 200
4 206
4 207
4 208
4 209
4 210
4 213
4 214
4 215
4 216
4 217
4 219
4 220
4 221
4 222
4 223
4 224
4 225
4 226
4 227
4 228
4 229
4 230
4 234
4 236
4 239
4 241
4 242
4 243
4 245
4 246
4 247
4 248
4 250
4 251
4 252
4 253
4 254
4 255
4 256
4 257
4 258
4 259
4 260
4 261
4 262
4 263
4 264
4 265
4 266
4 268
4 269
4 270
4 271
4 272
4 273
4 274
4 275
4 276
4 277
4 278
4 279
4 280
4 281
4 282
4 283
4 284
4 285
4 286
4 287
4 289
4 290
4 291
4 292
4 293
4 294
4 295
4 296
4 297
4 298
4 299
4 300
4 301
4 302
4 303
4 305
4 306
4 307
4 308
4 309
4 310
4 311
4 312
4 313
4 314
4 315
4 316
4 317
4 319
4 320
4 321
4 322
4 323
4 324
4 325
4 326
4 327
4 328
4 329
4 330
4 331
4 332
4 335
4 336
4 339
4 340
4 341
4 344
4 345
4 346
4 347
4 353
4 355
4 358
4 360
4 363
4 364
4 366
4 367
4 370
4 374
4 376
4 377
4 378
4 382
4 385
4 386
4 392
4 394
4 395
4 397
4 399
4 402
4 407
4 408
4 409
4 414
4 415
4 418
4 419
4 420
4 421
4 422
4 423
4 427
4 432
4 433
4 434
4 437
4 438
4 441
4 442
4 443
4 445
4 446
4 447
4 448
4 449
4 450
4 451
4 452
4 453
4 454
4 455
4 456
4 457
4 458
4 459
4 460
4 461
4 462
4 463
4 465
4 466
4 467
4 468
4 469
4 470
4 473
4 474
4 480
4 482
4 483
4 484
4 489
4 492
4 494
4 498
4 500
4 501
4 509
4 510
4 512
4 513
4 514
4 515
4 516
4 517
4 518
4 519
4 520
4 522
4 523
4 524
4 525
4 526
4 527
4 528
4 529
4 530
4 531
4 532
4 537
4 538
4 541
4 542
4 543
4 544
4 549
4 551
4 553
4 554
4 555
4 556
4 558
4 559
4 563
4 564
4 565
4 567
4 568
4 569
4 570
4 571
4 572
4 573
4 574
4 575
4 576
4 577
4 578
4 579
5 6
5 7
5 8
5 9
5 10
5 11
5 12
5 13
5 14
5 15
5 16
5 17
5 18
5 19
5 20
5 21
5 22
5 24
5 25
5 26
5 27
5 28
5 29
5 30
5 31
5 32
5 33
5 34
5 35
5 36
5 37
5 38
5 39
5 40
5 41
5 42
5 43
5 44
5 46
5 47
5 48
5 49
5 50
5 51
5 52
5 53
5 54
5 55
5 56
5 57
5 59
5 60
5 61
5 62
5 63
5 64
5 65
5 66
5 67
5 68
5 69
5 70
5 71
5 72
5 73
5 74
5 75
5 77
5 78
5 79
5 80
5 81
5 82
5 83
5 84
5 85
5 86
5 92
5 93
5 94
5 98
5 100
5 101
5 102
5 103
5 104
5 105
5 106
5 107
5 108
5 109
5 110
5 112
5 113
5 114
5 115
5 116
5 123
5 124
5 126
5 128
5 129
5 130
5 131
5 132
5 134
5 135
5 136
5 137
5 138
5 139
5 140
5 142
5 143
5 144
5 145
5 146
5 147
5 148
5 149
5 150
5 151
5 152
5 153
5 154
5 155
5 157
5 158
5 159
5 160
5 161
5 162
5 163
5 164
5 165
5 166
5 167
5 168
5 169
5 170
5 171
5 173
5 174
5 175
5 176
5 177
5 178
5 179
5 180
5 181
5 182
5 183
5 184
5 185
5 186
5 187
5 188
5 190
5 191
5 192
5 193
5 194
5 195
5 196
5 197
5 199
5 200
5 206
5 207
5 208
5 209
5 210
5 213
5 215
5 218
5 220
5 221
5 225
5 227
5 228
5 230
5 234
5 236
5 239
5 241
5 242
5 243
5 245
5 246
5 247
5 248
5 249
5 250
5 252
5 253
5 254
5 255
5 256
5 257
5 258
5 259
5 260
5 262
5 265
5 267
5 271
5 275
5 276
5 277
5 280
5 285
5 288
5 290
5 293
5 294
5 296
5 297
5 298
5 299
5 300
5 301
5 302
5 303
5 304
5 305
5 307
5 308
5 309
5 310
5 311
5 312
5 313
5 314
5 315
5 316
5 317
5 318
5 319
5 321
5 322
5 323
5 324
5 325
5 326
5 327
5 328
5 329
5 330
5 331
5 332
5 333
5 334
5 335
5 337
5 338
5 339
5 340
5 341
5 342
5 343
5 344
5 345
5 346
5 347
5 348
5 349
5 350
5 351
5 352
5 353
5 354
5 355
5 356
5 357
5 359
5 360
5 361
5 362
5 363
5 364
5 365
5 366
5 367
5 368
5 369
5 371
5 372
5 373
5 374
5 375
5 376
5 377
5 378
5 379
5 380
5 382
5 385
5 386
5 392
5 394
5 395
5 397
5 399
5 402
5 407
5 408
5 409
5 411
5 412
5 413
5 415
5 416
5 417
5 418
5 419
5 420
5 421
5 422
5 423
5 424
5 425
5 427
5 432
5 433
5 434
5 437
5 438
5 441
5 442
5 444
5 446
5 448
5 450
5 451
5 452
5 457
5 458
5 461
5 464
5 465
5 466
5 467
5 468
5 469
5 473
5 474
5 480
5 482
5 483
5 484
5 489
5 492
5 494
5 498
5 500
5 501
5 509
5 510
5 512
5 513
5 514
5 515
5 516
5 517
5 520
5 521
5 523
5 525
5 526
5 527
5 528
5 529
5 530
5 537
5 538
5 541
5 542
5 543
5 544
5 548
5 549
5 550
5 551
5 552
5 554
5 555
5 556
5 557
5 558
5 559
5 560
5 561
5 562
5 563
5 564
5 565
5 566
5 568
5 569
5 570
5 571
5 572
5 573
5 574
5 575
5 576
5 577
5 578
5 579
6 7
6 8
6 9
6 10
6 11
6 12
6 13
6 14
6 15
6 16
6 17
6 18
6 19
6 20
6 21
6 22
6 23
6 24
6 26
6 27
6 28
6 29
6 30
6 31
6 32
6 33
6 34
6 35
6 36
6 37
6 38
6 39
6 40
6 41
6 42
6 43
6 44
6 45
6 46
6 48
6 49
6 50
6 51
6 52
6 53
6 54
6 55
6 56
6 57
6 58
6 59
6 60
6 62
6 63
6 64
6 65
6 66
6 67
6 71
6 75
6 76
6 79
6 80
6 82
6 83
6 84
6 85
6 92
6 93
6 94
6 98
6 100
6 101
6 106
6 108
6 110
6 111
6 112
6 115
6 116
6 123
6 124
6 126
6 128
6 129
6 130
6 131
6 132
6 135
6 139
6 141
6 143
6 146
6 147
6 150
6 151
6 154
6 156
6 160
6 161
6 162
6 166
6 168
6 172
6 175
6 178
6 179
6 184
6 187
6 189
6 194
6 195
6 196
6 199
6 200
6 206
6 207
6 208
6 209
6 210
6 213
6 214
6 215
6 216
6 217
6 218
6 219
6 221
6 222
6 223
6 224
6 225
6 226
6 227
6 228
6 229
6 230
6 231
6 232
6 233
6 234
6 235
6 236
6 237
6 238
6 240
6 241
6 242
6 243
6 244
6 245
6 246
6 247
6 248
6 249
6 250
6 251
6 252
6 253
6 255
6 256
6 257
6 258
6 259
6 260
6 262
6 265
6 267
6 271
6 275
6 276
6 277
6 280
6 285
6 288
6 290
6 293
6 294
6 296
6 297
6 298
6 299
6 300
6 301
6 302
6 303
6 304
6 305
6 306
6 308
6 309
6 310
6 311
6 312
6 313
6 314
6 315
6 316
6 317
6 318
6 319
6 320
6 322
6 323
6 324
6 325
6 326
6 327
6 328
6 329
6 330
6 331
6 332
6 333
6 334
6 335
6 336
6 337
6 338
6 340
6 341
6 342
6 343
6 344
6 345
6 346
6 347
6 348
6 353
6 355
6 358
6 360
6 363
6 364
6 366
6 367
6 370
6 374
6 376
6 377
6 378
6 382
6 385
6 386
6 392
6 394
6 395
6 397
6 399
6 402
6 407
6 408
6 409
6 414
6 415
6 418
6 419
6 420
6 421
6 422
6 423
6 426
6 427
6 428
6 429
6 430
6 431
6 433
6 434
6 435
6 436
6 437
6 438
6 439
6 440
6 441
6 442
6 444
6 446
6 448
6 450
6 451
6 452
6 456
6 457
6 458
6 459
6 460
6 461
6 462
6 463
6 464
6 466
6 467
6 468
6 469
6 470
6 473
6 474
6 480
6 482
6 483
6 484
6 489
6 492
6 494
6 498
6 500
6 501
6 503
6 504
6 505
6 506
6 507
6 508
6 510
6 511
6 512
6 513
6 514
6 515
6 516
6 517
6 520
6 521
6 523
6 525
6 526
6 527
6 528
6 529
6 530
6 533
6 534
6 535
6 536
6 538
6 539
6 540
6 541
6 542
6 543
6 544
6 545
6 546
6 547
6 548
6 549
6 550
6 551
6 552
6 553
6 555
6 556
6 557
6 558
6 559
6 560
6 561
6 562
6 566
6 567
6 569
6 572
6 574
6 575
6 576
6 577
7 8
7 9
7 10
7 11
7 12
7 13
7 14
7 15
7 16
7 17
7 18
7 19
7 20
7 21
7 22
7 23
7 24
7 25
7 27
7 28
7 29
7 30
7 31
7 32
7 33
7 34
7 35
7 37
7 40
7 43
7 44
7 45
7 47
7 49
7 51
7 52
7 53
7 54
7 55
7 56
7 57
7 58
7 59
7 60
7 61
7 63
7 64
7 65
7 66
7 67
7 68
7 69
7 70
7 71
7 72
7 73
7 74
7 75
7 76
7 77
7 78
7 80
7 81
7 82
7 83
7 84
7 85
7 86
7 87
7 88
7 89
7 90
7 91
7 92
7 94
7 95
7 96
7 97
7 98
7 99
7 100
7 101
7 102
7 103
7 104
7 105
7 106
7 107
7 108
7 109
7 110
7 111
7 113
7 114
7 115
7 116
7 117
7 118
7 119
7 120
7 121
7 122
7 124
7 125
7 126
7 127
7 128
7 129
7 130
7 131
7 132
7 133
7 135
7 139
7 141
7 143
7 146
7 147
7 150
7 151
7 154
7 156
7 160
7 161
7 162
7 166
7 168
7 172
7 175
7 178
7 179
7 184
7 187
7 189
7 194
7 195
7 196
7 199
7 200
7 206
7 207
7 208
7 209
7 210
7 213
7 215
7 218
7 220
7 221
7 225
7 227
7 228
7 230
7 234
7 236
7 239
7 241
7 242
7 243
7 245
7 246
7 247
7 248
7 249
7 250
7 251
7 252
7 253
7 254
7 256
7 257
7 258
7 259
7 260
7 262
7 265
7 267
7 271
7 275
7 276
7 277
7 279
7 280
7 281
7 282
7 283
7 284
7 285
7 286
7 287
7 288
7 289
7 291
7 292
7 293
7 294
7 295
7 296
7 300
7 302
7 304
7 306
7 307
7 308
7 310
7 311
7 312
7 313
7 314
7 315
7 316
7 317
7 318
7 319
7 320
7 321
7 323
7 324
7 325
7 326
7 327
7 328
7 329
7 330
7 331
7 332
7 333
7 334
7 335
7 336
7 337
7 338
7 339
7 341
7 342
7 343
7 344
7 345
7 346
7 347
7 348
7 349
7 350
7 351
7 352
7 353
7 354
7 355
7 356
7 357
7 358
7 359
7 361
7 362
7 363
7 364
7 365
7 366
7 367
7 370
7 374
7 376
7 377
7 378
7 382
7 385
7 386
7 392
7 394
7 395
7 397
7 399
7 402
7 407
7 408
7 409
7 411
7 412
7 413
7 414
7 416
7 417
7 418
7 419
7 420
7 421
7 422
7 423
7 424
7 425
7 426
7 427
7 428
7 429
7 430
7 431
7 432
7 434
7 435
7 436
7 437
7 438
7 439
7 440
7 441
7 442
7 443
7 444
7 445
7 447
7 448
7 449
7 450
7 451
7 452
7 453
7 454
7 455
7 457
7 458
7 461
7 464
7 465
7 466
7 467
7 468
7 469
7 473
7 474
7 480
7 482
7 483
7 484
7 488
7 489
7 490
7 491
7 492
7 493
7 494
7 495
7 496
7 497
7 499
7 500
7 501
7 502
7 503
7 504
7 505
7 506
7 507
7 508
7 509
7 511
7 512
7 513
7 514
7 515
7 516
7 517
7 520
7 521
7 523
7 525
7 526
7 527
7 528
7 529
7 530
7 537
7 538
7 541
7 542
7 543
7 544
7 549
7 551
7 553
7 554
7 555
7 556
7 558
7 559
7 566
7 567
7 569
7 572
7 574
7 575
7 576
7 577
8 9
8 10
8 11
8 12
8 13
8 14
8 15
8 16
8 17
8 18
8 19
8 20
8 21
8 22
8 23
8 24
8 25
8 26
8 28
8 29
8 30
8 31
8 32
8 33
8 34
8 35
8 37
8 40
8 43
8 44
8 45
8 47
8 49
8 51
8 52
8 53
8 54
8 55
8 56
8 57
8 58
8 59
8 60
8 61
8 62
8 64
8 65
8 66
8 67
8 68
8 69
8 70
8 71
8 72
8 73
8 74
8 75
8 76
8 77
8 78
8 79
8 81
8 82
8 83
8 84
8 85
8 86
8 87
8 88
8 89
8 90
8 91
8 92
8 93
8 95
8 96
8 97
8 98
8 99
8 100
8 101
8 106
8 108
8 110
8 111
8 112
8 115
8 116
8 117
8 118
8 119
8 120
8 121
8 122
8 123
8 125
8 126
8 127
8 128
8 129
8 130
8 131
8 132
8 133
8 134
8 135
8 136
8 137
8 138
8 139
8 140
8 141
8 142
8 144
8 145
8 146
8 147
8 148
8 150
8 151
8 154
8 156
8 160
8 161
8 162
8 164
8 165
8 166
8 167
8 168
8 169
8 170
8 171
8 172
8 173
8 174
8 176
8 177
8 178
8 179
8 180
8 184
8 187
8 189
8 194
8 195
8 196
8 199
8 200
8 206
8 207
8 208
8 209
8 210
8 213
8 214
8 215
8 216
8 217
8 218
8 219
8 220
8 222
8 223
8 224
8 225
8 226
8 227
8 228
8 229
8 230
8 234
8 236
8 239
8 241
8 242
8 243
8 248
8 249
8 251
8 254
8 255
8 256
8 257
8 258
8 260
8 261
8 262
8 263
8 264
8 265
8 266
8 267
8 268
8 269
8 270
8 272
8 273
8 274
8 275
8 276
8 277
8 278
8 280
8 285
8 288
8 290
8 293
8 294
8 296
8 297
8 298
8 299
8 300
8 301
8 302
8 303
8 304
8 305
8 306
8 307
8 309
8 310
8 311
8 312
8 314
8 317
8 318
8 320
8 321
8 322
8 327
8 328
8 329
8 330
8 332
8 333
8 334
8 335
8 336
8 337
8 338
8 339
8 340
8 342
8 343
8 344
8 345
8 346
8 347
8 348
8 353
8 355
8 358
8 360
8 363
8 364
8 366
8 367
8 370
8 374
8 376
8 377
8 378
8 381
8 382
8 383
8 384
8 385
8 386
8 387
8 388
8 389
8 390
8 391
8 393
8 394
8 395
8 397
8 399
8 402
8 407
8 408
8 409
8 414
8 415
8 418
8 419
8 420
8 421
8 422
8 423
8 426
8 427
8 428
8 429
8 430
8 431
8 432
8 433
8 435
8 436
8 437
8 438
8 439
8 440
8 441
8 442
8 444
8 446
8 448
8 450
8 451
8 452
8 456
8 457
8 458
8 459
8 460
8 461
8 462
8 463
8 464
8 465
8 467
8 468
8 469
8 470
8 473
8 474
8 480
8 482
8 483
8 484
8 489
8 492
8 494
8 498
8 500
8 501
8 509
8 510
8 512
8 513
8 514
8 515
8 516
8 517
8 518
8 519
8 520
8 521
8 522
8 524
8 525
8 526
8 527
8 528
8 529
8 530
8 531
8 532
8 533
8 534
8 535
8 536
8 537
8 539
8 540
8 541
8 542
8 543
8 544
8 545
8 546
8 547
8 548
8 549
8 550
8 551
8 552
8 553
8 554
8 556
8 557
8 558
8 559
8 560
8 561
8 562
8 563
8 564
8 565
8 566
8 567
8 568
8 570
8 571
8 572
8 573
8 574
8 575
8 576
8 577
8 578
8 579
9 10
9 11
9 12
9 13
9 14
9 15
9 16
9 19
9 23
9 25
9 26
9 27
9 30
9 31
9 32
9 33
9 37
9 40
9 43
9 44
9 45
9 47
9 49
9 51
9 54
9 58
9 61
9 62
9 63
9 65
9 66
9 68
9 69
9 70
9 71
9 72
9 73
9 74
9 75
9 76
9 77
9 78
9 79
9 80
9 81
9 83
9 84
9 85
9 86
9 87
9 88
9 89
9 90
9 91
9 92
9 93
9 94
9 95
9 96
9 97
9 99
9 100
9 101
9 106
9 108
9 110
9 111
9 112
9 115
9 116
9 117
9 118
9 119
9 120
9 121
9 122
9 123
9 124
9 125
9 127
9 128
9 129
9 130
9 131
9 132
9 133
9 135
9 139
9 141
9 143
9 146
9 147
9 150
9 151
9 154
9 156
9 160
9 161
9 162
9 166
9 168
9 172
9 175
9 178
9 179
9 184
9 187
9 189
9 194
9 195
9 196
9 199
9 200
9 206
9 207
9 208
9 209
9 210
9 213
9 214
9 215
9 216
9 217
9 218
9 219
9 220
9 221
9 222
9 223
9 224
9 226
9 227
9 228
9 229
9 230
9 231
9 232
9 233
9 234
9 235
9 236
9 237
9 238
9 239
9 240
9 242
9 243
9 244
9 245
9 246
9 247
9 248
9 249
9 250
9 251
9 252
9 253
9 254
9 255
9 257
9 258
9 259
9 260
9 262
9 265
9 267
9 271
9 275
9 276
9 277
9 280
9 285
9 288
9 290
9 293
9 294
9 296
9 300
9 302
9 304
9 306
9 307
9 308
9 310
9 311
9 312
9 314
9 317
9 318
9 320
9 321
9 322
9 327
9 328
9 329
9 330
9 332
9 335
9 336
9 339
9 340
9 341
9 344
9 345
9 346
9 347
9 349
9 350
9 351
9 352
9 353
9 354
9 355
9 356
9 357
9 358
9 359
9 360
9 361
9 362
9 364
9 365
9 366
9 367
9 368
9 369
9 370
9 371
9 372
9 373
9 375
9 376
9 377
9 378
9 379
9 380
9 382
9 385
9 386
9 392
9 394
9 395
9 397
9 399
9 402
9 407
9 408
9 409
9 414
9 415
9 418
9 419
9 420
9 421
9 422
9 423
9 427
9 432
9 433
9 434
9 437
9 438
9 441
9 442
9 443
9 444
9 445
9 446
9 447
9 449
9 450
9 451
9 452
9 453
9 454
9 455
9 456
9 457
9 458
9 459
9 460
9 461
9 462
9 463
9 464
9 465
9 466
9 468
9 469
9 470
9 471
9 472
9 473
9 474
9 475
9 476
9 477
9 478
9 479
9 481
9 482
9 483
9 484
9 485
9 486
9 487
9 488
9 489
9 490
9 491
9 492
9 493
9 494
9 495
9 496
9 497
9 498
9 499
9 501
9 502
9 509
9 510
9 512
9 513
9 514
9 515
9 516
9 517
9 520
9 521
9 523
9 525
9 526
9 527
9 528
9 529
9 530
9 537
9 538
9 541
9 542
9 543
9 544
9 548
9 549
9 550
9 551
9 552
9 553
9 554
9 555
9 557
9 558
9 559
9 560
9 561
9 562
9 563
9 564
9 565
9 566
9 567
9 568
9 569
9 570
9 571
9 573
9 574
9 575
9 576
9 577
9 578
9 579
10 11
10 12
10 13
10 14
10 15
10 16
10 17
10 18
10 19
10 20
10 21
10 22
10 23
10 24
10 25
10 26
10 27
10 28
10 29
10 31
10 32
10 33
10 34
10 35
10 37
10 40
10 43
10 44
10 45
10 47
10 49
10 51
10 54
10 58
10 61
10 62
10 63
10 65
10 66
10 68
10 69
10 70
10 71
10 72
10 73
10 74
10 75
10 76
10 77
10 78
10 79
10 80
10 81
10 82
10 84
10 85
10 86
10 92
10 93
10 94
10 98
10 100
10 101
10 106
10 108
10 110
10 111
10 112
10 115
10 116
10 123
10 124
10 126
10 128
10 129
10 130
10 131
10 132
10 135
10 139
10 141
10 143
10 146
10 147
10 150
10 151
10 154
10 156
10 160
10 161
10 162
10 166
10 168
10 172
10 175
10 178
10 179
10 181
10 182
10 183
10 184
10 185
10 186
10 187
10 188
10 189
10 190
10 191
10 192
10 193
10 195
10 196
10 197
10 199
10 200
10 206
10 207
10 208
10 209
10 210
10 213
10 214
10 215
10 216
10 217
10 218
10 219
10 220
10 221
10 222
10 223
10 224
10 225
10 226
10 228
10 229
10 230
10 234
10 236
10 239
10 241
10 242
10 243
10 245
10 246
10 247
10 248
10 249
10 250
10 251
10 252
10 253
10 254
10 255
10 256
10 258
10 259
10 260
10 262
10 265
10 267
10 271
10 275
10 276
10 277
10 280
10 285
10 288
10 290
10 293
10 294
10 296
10 297
10 298
10 299
10 300
10 301
10 302
10 303
10 304
10 305
10 306
10 307
10 308
10 309
10 311
10 312
10 313
10 314
10 315
10 316
10 317
10 318
10 319
10 320
10 321
10 322
10 323
10 324
10 325
10 326
10 328
10 329
10 330
10 331
10 332
10 335
10 336
10 339
10 340
10 341
10 344
10 345
10 346
10 347
10 353
10 355
10 358
10 360
10 363
10 364
10 366
10 367
10 368
10 369
10 370
10 371
10 372
10 373
10 374
10 375
10 377
10 378
10 379
10 380
10 381
10 382
10 383
10 384
10 385
10 386
10 387
10 388
10 389
10 390
10 391
10 392
10 393
10 395
10 396
10 397
10 398
10 399
10 400
10 401
10 402
10 403
10 404
10 405
10 406
10 408
10 409
10 410
10 411
10 412
10 413
10 414
10 415
10 416
10 417
10 419
10 420
10 421
10 422
10 423
10 424
10 425
10 427
10 432
10 433
10 434
10 437
10 438
10 441
10 442
10 443
10 444
10 445
10 446
10 447
10 448
10 449
10 451
10 452
10 453
10 454
10 455
10 457
10 458
10 461
10 464
10 465
10 466
10 467
10 468
10 469
10 471
10 472
10 473
10 474
10 475
10 476
10 477
10 478
10 479
10 480
10 481
10 483
10 484
10 485
10 486
10 487
10 489
10 492
10 494
10 498
10 500
10 501
10 503
10 504
10 505
10 506
10 507
10 508
10 509
10 510
10 511
10 513
10 514
10 515
10 516
10 517
10 520
10 521
10 523
10 525
10 526
10 527
10 528
10 529
10 530
10 533
10 534
10 535
10 536
10 537
10 538
10 539
10 540
10 542
10 543
10 544
10 545
10 546
10 547
10 549
10 551
10 553
10 554
10 555
10 556
10 558
10 559
10 563
10 564
10 565
10 566
10 567
10 568
10 569
10 570
10 571
10 572
10 573
10 575
10 576
10 577
10 578
10 579
11 12
11 13
11 14
11 15
11 16
11 17
11 18
11 19
11 20
11 21
11 22
11 23
11 24
11 25
11 26
11 27
11 28
11 29
11 30
11 32
11 33
11 34
11 35
11 36
11 37
11 38
11 39
11 40
11 41
11 42
11 43
11 44
11 45
11 46
11 47
11 48
11 50
11 51
11 52
11 53
11 54
11 55
11 56
11 57
11 58
11 59
11 60
11 61
11 62
11 63
11 64
11 66
11 67
11 71
11 75
11 76
11 79
11 80
11 82
11 83
11 84
11 85
11 92
11 93
11 94
11 98
11 100
11 101
11 106
11 108
11 110
11 111
11 112
11 115
11 116
11 117
11 118
11 119
11 120
11 121
11 122
11 123
11 124
11 125
11 126
11 127
11 129
11 130
11 131
11 132
11 133
11 135
11 139
11 141
11 143
11 146
11 147
11 149
11 150
11 151
11 152
11 153
11 154
11 155
11 156
11 157
11 158
11 159
11 161
11 162
11 163
11 166
11 168
11 172
11 175
11 178
11 179
11 184
11 187
11 189
11 194
11 195
11 196
11 199
11 200
11 206
11 207
11 208
11 209
11 210
11 213
11 215
11 218
11 220
11 221
11 225
11 227
11 228
11 230
11 234
11 236
11 239
11 241
11 242
11 243
11 248
11 249
11 251
11 254
11 255
11 256
11 257
11 258
11 260
11 261
11 262
11 263
11 264
11 265
11 266
11 267
11 268
11 269
11 270
11 271
11 272
11 273
11 274
11 276
11 277
11 278
11 280
11 285
11 288
11 290
11 293
11 294
11 296
11 300
11 302
11 304
11 306
11 307
11 308
11 310
11 311
11 312
11 313
11 314
11 315
11 316
11 317
11 318
11 319
11 320
11 321
11 322
11 323
11 324
11 325
11 326
11 327
11 329
11 330
11 331
11 332
11 333
11 334
11 335
11 336
11 337
11 338
11 339
11 340
11 341
11 342
11 343
11 345
11 346
11 347
11 348
11 349
11 350
11 351
11 352
11 353
11 354
11 355
11 356
11 357
11 358
11 359
11 360
11 361
11 362
11 363
11 365
11 366
11 367
11 368
11 369
11 370
11 371
11 372
11 373
11 374
11 375
11 376
11 378
11 379
11 380
11 382
11 385
11 386
11 392
11 394
11 395
11 397
11 399
11 402
11 407
11 408
11 409
11 411
11 412
11 413
11 414
11 415
11 416
11 417
11 418
11 420
11 421
11 422
11 423
11 424
11 425
11 427
11 432
11 433
11 434
11 437
11 438
11 441
11 442
11 444
11 446
11 448
11 450
11 451
11 452
11 456
11 457
11 458
11 459
11 460
11 461
11 462
11 463
11 464
11 465
11 466
11 467
11 469
11 470
11 471
11 472
11 473
11 474
11 475
11 476
11 477
11 478
11 479
11 480
11 481
11 482
11 484
11 485
11 486
11 487
11 489
11 492
11 494
11 498
11 500
11 501
11 503
11 504
11 505
11 506
11 507
11 508
11 509
11 510
11 511
11 512
11 514
11 515
11 516
11 517
11 518
11 519
11 520
11 521
11 522
11 523
11 524
11 526
11 527
11 528
11 529
11 530
11 531
11 532
11 533
11 534
11 535
11 536
11 537
11 538
11 539
11 540
11 541
11 543
11 544
11 545
11 546
11 547
11 549
11 551
11 553
11 554
11 555
11 556
11 558
11 559
11 566
11 567
11 569
11 572
11 574
11 575
11 576
11 577
12 13
12 14
12 15
12 16
12 17
12 18
12 19
12 20
12 21
12 22
12 23
12 24
12 25
12 26
12 27
12 28
12 29
12 30
12 31
12 33
12 34
12 35
12 37
12 40
12 43
12 44
12 45
12 47
12 49
12 51
12 54
12 58
12 61
12 62
12 63
12 65
12 66
12 68
12 69
12 70
12 71
12 72
12 73
12 74
12 75
12 76
12 77
12 78
12 79
12 80
12 81
12 82
12 83
12 85
12 86
12 92
12 93
12 94
12 98
12 100
12 101
12 106
12 108
12 110
12 111
12 112
12 115
12 116
12 117
12 118
12 119
12 120
12 121
12 122
12 123
12 124
12 125
12 126
12 127
12 128
12 130
12 131
12 132
12 133
12 135
12 139
12 141
12 143
12 146
12 147
12 150
12 151
12 154
12 156
12 160
12 161
12 162
12 164
12 165
12 166
12 167
12 168
12 169
12 170
12 171
12 172
12 173
12 174
12 175
12 176
12 177
12 179
12 180
12 181
12 182
12 183
12 184
12 185
12 186
12 187
12 188
12 189
12 190
12 191
12 192
12 193
12 194
12 196
12 197
12 198
12 199
12 200
12 201
12 202
12 203
12 204
12 205
12 207
12 208
12 209
12 210
12 211
12 212
12 213
12 215
12 218
12 220
12 221
12 225
12 227
12 228
12 230
12 231
12 232
12 233
12 234
12 235
12 236
12 237
12 238
12 239
12 240
12 241
12 243
12 244
12 248
12 249
12 251
12 254
12 255
12 256
12 257
12 258
12 260
12 262
12 265
12 267
12 271
12 275
12 276
12 277
12 279
12 280
12 281
12 282
12 283
12 284
12 285
12 286
12 287
12 288
12 289
12 290
12 291
12 292
12 294
12 295
12 296
12 300
12 302
12 304
12 306
12 307
12 308
12 310
12 311
12 312
12 314
12 317
12 318
12 320
12 321
12 322
12 327
12 328
12 329
12 330
12 332
12 333
12 334
12 335
12 336
12 337
12 338
12 339
12 340
12 341
12 342
12 343
12 344
12 346
12 347
12 348
12 353
12 355
12 358
12 360
12 363
12 364
12 366
12 367
12 368
12 369
12 370
12 371
12 372
12 373
12 374
12 375
12 376
12 377
12 379
12 380
12 382
12 385
12 386
12 392
12 394
12 395
12 397
12 399
12 402
12 407
12 408
12 409
12 411
12 412
12 413
12 414
12 415
12 416
12 417
12 418
12 419
12 421
12 422
12 423
12 424
12 425
12 426
12 427
12 428
12 429
12 430
12 431
12 432
12 433
12 434
12 435
12 436
12 438
12 439
12 440
12 441
12 442
12 444
12 446
12 448
12 450
12 451
12 452
12 457
12 458
12 461
12 464
12 465
12 466
12 467
12 468
12 469
12 473
12 474
12 480
12 482
12 483
12 484
12 488
12 489
12 490
12 491
12 492
12 493
12 494
12 495
12 496
12 497
12 498
12 499
12 500
12 502
12 503
12 504
12 505
12 506
12 507
12 508
12 509
12 510
12 511
12 512
12 513
12 515
12 516
12 517
12 518
12 519
12 520
12 521
12 522
12 523
12 524
12 525
12 527
12 528
12 529
12 530
12 531
12 532
12 537
12 538
12 541
12 542
12 543
12 544
12 549
12 551
12 553
12 554
12 555
12 556
12 558
12 559
12 563
12 564
12 565
12 566
12 567
12 568
12 569
12 570
12 571
12 572
12 573
12 574
12 576
12 577
12 578
12 579
13 14
13 15
13 16
13 19
13 23
13 25
13 26
13 27
13 30
13 31
13 32
13 33
13 37
13 40
13 43
13 44
13 45
13 47
13 49
13 51
13 54
13 58
13 61
13 62
13 63
13 65
13 66
13 71
13 75
13 76
13 79
13 80
13 82
13 83
13 84
13 85
13 92
13 93
13 94
13 98
13 100
13 101
13 102
13 103
13 104
13 105
13 106
13 107
13 108
13 109
13 110
13 111
13 112
13 113
13 114
13 116
13 117
13 118
13 119
13 120
13 121
13 122
13 123
13 124
13 125
13 126
13 127
13 128
13 129
13 131
13 132
13 133
13 134
13 135
13 136
13 137
13 138
13 139
13 140
13 141
13 142
13 143
13 144
13 145
13 147
13 148
13 149
13 150
13 151
13 152
13 153
13 154
13 155
13 156
13 157
13 158
13 159
13 160
13 162
13 163
13 166
13 168
13 172
13 175
13 178
13 179
13 184
13 187
13 189
13 194
13 195
13 196
13 198
13 199
13 200
13 201
13 202
13 203
13 204
13 205
13 206
13 208
13 209
13 210
13 211
13 212
13 213
13 215
13 218
13 220
13 221
13 225
13 227
13 228
13 230
13 234
13 236
13 239
13 241
13 242
13 243
13 248
13 249
13 251
13 254
13 255
13 256
13 257
13 258
13 260
13 261
13 262
13 263
13 264
13 265
13 266
13 267
13 268
13 269
13 270
13 271
13 272
13 273
13 274
13 275
13 277
13 278
13 280
13 285
13 288
13 290
13 293
13 294
13 296
13 297
13 298
13 299
13 300
13 301
13 302
13 303
13 304
13 305
13 306
13 307
13 308
13 309
13 310
13 312
13 314
13 317
13 318
13 320
13 321
13 322
13 327
13 328
13 329
13 330
13 332
13 333
13 334
13 335
13 336
13 337
13 338
13 339
13 340
13 341
13 342
13 343
13 344
13 345
13 347
13 348
13 353
13 355
13 358
13 360
13 363
13 364
13 366
13 367
13 370
13 374
13 376
13 377
13 378
13 382
13 385
13 386
13 392
13 394
13 395
13 396
13 397
13 398
13 399
13 400
13 401
13 402
13 403
13 404
13 405
13 406
13 407
13 409
13 410
13 414
13 415
13 418
13 419
13 420
13 421
13 422
13 423
13 426
13 427
13 428
13 429
13 430
13 431
13 432
13 433
13 434
13 435
13 436
13 437
13 439
13 440
13 441
13 442
13 444
13 446
13 448
13 450
13 451
13 452
13 457
13 458
13 461
13 464
13 465
13 466
13 467
13 468
13 469
13 471
13 472
13 473
13 474
13 475
13 476
13 477
13 478
13 479
13 480
13 481
13 482
13 483
13 485
13 486
13 487
13 489
13 492
13 494
13 498
13 500
13 501
13 503
13 504
13 505
13 506
13 507
13 508
13 509
13 510
13 511
13 512
13 513
13 514
13 516
13 517
13 518
13 519
13 520
13 521
13 522
13 523
13 524
13 525
13 526
13 528
13 529
13 530
13 531
13 532
13 537
13 538
13 541
13 542
13 543
13 544
13 549
13 551
13 553
13 554
13 555
13 556
13 558
13 559
13 563
13 564
13 565
13 566
13 567
13 568
13 569
13 570
13 571
13 572
13 573
13 574
13 575
13 577
13 578
13 579
14 15
14 16
14 19
14 23
14 25
14 26
14 27
14 30
14 31
14 32
14 33
14 37
14 40
14 43
14 44
14 45
14 47
14 49
14 51
14 54
14 58
14 61
14 62
14 63
14 65
14 66
14 71
14 75
14 76
14 79
14 80
14 82
14 83
14 84
14 85
14 87
14 88
14 89
14 90
14 91
14 92
14 93
14 94
14 95
14 96
14 97
14 98
14 99
14 101
14 106
14 108
14 110
14 111
14 112
14 115
14 116
14 123
14 124
14 126
14 128
14 129
14 130
14 131
14 132
14 134
14 135
14 136
14 137
14 138
14 139
14 140
14 141
14 142
14 143
14 144
14 145
14 146
14 148
14 150
14 151
14 154
14 156
14 160
14 161
14 162
14 164
14 165
14 166
14 167
14 168
14 169
14 170
14 171
14 172
14 173
14 174
14 175
14 176
14 177
14 178
14 180
14 184
14 187
14 189
14 194
14 195
14 196
14 198
14 199
14 200
14 201
14 202
14 203
14 204
14 205
14 206
14 207
14 209
14 210
14 211
14 212
14 213
14 215
14 218
14 220
14 221
14 225
14 227
14 228
14 230
14 231
14 232
14 233
14 234
14 235
14 236
14 237
14 238
14 239
14 240
14 241
14 242
14 244
14 245
14 246
14 247
14 248
14 249
14 250
14 251
14 252
14 253
14 254
14 255
14 256
14 257
14 259
14 260
14 261
14 262
14 263
14 264
14 265
14 266
14 267
14 268
14 269
14 270
14 271
14 272
14 273
14 274
14 275
14 276
14 278
14 280
14 285
14 288
14 290
14 293
14 294
14 296
14 300
14 302
14 304
14 306
14 307
14 308
14 310
14 311
14 312
14 313
14 314
14 315
14 316
14 317
14 318
14 319
14 320
14 321
14 322
14 323
14 324
14 325
14 326
14 327
14 328
14 330
14 331
14 332
14 335
14 336
14 339
14 340
14 341
14 344
14 345
14 346
14 347
14 353
14 355
14 358
14 360
14 363
14 364
14 366
14 367
14 370
14 374
14 376
14 377
14 378
14 382
14 385
14 386
14 392
14 394
14 395
14 397
14 399
14 402
14 407
14 408
14 409
14 411
14 412
14 413
14 414
14 415
14 416
14 417
14 418
14 419
14 420
14 422
14 423
14 424
14 425
14 427
14 432
14 433
14 434
14 437
14 438
14 441
14 442
14 443
14 444
14 445
14 446
14 447
14 448
14 449
14 450
14 452
14 453
14 454
14 455
14 456
14 457
14 458
14 459
14 460
14 461
14 462
14 463
14 464
14 465
14 466
14 467
14 468
14 470
14 473
14 474
14 480
14 482
14 483
14 484
14 489
14 492
14 494
14 498
14 500
14 501
14 503
14 504
14 505
14 506
14 507
14 508
14 509
14 510
14 511
14 512
14 513
14 514
14 515
14 517
14 518
14 519
14 520
14 521
14 522
14 523
14 524
14 525
14 526
14 527
14 529
14 530
14 531
14 532
14 533
14 534
14 535
14 536
14 537
14 538
14 539
14 540
14 541
14 542
14 544
14 545
14 546
14 547
14 549
14 551
14 553
14 554
14 555
14 556
14 558
14 559
14 566
14 567
14 569
14 572
14 574
14 575
14 576
14 577
15 16
15 17
15 18
15 19
15 20
15 21
15 22
15 23
15 24
15 25
15 26
15 27
15 28
15 29
15 30
15 31
15 32
15 34
15 35
15 37
15 40
15 43
15 44
15 45
15 47
15 49
15 51
15 52
15 53
15 54
15 55
15 56
15 57
15 58
15 59
15 60
15 61
15 62
15 63
15 64
15 65
15 67
15 71
15 75
15 76
15 79
15 80
15 82
15 83
15 84
15 85
15 92
15 93
15 94
15 98
15 100
15 101
15 102
15 103
15 104
15 105
15 106
15 107
15 108
15 109
15 110
15 111
15 112
15 113
15 114
15 115
15 117
15 118
15 119
15 120
15 121
15 122
15 123
15 124
15 125
15 126
15 127
15 128
15 129
15 130
15 132
15 133
15 135
15 139
15 141
15 143
15 146
15 147
15 150
15 151
15 154
15 156
15 160
15 161
15 162
15 166
15 168
15 172
15 175
15 178
15 179
15 181
15 182
15 183
15 184
15 185
15 186
15 187
15 188
15 189
15 190
15 191
15 192
15 193
15 194
15 195
15 197
15 198
15 199
15 200
15 201
15 202
15 203
15 204
15 205
15 206
15 207
15 208
15 210
15 211
15 212
15 213
15 214
15 215
15 216
15 217
15 218
15 219
15 220
15 221
15 222
15 223
15 224
15 225
15 226
15 227
15 229
15 230
15 234
15 236
15 239
15 241
15 242
15 243
15 248
15 249
15 251
15 254
15 255
15 256
15 257
15 258
15 260
15 262
15 265
15 267
15 271
15 275
15 276
15 277
15 279
15 280
15 281
15 282
15 283
15 284
15 285
15 286
15 287
15 288
15 289
15 290
15 291
15 292
15 293
15 295
15 296
15 300
15 302
15 304
15 306
15 307
15 308
15 310
15 311
15 312
15 314
15 317
15 318
15 320
15 321
15 322
15 327
15 328
15 329
15 330
15 332
15 335
15 336
15 339
15 340
15 341
15 344
15 345
15 346
15 347
15 353
15 355
15 358
15 360
15 363
15 364
15 366
15 367
15 370
15 374
15 376
15 377
15 378
15 382
15 385
15 386
15 392
15 394
15 395
15 396
15 397
15 398
15 399
15 400
15 401
15 402
15 403
15 404
15 405
15 406
15 407
15 408
15 410
15 411
15 412
15 413
15 414
15 415
15 416
15 417
15 418
15 419
15 420
15 421
15 423
15 424
15 425
15 427
15 432
15 433
15 434
15 437
15 438
15 441
15 442
15 444
15 446
15 448
15 450
15 451
15 452
15 457
15 458
15 461
15 464
15 465
15 466
15 467
15 468
15 469
15 473
15 474
15 480
15 482
15 483
15 484
15 489
15 492
15 494
15 498
15 500
15 501
15 503
15 504
15 505
15 506
15 507
15 508
15 509
15 510
15 511
15 512
15 513
15 514
15 515
15 516
15 518
15 519
15 520
15 521
15 522
15 523
15 524
15 525
15 526
15 527
15 528
15 530
15 531
15 532
15 533
15 534
15 535
15 536
15 537
15 538
15 539
15 540
15 541
15 542
15 543
15 545
15 546
15 547
15 548
15 549
15 550
15 551
15 552
15 553
15 554
15 555
15 556
15 557
15 559
15 560
15 561
15 562
15 566
15 567
15 569
15 572
15 574
15 575
15 576
15 577
16 19
16 23
16 25
16 26
16 27
16 30
16 31
16 32
16 33
16 37
16 40
16 43
16 44
16 45
16 47
16 49
16 51
16 54
16 58
16 61
16 62
16 63
16 65
16 66
16 68
16 69
16 70
16 71
16 72
16 73
16 74
16 75
16 76
16 77
16 78
16 79
16 80
16 81
16 82
16 83
16 84
16 86
16 87
16 88
16 89
16 90
16 91
16 92
16 93
16 94
16 95
16 96
16 97
16 98
16 99
16 100
16 106
16 108
16 110
16 111
16 112
16 115
16 116
16 117
16 118
16 119
16 120
16 121
16 122
16 123
16 124
16 125
16 126
16 127
16 128
16 129
16 130
16 131
16 133
16 135
16 139
16 141
16 143
16 146
16 147
16 149
16 150
16 151
16 152
16 153
16 154
16 155
16 156
16 157
16 158
16 159
16 160
16 161
16 163
16 166
16 168
16 172
16 175
16 178
16 179
16 184
16 187
16 189
16 194
16 195
16 196
16 198
16 199
16 200
16 201
16 202
16 203
16 204
16 205
16 206
16 207
16 208
16 209
16 211
16 212
16 213
16 215
16 218
16 220
16 221
16 225
16 227
16 228
16 230
16 234
16 236
16 239
16 241
16 242
16 243
16 248
16 249
16 251
16 254
16 255
16 256
16 257
16 258
16 260
16 262
16 265
16 267
16 271
16 275
16 276
16 277
16 280
16 285
16 288
16 290
16 293
16 294
16 296
16 297
16 298
16 299
16 300
16 301
16 302
16 303
16 304
16 305
16 306
16 307
16 308
16 309
16 310
16 311
16 313
16 314
16 315
16 316
16 317
16 318
16 319
16 320
16 321
16 322
16 323
16 324
16 325
16 326
16 327
16 328
16 329
16 331
16 332
16 333
16 334
16 335
16 336
16 337
16 338
16 339
16 340
16 341
16 342
16 343
16 344
16 345
16 346
16 348
16 353
16 355
16 358
16 360
16 363
16 364
16 366
16 367
16 370
16 374
16 376
16 377
16 378
16 381
16 382
16 383
16 384
16 385
16 386
16 387
16 388
16 389
16 390
16 391
16 392
16 393
16 394
16 397
16 399
16 402
16 407
16 408
16 409
16 411
16 412
16 413
16 414
16 415
16 416
16 417
16 418
16 419
16 420
16 421
16 422
16 424
16 425
16 427
16 432
16 433
16 434
16 437
16 438
16 441
16 442
16 443
16 444
16 445
16 446
16 447
16 448
16 449
16 450
16 451
16 453
16 454
16 455
16 457
16 458
16 461
16 464
16 465
16 466
16 467
16 468
16 469
16 473
16 474
16 480
16 482
16 483
16 484
16 489
16 492
16 494
16 498
16 500
16 501
16 509
16 510
16 512
16 513
16 514
16 515
16 516
16 517
16 518
16 519
16 520
16 521
16 522
16 523
16 524
16 525
16 526
16 527
16 528
16 529
16 531
16 532
16 537
16 538
16 541
16 542
16 543
16 544
16 548
16 549
16 550
16 551
16 552
16 553
16 554
16 555
16 556
16 557
16 558
16 560
16 561
16 562
16 563
16 564
16 565
16 566
16 567
16 568
16 569
16 570
16 571
16 572
16 573
16 574
16 575
16 576
16 578
16 579
17 18
17 19
17 20
17 21
17 22
17 23
17 24
17 25
17 26
17 27
17 28
17 29
17 30
17 31
17 32
17 33
17 34
17 35
17 37
17 38
17 39
17 40
17 41
17 42
17 43
17 44
17 45
17 46
17 47
17 48
17 49
17 50
17 52
17 54
17 57
17 58
17 59
17 61
17 62
17 63
17 65
17 66
17 69
17 70
17 71
17 72
17 73
17 74
17 75
17 76
17 77
17 78
17 79
17 80
17 81
17 82
17 83
17 84
17 85
17 86
17 88
17 89
17 90
17 91
17 92
17 93
17 94
17 95
17 96
17 97
17 98
17 99
17 100
17 101
17 103
17 104
17 105
17 106
17 107
17 108
17 109
17 110
17 111
17 112
17 113
17 114
17 115
17 116
17 119
17 121
17 122
17 123
17 124
17 128
17 129
17 131
17 133
17 135
17 136
17 137
17 138
17 139
17 140
17 141
17 142
17 143
17 144
17 145
17 146
17 147
17 148
17 149
17 152
17 155
17 156
17 157
17 158
17 159
17 160
17 163
17 164
17 168
17 170
17 171
17 172
17 173
17 175
17 176
17 178
17 183
17 185
17 188
17 189
17 192
17 193
17 194
17 195
17 196
17 199
17 200
17 201
17 202
17 203
17 204
17 205
17 206
17 207
17 208
17 209
17 210
17 211
17 212
17 215
17 216
17 219
17 220
17 221
17 223
17 224
17 227
17 228
17 229
17 232
17 236
17 238
17 239
17 242
17 244
17 246
17 247
17 248
17 249
17 250
17 251
17 252
17 253
17 254
17 255
17 256
17 257
17 258
17 259
17 261
17 264
17 268
17 269
17 271
17 273
17 275
17 278
17 280
17 281
17 282
17 283
17 284
17 285
17 286
17 287
17 288
17 289
17 290
17 291
17 292
17 293
17 294
17 295
17 298
17 300
17 301
17 303
17 305
17 306
17 307
17 308
17 309
17 310
17 319
17 320
17 321
17 322
17 324
17 325
17 327
17 328
17 336
17 337
17 339
17 340
17 341
17 343
17 344
17 345
17 350
17 353
17 356
17 357
17 358
17 359
17 360
17 362
17 364
17 365
17 369
17 370
17 372
17 373
17 376
17 377
17 378
17 380
17 382
17 383
17 384
17 385
17 386
17 387
17 388
17 389
17 390
17 391
17 392
17 393
17 394
17 395
17 399
17 401
17 403
17 406
17 407
17 409
17 410
17 411
17 412
17 414
17 415
17 417
17 418
17 419
17 420
17 422
17 425
17 428
17 429
17 430
17 432
17 433
17 434
17 436
17 437
17 439
17 440
17 442
17 443
17 445
17 446
17 450
17 453
17 455
17 457
17 458
17 459
17 460
17 461
17 462
17 463
17 464
17 465
17 466
17 467
17 468
17 469
17 470
17 472
17 473
17 474
17 475
17 476
17 477
17 478
17 479
17 480
17 481
17 482
17 483
17 484
17 485
17 486
17 487
17 489
17 490
17 491
17 492
17 493
17 494
17 495
17 496
17 497
17 498
17 499
17 500
17 501
17 502
17 504
17 505
17 506
17 507
17 508
17 509
17 510
17 511
17 512
17 513
17 514
17 515
17 516
17 517
17 522
17 523
17 524
17 525
17 526
17 529
17 531
17 532
17 535
17 537
17 538
17 539
17 541
17 542
17 544
17 545
17 547
17 549
17 550
17 551
17 552
17 553
17 554
17 555
17 556
17 557
17 558
17 559
17 560
17 561
17 562
17 563
17 565
17 567
17 569
17 571
17 574
17 575
17 578
18 19
18 20
18 21
18 22
18 23
18 24
18 25
18 26
18 27
18 28
18 29
18 30
18 31
18 32
18 33
18 34
18 35
18 36
18 42
18 45
18 47
18 49
18 50
18 51
18 53
18 54
18 55
18 56
18 57
18 58
18 59
18 60
18 61
18 62
18 63
18 64
18 65
18 66
18 67
18 68
18 71
18 73
18 76
18 77
18 79
18 80
18 83
18 84
18 86
18 87
18 89
18 90
18 91
18 92
18 93
18 94
18 95
18 96
18 97
18 98
18 99
18 100
18 101
18 102
18 103
18 105
18 106
18 107
18 108
18 109
18 110
18 111
18 112
18 113
18 114
18 115
18 116
18 119
18 121
18 122
18 123
18 124
18 128
18 129
18 131
18 133
18 134
18 135
18 136
18 138
18 139
18 140
18 141
18 142
18 143
18 144
18 145
18 146
18 147
18 148
18 150
18 151
18 152
18 153
18 154
18 155
18 156
18 157
18 158
18 159
18 160
18 161
18 162
18 163
18 165
18 166
18 167
18 168
18 169
18 170
18 171
18 172
18 173
18 174
18 175
18 176
18 177
18 178
18 179
18 180
18 183
18 185
18 188
18 189
18 192
18 193
18 194
18 195
18 196
18 198
18 200
18 201
18 202
18 205
18 206
18 209
18 211
18 215
18 216
18 219
18 220
18 221
18 223
18 224
18 227
18 228
18 229
18 230
18 231
18 233
18 234
18 235
18 236
18 237
18 238
18 239
18 240
18 241
18 242
18 243
18 244
18 245
18 248
18 250
18 251
18 252
18 254
18 255
18 257
18 259
18 260
18 262
18 263
18 264
18 265
18 266
18 267
18 268
18 269
18 270
18 271
18 272
18 273
18 274
18 275
18 276
18 277
18 278
18 279
18 284
18 286
18 289
18 290
18 293
18 294
18 295
18 296
18 297
18 299
18 300
18 301
18 302
18 303
18 304
18 305
18 306
18 307
18 308
18 309
18 310
18 311
18 312
18 319
18 320
18 321
18 322
18 324
18 325
18 327
18 328
18 336
18 337
18 339
18 340
18 341
18 343
18 344
18 345
18 349
18 351
18 352
18 353
18 354
18 355
18 356
18 357
18 358
18 359
18 360
18 361
18 362
18 363
18 364
18 365
18 369
18 370
18 372
18 373
18 376
18 377
18 378
18 380
18 381
18 382
18 384
18 385
18 386
18 387
18 388
18 389
18 390
18 391
18 392
18 393
18 394
18 395
18 399
18 401
18 403
18 406
18 407
18 409
18 410
18 412
18 413
18 414
18 415
18 416
18 417
18 418
18 419
18 420
18 421
18 422
18 423
18 424
18 425
18 428
18 429
18 430
18 432
18 433
18 434
18 436
18 437
18 439
18 440
18 442
18 443
18 445
18 446
18 450
18 453
18 455
18 456
18 458
18 460
18 462
18 465
18 466
18 468
18 471
18 473
18 475
18 476
18 478
18 479
18 482
18 483
18 485
18 487
18 488
18 489
18 490
18 492
18 493
18 494
18 495
18 496
18 497
18 498
18 499
18 500
18 501
18 502
18 503
18 506
18 508
18 509
18 510
18 512
18 513
18 514
18 517
18 522
18 523
18 524
18 525
18 526
18 529
18 531
18 532
18 535
18 537
18 538
18 539
18 541
18 542
18 544
18 545
18 547
18 548
18 553
18 554
18 555
18 558
18 560
18 562
18 564
18 565
18 566
18 567
18 568
18 569
18 570
18 571
18 572
18 573
18 574
18 575
18 576
18 577
18 578
18 579
19 20
19 21
19 22
19 23
19 24
19 25
19 26
19 27
19 28
19 29
19 30
19 31
19 32
19 33
19 34
19 35
19 36
19 42
19 45
19 47
19 49
19 50
19 51
19 52
19 53
19 55
19 56
19 57
19 58
19 59
19 60
19 61
19 62
19 63
19 64
19 65
19 66
19 67
19 68
19 69
19 70
19 72
19 73
19 74
19 75
19 76
19 77
19 78
19 79
19 80
19 81
19 82
19 83
19 84
19 85
19 86
19 87
19 88
19 93
19 94
19 96
19 97
19 102
19 103
19 104
19 105
19 106
19 107
19 109
19 110
19 111
19 112
19 113
19 114
19 115
19 116
19 119
19 121
19 122
19 123
19 124
19 128
19 129
19 131
19 133
19 134
19 137
19 140
19 141
19 143
19 144
19 148
19 149
19 152
19 155
19 156
19 157
19 158
19 159
19 160
19 163
19 164
19 165
19 166
19 167
19 169
19 170
19 171
19 172
19 173
19 174
19 175
19 176
19 177
19 178
19 179
19 180
19 183
19 185
19 188
19 189
19 192
19 193
19 194
19 195
19 196
19 198
19 199
19 201
19 202
19 203
19 204
19 205
19 206
19 207
19 208
19 209
19 210
19 211
19 212
19 213
19 214
19 216
19 217
19 218
19 219
19 220
19 221
19 222
19 223
19 224
19 225
19 226
19 227
19 228
19 229
19 230
19 231
19 232
19 233
19 234
19 235
19 237
19 238
19 239
19 240
19 241
19 242
19 243
19 244
19 245
19 246
19 247
19 249
19 250
19 251
19 252
19 253
19 254
19 255
19 256
19 257
19 258
19 259
19 261
19 264
19 268
19 269
19 271
19 273
19 275
19 278
19 279
19 284
19 286
19 289
19 290
19 293
19 294
19 295
19 296
19 297
19 298
19 299
19 301
19 302
19 303
19 304
19 305
19 306
19 307
19 308
19 309
19 310
19 311
19 312
19 319
19 320
19 321
19 322
19 324
19 325
19 327
19 328
19 336
19 337
19 339
19 340
19 341
19 343
19 344
19 345
19 349
19 350
19 351
19 352
19 354
19 355
19 356
19 357
19 358
19 359
19 360
19 361
19 362
19 363
19 364
19 365
19 369
19 370
19 372
19 373
19 376
19 377
19 378
19 380
19 381
19 382
19 383
19 384
19 385
19 387
19 388
19 389
19 390
19 391
19 392
19 393
19 394
19 395
19 396
19 397
19 398
19 400
19 401
19 402
19 403
19 404
19 405
19 406
19 407
19 408
19 409
19 410
19 411
19 412
19 414
19 415
19 417
19 418
19 419
19 420
19 422
19 425
19 428
19 429
19 430
19 432
19 433
19 434
19 436
19 437
19 439
19 440
19 441
19 443
19 444
19 445
19 446
19 447
19 448
19 449
19 450
19 451
19 452
19 453
19 454
19 455
19 456
19 457
19 459
19 460
19 461
19 462
19 463
19 464
19 465
19 466
19 467
19 468
19 469
19 470
19 471
19 472
19 474
19 475
19 476
19 477
19 478
19 479
19 480
19 481
19 482
19 483
19 484
19 485
19 486
19 487
19 488
19 491
19 493
19 495
19 496
19 497
19 498
19 499
19 501
19 503
19 506
19 508
19 509
19 510
19 512
19 513
19 514
19 517
19 522
19 523
19 524
19 525
19 526
19 529
19 531
19 532
19 535
19 537
19 538
19 539
19 541
19 542
19 544
19 545
19 547
19 548
19 553
19 554
19 555
19 558
19 560
19 562
19 563
19 565
19 567
19 569
19 571
19 574
19 575
19 578
20 21
20 22
20 23
20 24
20 25
20 26
20 27
20 28
20 29
20 30
20 31
20 32
20 33
20 34
20 35
20 36
20 37
20 38
20 39
20 40
20 41
20 43
20 44
20 45
20 46
20 47
20 48
20 49
20 50
20 52
20 54
20 57
20 58
20 59
20 61
20 62
20 63
20 65
20 66
20 68
20 69
20 70
20 71
20 72
20 74
20 75
20 76
20 77
20 78
20 79
20 80
20 81
20 82
20 83
20 84
20 85
20 86
20 87
20 88
20 93
20 94
20 96
20 97
20 102
20 104
20 108
20 111
20 112
20 113
20 116
20 119
20 121
20 122
20 123
20 124
20 128
20 129
20 131
20 133
20 134
20 137
20 140
20 141
20 143
20 144
20 148
20 149
20 152
20 155
20 156
20 157
20 158
20 159
20 160
20 163
20 164
20 165
20 166
20 167
20 168
20 169
20 171
20 172
20 173
20 174
20 175
20 176
20 177
20 178
20 179
20 180
20 181
20 182
20 184
20 185
20 186
20 187
20 188
20 189
20 190
20 191
20 192
20 193
20 194
20 195
20 196
20 197
20 198
20 200
20 201
20 202
20 205
20 206
20 209
20 211
20 213
20 214
20 215
20 217
20 218
20 219
20 220
20 221
20 222
20 223
20 224
20 225
20 226
20 227
20 228
20 229
20 232
20 236
20 238
20 239
20 242
20 244
20 245
20 248
20 250
20 251
20 252
20 254
20 255
20 257
20 259
20 260
20 261
20 262
20 263
20 265
20 266
20 267
20 268
20 269
20 270
20 271
20 272
20 273
20 274
20 275
20 276
20 277
20 278
20 279
20 280
20 281
20 282
20 283
20 285
20 286
20 287
20 288
20 289
20 290
20 291
20 292
20 293
20 294
20 295
20 296
20 297
20 298
20 299
20 300
20 302
20 303
20 304
20 305
20 306
20 307
20 308
20 309
20 310
20 311
20 312
20 319
20 320
20 321
20 322
20 324
20 325
20 327
20 328
20 336
20 337
20 339
20 340
20 341
20 343
20 344
20 345
20 350
20 353
20 356
20 357
20 358
20 359
20 360
20 362
20 364
20 365
20 369
20 370
20 372
20 373
20 376
20 377
20 378
20 380
20 381
20 382
20 383
20 384
20 385
20 386
20 387
20 389
20 390
20 391
20 392
20 393
20 394
20 395
20 396
20 397
20 398
20 399
20 400
20 402
20 403
20 404
20 405
20 406
20 407
20 408
20 409
20 410
20 411
20 413
20 414
20 415
20 416
20 417
20 418
20 419
20 420
20 421
20 422
20 423
20 424
20 425
20 426
20 427
20 429
20 430
20 431
20 432
20 433
20 434
20 435
20 436
20 437
20 438
20 439
20 440
20 442
20 443
20 445
20 446
20 450
20 453
20 455
20 456
20 457
20 458
20 459
20 461
20 462
20 463
20 464
20 465
20 466
20 467
20 468
20 469
20 470
20 471
20 473
20 475
20 476
20 478
20 479
20 482
20 483
20 485
20 487
20 488
20 489
20 490
20 491
20 492
20 494
20 495
20 496
20 497
20 498
20 499
20 500
20 501
20 502
20 503
20 504
20 505
20 507
20 508
20 509
20 510
20 511
20 512
20 513
20 514
20 515
20 516
20 517
20 522
20 523
20 524
20 525
20 526
20 529
20 531
20 532
20 535
20 537
20 538
20 539
20 541
20 542
20 544
20 545
20 547
20 548
20 553
20 554
20 555
20 558
20 560
20 562
20 563
20 564
20 566
20 567
20 568
20 569
20 570
20 571
20 572
20 573
20 574
20 575
20 576
20 577
20 578
20 579
21 22
21 23
21 24
21 25
21 26
21 27
21 28
21 29
21 30
21 31
21 32
21 33
21 34
21 35
21 36
21 42
21 45
21 47
21 49
21 50
21 52
21 54
21 57
21 58
21 59
21 61
21 62
21 63
21 65
21 66
21 68
21 71
21 73
21 76
21 77
21 79
21 80
21 83
21 84
21 86
21 87
21 88
21 93
21 94
21 96
21 97
21 102
21 104
21 108
21 111
21 112
21 113
21 116
21 117
21 118
21 120
21 121
21 122
21 123
21 124
21 125
21 126
21 127
21 128
21 129
21 130
21 131
21 132
21 133
21 134
21 135
21 136
21 137
21 138
21 139
21 141
21 142
21 143
21 144
21 145
21 146
21 147
21 148
21 149
21 150
21 151
21 153
21 154
21 155
21 156
21 157
21 158
21 159
21 160
21 161
21 162
21 163
21 164
21 165
21 166
21 167
21 168
21 169
21 170
21 172
21 173
21 174
21 175
21 176
21 177
21 178
21 179
21 180
21 181
21 182
21 183
21 184
21 186
21 187
21 188
21 189
21 190
21 191
21 192
21 193
21 194
21 195
21 196
21 197
21 198
21 199
21 200
21 202
21 203
21 204
21 205
21 206
21 207
21 208
21 209
21 210
21 211
21 212
21 215
21 216
21 219
21 220
21 221
21 223
21 224
21 227
21 228
21 229
21 232
21 236
21 238
21 239
21 242
21 244
21 245
21 248
21 250
21 251
21 252
21 254
21 255
21 257
21 259
21 261
21 264
21 268
21 269
21 271
21 273
21 275
21 278
21 279
21 280
21 281
21 282
21 283
21 284
21 285
21 287
21 288
21 289
21 290
21 291
21 292
21 293
21 294
21 295
21 296
21 297
21 298
21 299
21 300
21 301
21 302
21 304
21 305
21 306
21 307
21 308
21 309
21 310
21 311
21 312
21 319
21 320
21 321
21 322
21 324
21 325
21 327
21 328
21 336
21 337
21 339
21 340
21 341
21 343
21 344
21 345
21 349
21 350
21 351
21 352
21 353
21 354
21 355
21 357
21 358
21 359
21 360
21 361
21 362
21 363
21 364
21 365
21 366
21 367
21 368
21 370
21 371
21 372
21 373
21 374
21 375
21 376
21 377
21 378
21 379
21 380
21 381
21 383
21 386
21 388
21 390
21 391
21 392
21 393
21 394
21 399
21 401
21 403
21 406
21 407
21 409
21 410
21 411
21 412
21 414
21 415
21 417
21 418
21 419
21 420
21 422
21 425
21 426
21 427
21 428
21 430
21 431
21 432
21 433
21 434
21 435
21 436
21 437
21 438
21 439
21 440
21 441
21 442
21 444
21 445
21 446
21 447
21 448
21 449
21 450
21 451
21 452
21 453
21 454
21 455
21 456
21 457
21 458
21 459
21 460
21 461
21 463
21 464
21 465
21 466
21 467
21 468
21 469
21 470
21 471
21 473
21 475
21 476
21 478
21 479
21 482
21 483
21 485
21 487
21 488
21 489
21 490
21 491
21 492
21 493
21 494
21 496
21 497
21 498
21 499
21 500
21 501
21 502
21 503
21 506
21 508
21 509
21 510
21 512
21 513
21 514
21 517
21 522
21 523
21 524
21 525
21 526
21 529
21 531
21 532
21 535
21 537
21 538
21 539
21 541
21 542
21 544
21 545
21 547
21 548
21 553
21 554
21 555
21 558
21 560
21 562
21 563
21 565
21 567
21 569
21 571
21 574
21 575
21 578
22 23
22 24
22 25
22 26
22 27
22 28
22 29
22 30
22 31
22 32
22 33
22 34
22 35
22 36
22 42
22 45
22 47
22 49
22 50
22 51
22 52
22 53
22 54
22 55
22 56
22 58
22 59
22 60
22 61
22 62
22 63
22 64
22 65
22 66
22 67
22 68
22 71
22 73
22 76
22 77
22 79
22 80
22 83
22 84
22 86
22 87
22 88
22 93
22 94
22 96
22 97
22 102
22 104
22 108
22 111
22 112
22 113
22 116
22 117
22 118
22 119
22 120
22 122
22 123
22 124
22 125
22 126
22 127
22 128
22 129
22 130
22 131
22 132
22 133
22 134
22 137
22 140
22 141
22 143
22 144
22 148
22 149
22 150
22 151
22 152
22 153
22 154
22 156
22 157
22 158
22 159
22 160
22 161
22 162
22 163
22 164
22 168
22 170
22 171
22 172
22 173
22 175
22 176
22 178
22 181
22 182
22 183
22 184
22 185
22 186
22 187
22 189
22 190
22 191
22 192
22 193
22 194
22 195
22 196
22 197
22 198
22 199
22 200
22 201
22 203
22 204
22 205
22 206
22 207
22 208
22 209
22 210
22 211
22 212
22 213
22 214
22 215
22 216
22 217
22 218
22 220
22 221
22 222
22 223
22 224
22 225
22 226
22 227
22 228
22 229
22 230
22 231
22 232
22 233
22 234
22 235
22 236
22 237
22 239
22 240
22 241
22 242
22 243
22 244
22 245
22 246
22 247
22 248
22 249
22 251
22 252
22 253
22 254
22 255
22 256
22 257
22 258
22 259
22 260
22 261
22 262
22 263
22 264
22 265
22 266
22 267
22 269
22 270
22 271
22 272
22 273
22 274
22 275
22 276
22 277
22 278
22 279
22 280
22 281
22 282
22 283
22 284
22 285
22 286
22 287
22 288
22 290
22 291
22 292
22 293
22 294
22 295
22 296
22 297
22 298
22 299
22 300
22 301
22 302
22 303
22 304
22 306
22 307
22 308
22 309
22 310
22 311
22 312
22 313
22 314
22 315
22 316
22 317
22 318
22 320
22 321
22 322
22 323
22 324
22 325
22 326
22 327
22 328
22 329
22 330
22 331
22 336
22 337
22 339
22 340
22 341
22 343
22 344
22 345
22 349
22 350
22 351
22 352
22 353
22 354
22 355
22 356
22 358
22 359
22 360
22 361
22 362
22 363
22 364
22 365
22 369
22 370
22 372
22 373
22 376
22 377
22 378
22 380
22 381
22 382
22 383
22 384
22 385
22 386
22 387
22 388
22 389
22 391
22 392
22 393
22 394
22 395
22 399
22 401
22 403
22 406
22 407
22 409
22 410
22 411
22 412
22 414
22 415
22 417
22 418
22 419
22 420
22 422
22 425
22 428
22 429
22 430
22 432
22 433
22 434
22 436
22 437
22 439
22 440
22 442
22 443
22 445
22 446
22 450
22 453
22 455
22 456
22 458
22 460
22 462
22 465
22 466
22 468
22 471
22 472
22 473
22 474
22 476
22 477
22 478
22 479
22 480
22 481
22 482
22 483
22 484
22 485
22 486
22 487
22 488
22 489
22 490
22 491
22 492
22 493
22 494
22 495
22 497
22 498
22 499
22 500
22 501
22 502
22 503
22 504
22 505
22 506
22 507
22 509
22 510
22 511
22 512
22 513
22 514
22 515
22 516
22 517
22 522
22 523
22 524
22 525
22 526
22 529
22 531
22 532
22 533
22 534
22 536
22 537
22 538
22 539
22 540
22 541
22 542
22 543
22 544
22 545
22 546
22 547
22 548
22 553
22 554
22 555
22 558
22 560
22 562
22 563
22 565
22 567
22 569
22 571
22 574
22 575
22 578
23 24
23 25
23 26
23 27
23 28
23 29
23 30
23 31
23 32
23 33
23 34
23 35
23 36
23 37
23 38
23 39
23 40
23 41
23 42
23 43
23 44
23 46
23 47
23 48
23 49
23 50
23 51
23 52
23 53
23 54
23 55
23 56
23 57
23 59
23 60
23 61
23 62
23 63
23 64
23 65
23 66
23 67
23 68
23 69
23 70
23 71
23 72
23 73
23 74
23 75
23 77
23 78
23 79
23 80
23 81
23 82
23 83
23 84
23 85
23 86
23 87
23 88
23 93
23 94
23 96
23 97
23 102
23 103
23 104
23 105
23 106
23 107
23 108
23 109
23 110
23 112
23 113
23 114
23 115
23 116
23 119
23 121
23 122
23 123
23 124
23 128
23 129
23 131
23 133
23 134
23 135
23 136
23 137
23 138
23 139
23 140
23 142
23 143
23 144
23 145
23 146
23 147
23 148
23 149
23 150
23 151
23 152
23 153
23 154
23 155
23 157
23 158
23 159
23 160
23 161
23 162
23 163
23 164
23 165
23 166
23 167
23 168
23 169
23 170
23 171
23 173
23 174
23 175
23 176
23 177
23 178
23 179
23 180
23 181
23 182
23 183
23 184
23 185
23 186
23 187
23 188
23 190
23 191
23 192
23 193
23 194
23 195
23 196
23 197
23 198
23 200
23 201
23 202
23 205
23 206
23 209
23 211
23 215
23 216
23 219
23 220
23 221
23 223
23 224
23 227
23 228
23 229
23 232
23 236
23 238
23 239
23 242
23 244
23 245
23 246
23 247
23 248
23 249
23 250
23 252
23 253
23 254
23 255
23 256
23 257
23 258
23 259
23 261
23 264
23 268
23 269
23 271
23 273
23 275
23 278
23 279
23 284
23 286
23 289
23 290
23 293
23 294
23 295
23 296
23 297
23 298
23 299
23 300
23 301
23 302
23 303
23 304
23 305
23 307
23 308
23 309
23 310
23 311
23 312
23 313
23 314
23 315
23 316
23 317
23 318
23 319
23 321
23 322
23 323
23 324
23 325
23 326
23 327
23 328
23 329
23 330
23 331
23 332
23 333
23 334
23 335
23 337
23 338
23 339
23 340
23 341
23 342
23 343
23 344
23 345
23 346
23 347
23 348
23 349
23 350
23 351
23 352
23 353
23 354
23 355
23 356
23 357
23 359
23 360
23 361
23 362
23 363
23 364
23 365
23 366
23 367
23 368
23 369
23 371
23 372
23 373
23 374
23 375
23 376
23 377
23 378
23 379
23 380
23 381
23 383
23 386
23 388
23 390
23 391
23 392
23 393
23 394
23 399
23 401
23 403
23 406
23 407
23 409
23 410
23 411
23 412
23 413
23 415
23 416
23 417
23 418
23 419
23 420
23 421
23 422
23 423
23 424
23 425
23 428
23 429
23 430
23 432
23 433
23 434
23 436
23 437
23 439
23 440
23 442
23 443
23 445
23 446
23 450
23 453
23 455
23 456
23 458
23 460
23 462
23 465
23 466
23 468
23 471
23 473
23 475
23 476
23 478
23 479
23 482
23 483
23 485
23 487
23 488
23 491
23 493
23 495
23 496
23 497
23 498
23 499
23 501
23 503
23 506
23 508
23 509
23 510
23 512
23 513
23 514
23 517
23 522
23 523
23 524
23 525
23 526
23 529
23 531
23 532
23 535
23 537
23 538
23 539
23 541
23 542
23 544
23 545
23 547
23 548
23 549
23 550
23 551
23 552
23 554
23 555
23 556
23 557
23 558
23 559
23 560
23 561
23 562
23 563
23 564
23 565
23 566
23 568
23 569
23 570
23 571
23 572
23 573
23 574
23 575
23 576
23 577
23 578
23 579
24 25
24 26
24 27
24 28
24 29
24 30
24 31
24 32
24 33
24 34
24 35
24 36
24 42
24 45
24 47
24 49
24 50
24 51
24 52
24 53
24 54
24 55
24 56
24 57
24 58
24 60
24 61
24 62
24 63
24 64
24 65
24 66
24 67
24 68
24 69
24 70
24 71
24 72
24 73
24 74
24 75
24 76
24 78
24 79
24 80
24 81
24 82
24 83
24 84
24 85
24 86
24 87
24 88
24 93
24 94
24 96
24 97
24 102
24 104
24 108
24 111
24 112
24 113
24 116
24 117
24 118
24 119
24 120
24 121
24 123
24 124
24 125
24 126
24 127
24 128
24 129
24 130
24 131
24 132
24 133
24 134
24 137
24 140
24 141
24 143
24 144
24 148
24 149
24 150
24 151
24 152
24 153
24 154
24 155
24 156
24 158
24 159
24 160
24 161
24 162
24 163
24 164
24 165
24 166
24 167
24 168
24 169
24 170
24 171
24 172
24 174
24 175
24 176
24 177
24 178
24 179
24 180
24 183
24 185
24 188
24 189
24 192
24 193
24 194
24 195
24 196
24 198
24 200
24 201
24 202
24 205
24 206
24 209
24 211
24 215
24 216
24 219
24 220
24 221
24 223
24 224
24 227
24 228
24 229
24 232
24 236
24 238
24 239
24 242
24 244
24 245
24 246
24 247
24 248
24 249
24 250
24 251
24 253
24 254
24 255
24 256
24 257
24 258
24 259
24 260
24 261
24 262
24 263
24 264
24 265
24 266
24 267
24 268
24 270
24 271
24 272
24 273
24 274
24 275
24 276
24 277
24 278
24 279
24 284
24 286
24 289
24 290
24 293
24 294
24 295
24 298
24 300
24 301
24 303
24 305
24 306
24 307
24 308
24 309
24 310
24 319
24 320
24 321
24 322
24 324
24 325
24 327
24 328
24 332
24 333
24 334
24 335
24 336
24 338
24 339
24 340
24 341
24 342
24 343
24 344
24 345
24 346
24 347
24 348
24 349
24 350
24 351
24 352
24 353
24 354
24 355
24 356
24 357
24 358
24 360
24 361
24 362
24 363
24 364
24 365
24 369
24 370
24 372
24 373
24 376
24 377
24 378
24 380
24 381
24 382
24 383
24 384
24 385
24 386
24 387
24 388
24 389
24 390
24 392
24 393
24 394
24 395
24 396
24 397
24 398
24 399
24 400
24 401
24 402
24 404
24 405
24 406
24 407
24 408
24 409
24 410
24 411
24 412
24 414
24 415
24 417
24 418
24 419
24 420
24 422
24 425
24 426
24 427
24 428
24 429
24 431
24 432
24 433
24 434
24 435
24 436
24 437
24 438
24 439
24 440
24 441
24 442
24 443
24 444
24 446
24 447
24 448
24 449
24 450
24 451
24 452
24 453
24 454
24 455
24 456
24 458
24 460
24 462
24 465
24 466
24 468
24 471
24 472
24 473
24 474
24 475
24 477
24 478
24 479
24 480
24 481
24 482
24 483
24 484
24 485
24 486
24 487
24 488
24 489
24 490
24 491
24 492
24 493
24 494
24 495
24 496
24 498
24 499
24 500
24 501
24 502
24 503
24 506
24 508
24 509
24 510
24 512
24 513
24 514
24 517
24 518
24 519
24 520
24 521
24 523
24 524
24 525
24 526
24 527
24 528
24 529
24 530
24 531
24 532
24 535
24 537
24 538
24 539
24 541
24 542
24 544
24 545
24 547
24 548
24 553
24 554
24 555
24 558
24 560
24 562
24 563
24 565
24 567
24 569
24 571
24 574
24 575
24 578
25 26
25 27
25 28
25 29
25 30
25 31
25 32
25 33
25 34
25 35
25 36
25 37
25 38
25 39
25 40
25 41
25 42
25 43
25 44
25 45
25 46
25 48
25 49
25 50
25 51
25 52
25 53
25 54
25 55
25 56
25 57
25 58
25 59
25 60
25 62
25 63
25 64
25 65
25 66
25 67
25 68
25 71
25 73
25 76
25 77
25 79
25 80
25 83
25 84
25 86
25 87
25 88
25 93
25 94
25 96
25 97
25 102
25 104
25 108
25 111
25 112
25 113
25 116
25 119
25 121
25 122
25 123
25 124
25 128
25 129
25 131
25 133
25 134
25 137
25 140
25 141
25 143
25 144
25 148
25 149
25 152
25 155
25 156
25 157
25 158
25 159
25 160
25 163
25 164
25 168
25 170
25 171
25 172
25 173
25 175
25 176
25 178
25 183
25 185
25 188
25 189
25 192
25 193
25 194
25 195
25 196
25 198
25 200
25 201
25 202
25 205
25 206
25 209
25 211
25 213
25 214
25 215
25 216
25 217
25 218
25 219
25 221
25 222
25 223
25 224
25 225
25 226
25 227
25 228
25 229
25 230
25 231
25 232
25 233
25 234
25 235
25 236
25 237
25 238
25 240
25 241
25 242
25 243
25 244
25 245
25 246
25 247
25 248
25 249
25 250
25 251
25 252
25 253
25 255
25 256
25 257
25 258
25 259
25 261
25 264
25 268
25 269
25 271
25 273
25 275
25 278
25 279
25 284
25 286
25 289
25 290
25 293
25 294
25 295
25 296
25 297
25 298
25 299
25 300
25 301
25 302
25 303
25 304
25 305
25 306
25 308
25 309
25 310
25 311
25 312
25 313
25 314
25 315
25 316
25 317
25 318
25 319
25 320
25 322
25 323
25 324
25 325
25 326
25 327
25 328
25 329
25 330
25 331
25 332
25 333
25 334
25 335
25 336
25 337
25 338
25 340
25 341
25 342
25 343
25 344
25 345
25 346
25 347
25 348
25 350
25 353
25 356
25 357
25 358
25 359
25 360
25 362
25 364
25 365
25 369
25 370
25 372
25 373
25 376
25 377
25 378
25 380
25 381
25 383
25 386
25 388
25 390
25 391
25 392
25 393
25 394
25 399
25 401
25 403
25 406
25 407
25 409
25 410
25 411
25 412
25 414
25 415
25 417
25 418
25 419
25 420
25 422
25 425
25 426
25 427
25 428
25 429
25 430
25 431
25 433
25 434
25 435
25 436
25 437
25 438
25 439
25 440
25 442
25 443
25 445
25 446
25 450
25 453
25 455
25 456
25 457
25 458
25 459
25 460
25 461
25 462
25 463
25 464
25 466
25 467
25 468
25 469
25 470
25 471
25 473
25 475
25 476
25 478
25 479
25 482
25 483
25 485
25 487
25 488
25 491
25 493
25 495
25 496
25 497
25 498
25 499
25 501
25 503
25 504
25 505
25 506
25 507
25 508
25 510
25 511
25 512
25 513
25 514
25 515
25 516
25 517
25 522
25 523
25 524
25 525
25 526
25 529
25 531
25 532
25 533
25 534
25 535
25 536
25 538
25 539
25 540
25 541
25 542
25 543
25 544
25 545
25 546
25 547
25 548
25 549
25 550
25 551
25 552
25 553
25 555
25 556
25 557
25 558
25 559
25 560
25 561
25 562
25 563
25 565
25 567
25 569
25 571
25 574
25 575
25 578
26 27
26 28
26 29
26 30
26 31
26 32
26 33
26 34
26 35
26 36
26 42
26 45
26 47
26 49
26 50
26 51
26 52
26 53
26 54
26 55
26 56
26 57
26 58
26 59
26 60
26 61
26 63
26 64
26 65
26 66
26 67
26 68
26 69
26 70
26 71
26 72
26 73
26 74
26 75
26 76
26 77
26 78
26 80
26 81
26 82
26 83
26 84
26 85
26 86
26 87
26 88
26 89
26 90
26 91
26 92
26 94
26 95
26 96
26 97
26 98
26 99
26 100
26 101
26 102
26 103
26 104
26 105
26 106
26 107
26 108
26 109
26 110
26 111
26 113
26 114
26 115
26 116
26 117
26 118
26 119
26 120
26 121
26 122
26 124
26 125
26 126
26 127
26 128
26 129
26 130
26 131
26 132
26 133
26 134
26 137
26 140
26 141
26 143
26 144
26 148
26 149
26 152
26 155
26 156
26 157
26 158
26 159
26 160
26 163
26 164
26 168
26 170
26 171
26 172
26 173
26 175
26 176
26 178
26 183
26 185
26 188
26 189
26 192
26 193
26 194
26 195
26 196
26 198
26 200
26 201
26 202
26 205
26 206
26 209
26 211
26 215
26 216
26 219
26 220
26 221
26 223
26 224
26 227
26 228
26 229
26 232
26 236
26 238
26 239
26 242
26 244
26 245
26 246
26 247
26 248
26 249
26 250
26 251
26 252
26 253
26 254
26 256
26 257
26 258
26 259
26 261
26 264
26 268
26 269
26 271
26 273
26 275
26 278
26 279
26 280
26 281
26 282
26 283
26 284
26 285
26 286
26 287
26 288
26 289
26 291
26 292
26 293
26 294
26 295
26 298
26 300
26 301
26 303
26 305
26 306
26 307
26 308
26 309
26 310
26 313
26 314
26 315
26 316
26 317
26 318
26 319
26 320
26 321
26 323
26 324
26 325
26 326
26 327
26 328
26 329
26 330
26 331
26 332
26 333
26 334
26 335
26 336
26 337
26 338
26 339
26 341
26 342
26 343
26 344
26 345
26 346
26 347
26 348
26 349
26 350
26 351
26 352
26 353
26 354
26 355
26 356
26 357
26 358
26 359
26 361
26 362
26 363
26 364
26 365
26 369
26 370
26 372
26 373
26 376
26 377
26 378
26 380
26 381
26 383
26 386
26 388
26 390
26 391
26 392
26 393
26 394
26 399
26 401
26 403
26 406
26 407
26 409
26 410
26 411
26 412
26 413
26 414
26 416
26 417
26 418
26 419
26 420
26 421
26 422
26 423
26 424
26 425
26 426
26 427
26 428
26 429
26 430
26 431
26 432
26 434
26 435
26 436
26 437
26 438
26 439
26 440
26 441
26 442
26 443
26 444
26 445
26 447
26 448
26 449
26 450
26 451
26 452
26 453
26 454
26 455
26 456
26 458
26 460
26 462
26 465
26 466
26 468
26 471
26 473
26 475
26 476
26 478
26 479
26 482
26 483
26 485
26 487
26 488
26 489
26 490
26 491
26 492
26 493
26 494
26 495
26 496
26 497
26 499
26 500
26 501
26 502
26 503
26 504
26 505
26 506
26 507
26 508
26 509
26 511
26 512
26 513
26 514
26 515
26 516
26 517
26 522
26 523
26 524
26 525
26 526
26 529
26 531
26 532
26 535
26 537
26 538
26 539
26 541
26 542
26 544
26 545
26 547
26 548
26 553
26 554
26 555
26 558
26 560
26 562
26 563
26 565
26 567
26 569
26 571
26 574
26 575
26 578
27 28
27 29
27 30
27 31
27 32
27 33
27 34
27 35
27 36
27 42
27 45
27 47
27 49
27 50
27 51
27 52
27 53
27 54
27 55
27 56
27 57
27 58
27 59
27 60
27 61
27 62
27 64
27 65
27 66
27 67
27 68
27 69
27 70
27 71
27 72
27 73
27 74
27 75
27 76
27 77
27 78
27 79
27 81
27 82
27 83
27 84
27 85
27 86
27 87
27 88
27 89
27 90
27 91
27 92
27 93
27 95
27 96
27 97
27 98
27 99
27 100
27 101
27 102
27 104
27 108
27 111
27 112
27 113
27 116
27 117
27 118
27 119
27 120
27 121
27 122
27 123
27 125
27 126
27 127
27 128
27 129
27 130
27 131
27 132
27 133
27 134
27 135
27 136
27 137
27 138
27 139
27 140
27 141
27 142
27 144
27 145
27 146
27 147
27 148
27 149
27 152
27 155
27 156
27 157
27 158
27 159
27 160
27 163
27 164
27 165
27 166
27 167
27 168
27 169
27 170
27 171
27 172
27 173
27 174
27 176
27 177
27 178
27 179
27 180
27 183
27 185
27 188
27 189
27 192
27 193
27 194
27 195
27 196
27 198
27 200
27 201
27 202
27 205
27 206
27 209
27 211
27 213
27 214
27 215
27 216
27 217
27 218
27 219
27 220
27 222
27 223
27 224
27 225
27 226
27 227
27 228
27 229
27 232
27 236
27 238
27 239
27 242
27 244
27 245
27 248
27 250
27 251
27 252
27 254
27 255
27 257
27 259
27 260
27 261
27 262
27 263
27 264
27 265
27 266
27 267
27 268
27 269
27 270
27 272
27 273
27 274
27 275
27 276
27 277
27 278
27 279
27 284
27 286
27 289
27 290
27 293
27 294
27 295
27 296
27 297
27 298
27 299
27 300
27 301
27 302
27 303
27 304
27 305
27 306
27 307
27 309
27 310
27 311
27 312
27 319
27 320
27 321
27 322
27 324
27 325
27 327
27 328
27 332
27 333
27 334
27 335
27 336
27 337
27 338
27 339
27 340
27 342
27 343
27 344
27 345
27 346
27 347
27 348
27 350
27 353
27 356
27 357
27 358
27 359
27 360
27 362
27 364
27 365
27 369
27 370
27 372
27 373
27 376
27 377
27 378
27 380
27 381
27 382
27 383
27 384
27 385
27 386
27 387
27 388
27 389
27 390
27 391
27 393
27 394
27 395
27 399
27 401
27 403
27 406
27 407
27 409
27 410
27 411
27 412
27 414
27 415
27 417
27 418
27 419
27 420
27 422
27 425
27 426
27 427
27 428
27 429
27 430
27 431
27 432
27 433
27 435
27 436
27 437
27 438
27 439
27 440
27 442
27 443
27 445
27 446
27 450
27 453
27 455
27 456
27 457
27 458
27 459
27 460
27 461
27 462
27 463
27 464
27 465
27 467
27 468
27 469
27 470
27 471
27 473
27 475
27 476
27 478
27 479
27 482
27 483
27 485
27 487
27 488
27 491
27 493
27 495
27 496
27 497
27 498
27 499
27 501
27 503
27 506
27 508
27 509
27 510
27 512
27 513
27 514
27 517
27 518
27 519
27 520
27 521
27 522
27 524
27 525
27 526
27 527
27 528
27 529
27 530
27 531
27 532
27 533
27 534
27 535
27 536
27 537
27 539
27 540
27 541
27 542
27 543
27 544
27 545
27 546
27 547
27 548
27 549
27 550
27 551
27 552
27 553
27 554
27 556
27 557
27 558
27 559
27 560
27 561
27 562
27 563
27 564
27 565
27 566
27 567
27 568
27 570
27 571
27 572
27 573
27 574
27 575
27 576
27 577
27 578
27 579
28 29
28 30
28 31
28 32
28 33
28 34
28 35
28 36
28 42
28 45
28 47
28 49
28 50
28 52
28 54
28 57
28 58
28 59
28 61
28 62
28 63
28 65
28 66
28 68
28 71
28 73
28 76
28 77
28 79
28 80
28 83
28 84
28 86
28 87
28 88
28 89
28 90
28 91
28 92
28 93
28 94
28 95
28 97
28 98
28 99
28 100
28 101
28 102
28 103
28 104
28 105
28 106
28 107
28 108
28 109
28 110
28 111
28 112
28 114
28 115
28 116
28 119
28 121
28 122
28 123
28 124
28 128
28 129
28 131
28 133
28 134
28 137
28 140
28 141
28 143
28 144
28 148
28 149
28 150
28 151
28 152
28 153
28 154
28 155
28 156
28 157
28 159
28 160
28 161
28 162
28 163
28 164
28 165
28 166
28 167
28 168
28 169
28 170
28 171
28 172
28 173
28 174
28 175
28 177
28 178
28 179
28 180
28 181
28 182
28 183
28 184
28 185
28 186
28 187
28 188
28 189
28 190
28 191
28 193
28 194
28 195
28 196
28 197
28 198
28 200
28 201
28 202
28 205
28 206
28 209
28 211
28 213
28 214
28 215
28 216
28 217
28 218
28 219
28 220
28 221
28 222
28 224
28 225
28 226
28 227
28 228
28 229
28 232
28 236
28 238
28 239
28 242
28 244
28 245
28 248
28 250
28 251
28 252
28 254
28 255
28 257
28 259
28 260
28 261
28 262
28 263
28 264
28 265
28 266
28 267
28 268
28 269
28 270
28 271
28 272
28 274
28 275
28 276
28 277
28 278
28 279
28 284
28 286
28 289
28 290
28 293
28 294
28 295
28 296
28 297
28 298
28 299
28 300
28 301
28 302
28 303
28 304
28 305
28 306
28 307
28 308
28 310
28 311
28 312
28 313
28 314
28 315
28 316
28 317
28 318
28 319
28 320
28 321
28 322
28 323
28 325
28 326
28 327
28 328
28 329
28 330
28 331
28 336
28 337
28 339
28 340
28 341
28 343
28 344
28 345
28 350
28 353
28 356
28 357
28 358
28 359
28 360
28 362
28 364
28 365
28 366
28 367
28 368
28 369
28 370
28 371
28 373
28 374
28 375
28 376
28 377
28 378
28 379
28 380
28 381
28 383
28 386
28 388
28 390
28 391
28 392
28 393
28 394
28 399
28 401
28 403
28 406
28 407
28 409
28 410
28 411
28 412
28 414
28 415
28 417
28 418
28 419
28 420
28 422
28 425
28 426
28 427
28 428
28 429
28 430
28 431
28 432
28 433
28 434
28 435
28 437
28 438
28 439
28 440
28 442
28 443
28 445
28 446
28 450
28 453
28 455
28 456
28 458
28 460
28 462
28 465
28 466
28 468
28 471
28 472
28 473
28 474
28 475
28 476
28 477
28 479
28 480
28 481
28 482
28 483
28 484
28 485
28 486
28 487
28 488
28 489
28 490
28 491
28 492
28 493
28 494
28 495
28 496
28 497
28 498
28 500
28 501
28 502
28 503
28 506
28 508
28 509
28 510
28 512
28 513
28 514
28 517
28 518
28 519
28 520
28 521
28 522
28 523
28 525
28 526
28 527
28 528
28 529
28 530
28 531
28 532
28 533
28 534
28 535
28 536
28 537
28 538
28 540
28 541
28 542
28 543
28 544
28 545
28 546
28 547
28 548
28 553
28 554
28 555
28 558
28 560
28 562
28 563
28 564
28 565
28 566
28 567
28 568
28 569
28 570
28 572
28 573
28 574
28 575
28 576
28 577
28 578
28 579
29 30
29 31
29 32
29 33
29 34
29 35
29 36
29 42
29 45
29 47
29 49
29 50
29 52
29 54
29 57
29 58
29 59
29 61
29 62
29 63
29 65
29 66
29 68
29 71
29 73
29 76
29 77
29 79
29 80
29 83
29 84
29 86
29 87
29 88
29 89
29 90
29 91
29 92
29 93
29 94
29 95
29 96
29 98
29 99
29 100
29 101
29 102
29 104
29 108
29 111
29 112
29 113
29 116
29 119
29 121
29 122
29 123
29 124
29 128
29 129
29 131
29 133
29 134
29 135
29 136
29 137
29 138
29 139
29 140
29 141
29 142
29 143
29 145
29 146
29 147
29 148
29 149
29 150
29 151
29 152
29 153
29 154
29 155
29 156
29 157
29 158
29 160
29 161
29 162
29 163
29 164
29 168
29 170
29 171
29 172
29 173
29 175
29 176
29 178
29 181
29 182
29 183
29 184
29 185
29 186
29 187
29 188
29 189
29 190
29 191
29 192
29 194
29 195
29 196
29 197
29 198
29 199
29 200
29 201
29 202
29 203
29 204
29 206
29 207
29 208
29 209
29 210
29 211
29 212
29 213
29 214
29 215
29 216
29 217
29 218
29 219
29 220
29 221
29 222
29 223
29 225
29 226
29 227
29 228
29 229
29 232
29 236
29 238
29 239
29 242
29 244
29 245
29 248
29 250
29 251
29 252
29 254
29 255
29 257
29 259
29 261
29 264
29 268
29 269
29 271
29 273
29 275
29 278
29 279
29 284
29 286
29 289
29 290
29 293
29 294
29 295
29 298
29 300
29 301
29 303
29 305
29 306
29 307
29 308
29 309
29 310
29 313
29 314
29 315
29 316
29 317
29 318
29 319
29 320
29 321
29 322
29 323
29 324
29 326
29 327
29 328
29 329
29 330
29 331
29 332
29 333
29 334
29 335
29 336
29 337
29 338
29 339
29 340
29 341
29 342
29 344
29 345
29 346
29 347
29 348
29 349
29 350
29 351
29 352
29 353
29 354
29 355
29 356
29 357
29 358
29 359
29 360
29 361
29 363
29 364
29 365
29 366
29 367
29 368
29 369
29 370
29 371
29 372
29 374
29 375
29 376
29 377
29 378
29 379
29 380
29 381
29 382
29 383
29 384
29 385
29 386
29 387
29 388
29 389
29 390
29 391
29 392
29 394
29 395
29 396
29 397
29 398
29 399
29 400
29 401
29 402
29 403
29 404
29 405
29 407
29 408
29 409
29 410
29 411
29 412
29 413
29 414
29 415
29 416
29 418
29 419
29 420
29 421
29 422
29 423
29 424
29 425
29 428
29 429
29 430
29 432
29 433
29 434
29 436
29 437
29 439
29 440
29 442
29 443
29 445
29 446
29 450
29 453
29 455
29 456
29 458
29 460
29 462
29 465
29 466
29 468
29 471
29 472
29 473
29 474
29 475
29 476
29 477
29 478
29 480
29 481
29 482
29 483
29 484
29 485
29 486
29 487
29 488
29 491
29 493
29 495
29 496
29 497
29 498
29 499
29 501
29 503
29 506
29 508
29 509
29 510
29 512
29 513
29 514
29 517
29 522
29 523
29 524
29 525
29 526
29 529
29 531
29 532
29 535
29 537
29 538
29 539
29 541
29 542
29 544
29 545
29 547
29 548
29 553
29 554
29 555
29 558
29 560
29 562
29 563
29 565
29 567
29 569
29 571
29 574
29 575
29 578
30 31
30 32
30 33
30 34
30 35
30 36
30 42
30 45
30 47
30 49
30 50
30 52
30 54
30 57
30 58
30 59
30 61
30 62
30 63
30 65
30 66
30 68
30 69
30 70
30 71
30 72
30 73
30 74
30 75
30 76
30 77
30 78
30 79
30 80
30 81
30 82
30 84
30 85
30 86
30 87
30 88
30 93
30 94
30 96
30 97
30 102
30 104
30 108
30 111
30 112
30 113
30 116
30 119
30 121
30 122
30 123
30 124
30 128
30 129
30 131
30 133
30 134
30 137
30 140
30 141
30 143
30 144
30 148
30 149
30 152
30 155
30 156
30 157
30 158
30 159
30 160
30 163
30 164
30 168
30 170
30 171
30 172
30 173
30 175
30 176
30 178
30 181
30 182
30 183
30 184
30 185
30 186
30 187
30 188
30 189
30 190
30 191
30 192
30 193
30 195
30 196
30 197
30 198
30 200
30 201
30 202
30 205
30 206
30 209
30 211
30 213
30 214
30 215
30 216
30 217
30 218
30 219
30 220
30 221
30 222
30 223
30 224
30 225
30 226
30 228
30 229
30 232
30 236
30 238
30 239
30 242
30 244
30 245
30 246
30 247
30 248
30 249
30 250
30 251
30 252
30 253
30 254
30 255
30 256
30 258
30 259
30 261
30 264
30 268
30 269
30 271
30 273
30 275
30 278
30 279
30 284
30 286
30 289
30 290
30 293
30 294
30 295
30 296
30 297
30 298
30 299
30 300
30 301
30 302
30 303
30 304
30 305
30 306
30 307
30 308
30 309
30 311
30 312
30 313
30 314
30 315
30 316
30 317
30 318
30 319
30 320
30 321
30 322
30 323
30 324
30 325
30 326
30 328
30 329
30 330
30 331
30 336
30 337
30 339
30 340
30 341
30 343
30 344
30 345
30 350
30 353
30 356
30 357
30 358
30 359
30 360
30 362
30 364
30 365
30 366
30 367
30 368
30 369
30 370
30 371
30 372
30 373
30 374
30 375
30 377
30 378
30 379
30 380
30 381
30 382
30 383
30 384
30 385
30 386
30 387
30 388
30 389
30 390
30 391
30 392
30 393
30 395
30 396
30 397
30 398
30 399
30 400
30 401
30 402
30 403
30 404
30 405
30 406
30 408
30 409
30 410
30 411
30 412
30 413
30 414
30 415
30 416
30 417
30 419
30 420
30 421
30 422
30 423
30 424
30 425
30 428
30 429
30 430
30 432
30 433
30 434
30 436
30 437
30 439
30 440
30 441
30 442
30 443
30 444
30 445
30 446
30 447
30 448
30 449
30 451
30 452
30 453
30 454
30 455
30 456
30 458
30 460
30 462
30 465
30 466
30 468
30 471
30 472
30 473
30 474
30 475
30 476
30 477
30 478
30 479
30 480
30 481
30 483
30 484
30 485
30 486
30 487
30 488
30 491
30 493
30 495
30 496
30 497
30 498
30 499
30 501
30 503
30 504
30 505
30 506
30 507
30 508
30 509
30 510
30 511
30 513
30 514
30 515
30 516
30 517
30 522
30 523
30 524
30 525
30 526
30 529
30 531
30 532
30 533
30 534
30 535
30 536
30 537
30 538
30 539
30 540
30 542
30 543
30 544
30 545
30 546
30 547
30 548
30 553
30 554
30 555
30 558
30 560
30 562
30 563
30 564
30 565
30 566
30 567
30 568
30 569
30 570
30 571
30 572
30 573
30 575
30 576
30 577
30 578
30 579
31 32
31 33
31 34
31 35
31 36
31 37
31 38
31 39
31 40
31 41
31 42
31 43
31 44
31 45
31 46
31 47
31 48
31 50
31 51
31 52
31 53
31 54
31 55
31 56
31 57
31 58
31 59
31 60
31 61
31 62
31 63
31 64
31 66
31 67
31 68
31 71
31 73
31 76
31 77
31 79
31 80
31 83
31 84
31 86
31 87
31 88
31 93
31 94
31 96
31 97
31 102
31 104
31 108
31 111
31 112
31 113
31 116
31 117
31 118
31 119
31 120
31 121
31 122
31 123
31 124
31 125
31 126
31 127
31 129
31 130
31 131
31 132
31 133
31 134
31 137
31 140
31 141
31 143
31 144
31 148
31 149
31 150
31 151
31 152
31 153
31 154
31 155
31 156
31 157
31 158
31 159
31 161
31 162
31 163
31 164
31 168
31 170
31 171
31 172
31 173
31 175
31 176
31 178
31 183
31 185
31 188
31 189
31 192
31 193
31 194
31 195
31 196
31 198
31 200
31 201
31 202
31 205
31 206
31 209
31 211
31 215
31 216
31 219
31 220
31 221
31 223
31 224
31 227
31 228
31 229
31 232
31 236
31 238
31 239
31 242
31 244
31 245
31 248
31 250
31 251
31 252
31 254
31 255
31 257
31 259
31 260
31 261
31 262
31 263
31 264
31 265
31 266
31 267
31 268
31 269
31 270
31 271
31 272
31 273
31 274
31 276
31 277
31 278
31 279
31 284
31 286
31 289
31 290
31 293
31 294
31 295
31 298
31 300
31 301
31 303
31 305
31 306
31 307
31 308
31 309
31 310
31 313
31 314
31 315
31 316
31 317
31 318
31 319
31 320
31 321
31 322
31 323
31 324
31 325
31 326
31 327
31 329
31 330
31 331
31 332
31 333
31 334
31 335
31 336
31 337
31 338
31 339
31 340
31 341
31 342
31 343
31 345
31 346
31 347
31 348
31 349
31 350
31 351
31 352
31 353
31 354
31 355
31 356
31 357
31 358
31 359
31 360
31 361
31 362
31 363
31 365
31 366
31 367
31 368
31 369
31 370
31 371
31 372
31 373
31 374
31 375
31 376
31 378
31 379
31 380
31 381
31 383
31 386
31 388
31 390
31 391
31 392
31 393
31 394
31 399
31 401
31 403
31 406
31 407
31 409
31 410
31 411
31 412
31 413
31 414
31 415
31 416
31 417
31 418
31 420
31 421
31 422
31 423
31 424
31 425
31 428
31 429
31 430
31 432
31 433
31 434
31 436
31 437
31 439
31 440
31 442
31 443
31 445
31 446
31 450
31 453
31 455
31 456
31 457
31 458
31 459
31 460
31 461
31 462
31 463
31 464
31 465
31 466
31 467
31 469
31 470
31 471
31 472
31 473
31 474
31 475
31 476
31 477
31 478
31 479
31 480
31 481
31 482
31 484
31 485
31 486
31 487
31 488
31 491
31 493
31 495
31 496
31 497
31 498
31 499
31 501
31 503
31 504
31 505
31 506
31 507
31 508
31 509
31 510
31 511
31 512
31 514
31 515
31 516
31 517
31 518
31 519
31 520
31 521
31 522
31 523
31 524
31 526
31 527
31 528
31 529
31 530
31 531
31 532
31 533
31 534
31 535
31 536
31 537
31 538
31 539
31 540
31 541
31 543
31 544
31 545
31 546
31 547
31 548
31 553
31 554
31 555
31 558
31 560
31 562
31 563
31 565
31 567
31 569
31 571
31 574
31 575
31 578
32 33
32 34
32 35
32 36
32 42
32 45
32 47
32 49
32 50
32 52
32 54
32 57
32 58
32 59
32 61
32 62
32 63
32 65
32 66
32 68
32 69
32 70
32 71
32 72
32 73
32 74
32 75
32 76
32 77
32 78
32 79
32 80
32 81
32 82
32 83
32 85
32 86
32 87
32 88
32 93
32 94
32 96
32 97
32 102
32 104
32 108
32 111
32 112
32 113
32 116
32 117
32 118
32 119
32 120
32 121
32 122
32 123
32 124
32 125
32 126
32 127
32 128
32 130
32 131
32 132
32 133
32 134
32 137
32 140
32 141
32 143
32 144
32 148
32 149
32 152
32 155
32 156
32 157
32 158
32 159
32 160
32 163
32 164
32 165
32 166
32 167
32 168
32 169
32 170
32 171
32 172
32 173
32 174
32 175
32 176
32 177
32 179
32 180
32 181
32 182
32 183
32 184
32 185
32 186
32 187
32 188
32 189
32 190
32 191
32 192
32 193
32 194
32 196
32 197
32 198
32 199
32 200
32 201
32 202
32 203
32 204
32 205
32 207
32 208
32 209
32 210
32 211
32 212
32 215
32 216
32 219
32 220
32 221
32 223
32 224
32 227
32 228
32 229
32 230
32 231
32 232
32 233
32 234
32 235
32 236
32 237
32 238
32 239
32 240
32 241
32 243
32 244
32 245
32 248
32 250
32 251
32 252
32 254
32 255
32 257
32 259
32 261
32 264
32 268
32 269
32 271
32 273
32 275
32 278
32 279
32 280
32 281
32 282
32 283
32 284
32 285
32 286
32 287
32 288
32 289
32 290
32 291
32 292
32 294
32 295
32 298
32 300
32 301
32 303
32 305
32 306
32 307
32 308
32 309
32 310
32 319
32 320
32 321
32 322
32 324
32 325
32 327
32 328
32 332
32 333
32 334
32 335
32 336
32 337
32 338
32 339
32 340
32 341
32 342
32 343
32 344
32 346
32 347
32 348
32 350
32 353
32 356
32 357
32 358
32 359
32 360
32 362
32 364
32 365
32 366
32 367
32 368
32 369
32 370
32 371
32 372
32 373
32 374
32 375
32 376
32 377
32 379
32 380
32 381
32 383
32 386
32 388
32 390
32 391
32 392
32 393
32 394
32 399
32 401
32 403
32 406
32 407
32 409
32 410
32 411
32 412
32 413
32 414
32 415
32 416
32 417
32 418
32 419
32 421
32 422
32 423
32 424
32 425
32 426
32 427
32 428
32 429
32 430
32 431
32 432
32 433
32 434
32 435
32 436
32 438
32 439
32 440
32 442
32 443
32 445
32 446
32 450
32 453
32 455
32 456
32 458
32 460
32 462
32 465
32 466
32 468
32 471
32 473
32 475
32 476
32 478
32 479
32 482
32 483
32 485
32 487
32 488
32 489
32 490
32 491
32 492
32 493
32 494
32 495
32 496
32 497
32 498
32 499
32 500
32 502
32 503
32 504
32 505
32 506
32 507
32 508
32 509
32 510
32 511
32 512
32 513
32 515
32 516
32 517
32 518
32 519
32 520
32 521
32 522
32 523
32 524
32 525
32 527
32 528
32 529
32 530
32 531
32 532
32 535
32 537
32 538
32 539
32 541
32 542
32 544
32 545
32 547
32 548
32 553
32 554
32 555
32 558
32 560
32 562
32 563
32 564
32 565
32 566
32 567
32 568
32 569
32 570
32 571
32 572
32 573
32 574
32 576
32 577
32 578
32 579
33 34
33 35
33 36
33 42
33 45
33 47
33 49
33 50
33 51
33 52
33 53
33 54
33 55
33 56
33 57
33 58
33 59
33 60
33 61
33 62
33 63
33 64
33 65
33 67
33 68
33 71
33 73
33 76
33 77
33 79
33 80
33 83
33 84
33 86
33 87
33 88
33 93
33 94
33 96
33 97
33 102
33 103
33 104
33 105
33 106
33 107
33 108
33 109
33 110
33 111
33 112
33 113
33 114
33 115
33 117
33 118
33 119
33 120
33 121
33 122
33 123
33 124
33 125
33 126
33 127
33 128
33 129
33 130
33 132
33 133
33 134
33 137
33 140
33 141
33 143
33 144
33 148
33 149
33 152
33 155
33 156
33 157
33 158
33 159
33 160
33 163
33 164
33 168
33 170
33 171
33 172
33 173
33 175
33 176
33 178
33 181
33 182
33 183
33 184
33 185
33 186
33 187
33 188
33 189
33 190
33 191
33 192
33 193
33 194
33 195
33 197
33 198
33 199
33 200
33 201
33 202
33 203
33 204
33 205
33 206
33 207
33 208
33 210
33 211
33 212
33 213
33 214
33 215
33 216
33 217
33 218
33 219
33 220
33 221
33 222
33 223
33 224
33 225
33 226
33 227
33 229
33 232
33 236
33 238
33 239
33 242
33 244
33 245
33 248
33 250
33 251
33 252
33 254
33 255
33 257
33 259
33 261
33 264
33 268
33 269
33 271
33 273
33 275
33 278
33 279
33 280
33 281
33 282
33 283
33 284
33 285
33 286
33 287
33 288
33 289
33 290
33 291
33 292
33 293
33 295
33 298
33 300
33 301
33 303
33 305
33 306
33 307
33 308
33 309
33 310
33 319
33 320
33 321
33 322
33 324
33 325
33 327
33 328
33 336
33 337
33 339
33 340
33 341
33 343
33 344
33 345
33 350
33 353
33 356
33 357
33 358
33 359
33 360
33 362
33 364
33 365
33 369
33 370
33 372
33 373
33 376
33 377
33 378
33 380
33 381
33 383
33 386
33 388
33 390
33 391
33 392
33 393
33 394
33 396
33 397
33 398
33 399
33 400
33 401
33 402
33 403
33 404
33 405
33 406
33 407
33 408
33 410
33 411
33 412
33 413
33 414
33 415
33 416
33 417
33 418
33 419
33 420
33 421
33 423
33 424
33 425
33 428
33 429
33 430
33 432
33 433
33 434
33 436
33 437
33 439
33 440
33 442
33 443
33 445
33 446
33 450
33 453
33 455
33 456
33 458
33 460
33 462
33 465
33 466
33 468
33 471
33 473
33 475
33 476
33 478
33 479
33 482
33 483
33 485
33 487
33 488
33 491
33 493
33 495
33 496
33 497
33 498
33 499
33 501
33 503
33 504
33 505
33 506
33 507
33 508
33 509
33 510
33 511
33 512
33 513
33 514
33 515
33 516
33 518
33 519
33 520
33 521
33 522
33 523
33 524
33 525
33 526
33 527
33 528
33 530
33 531
33 532
33 533
33 534
33 535
33 536
33 537
33 538
33 539
33 540
33 541
33 542
33 543
33 545
33 546
33 547
33 548
33 549
33 550
33 551
33 552
33 553
33 554
33 555
33 556
33 557
33 559
33 560
33 561
33 562
33 563
33 565
33 567
33 569
33 571
33 574
33 575
33 578
34 35
34 36
34 37
34 38
34 39
34 40
34 41
34 42
34 43
34 44
34 45
34 46
34 47
34 48
34 49
34 52
34 54
34 57
34 58
34 59
34 61
34 62
34 63
34 65
34 66
34 68
34 71
34 73
34 76
34 77
34 79
34 80
34 83
34 84
34 86
34 87
34 88
34 93
34 94
34 96
34 97
34 102
34 104
34 108
34 111
34 112
34 113
34 116
34 117
34 118
34 119
34 120
34 121
34 122
34 123
34 124
34 125
34 126
34 127
34 128
34 129
34 130
34 131
34 132
34 134
34 137
34 140
34 141
34 143
34 144
34 148
34 149
34 152
34 155
34 156
34 157
34 158
34 159
34 160
34 163
34 164
34 168
34 170
34 171
34 172
34 173
34 175
34 176
34 178
34 183
34 185
34 188
34 189
34 192
34 193
34 194
34 195
34 196
34 198
34 199
34 200
34 201
34 202
34 203
34 204
34 205
34 206
34 207
34 208
34 209
34 210
34 212
34 213
34 214
34 215
34 216
34 217
34 218
34 219
34 220
34 221
34 222
34 223
34 224
34 225
34 226
34 227
34 228
34 232
34 236
34 238
34 239
34 242
34 244
34 245
34 246
34 247
34 248
34 249
34 250
34 251
34 252
34 253
34 254
34 255
34 256
34 257
34 258
34 260
34 261
34 262
34 263
34 264
34 265
34 266
34 267
34 268
34 269
34 270
34 271
34 272
34 273
34 274
34 275
34 276
34 277
34 279
34 284
34 286
34 289
34 290
34 293
34 294
34 295
34 298
34 300
34 301
34 303
34 305
34 306
34 307
34 308
34 309
34 310
34 319
34 320
34 321
34 322
34 324
34 325
34 327
34 328
34 336
34 337
34 339
34 340
34 341
34 343
34 344
34 345
34 349
34 350
34 351
34 352
34 353
34 354
34 355
34 356
34 357
34 358
34 359
34 360
34 361
34 362
34 363
34 364
34 369
34 370
34 372
34 373
34 376
34 377
34 378
34 380
34 381
34 383
34 386
34 388
34 390
34 391
34 392
34 393
34 394
34 399
34 401
34 403
34 406
34 407
34 409
34 410
34 411
34 412
34 414
34 415
34 417
34 418
34 419
34 420
34 422
34 425
34 426
34 427
34 428
34 429
34 430
34 431
34 432
34 433
34 434
34 435
34 436
34 437
34 438
34 440
34 441
34 442
34 443
34 444
34 445
34 446
34 447
34 448
34 449
34 450
34 451
34 452
34 454
34 455
34 456
34 458
34 460
34 462
34 465
34 466
34 468
34 471
34 472
34 473
34 474
34 475
34 476
34 477
34 478
34 479
34 480
34 481
34 482
34 483
34 484
34 486
34 487
34 488
34 491
34 493
34 495
34 496
34 497
34 498
34 499
34 501
34 503
34 506
34 508
34 509
34 510
34 512
34 513
34 514
34 517
34 518
34 519
34 520
34 521
34 522
34 523
34 524
34 525
34 526
34 527
34 528
34 529
34 530
34 532
34 533
34 534
34 535
34 536
34 537
34 538
34 539
34 540
34 541
34 542
34 543
34 544
34 546
34 547
34 548
34 549
34 550
34 551
34 552
34 553
34 554
34 555
34 556
34 557
34 558
34 559
34 561
34 562
34 563
34 564
34 565
34 566
34 567
34 568
34 569
34 570
34 571
34 572
34 573
34 574
34 575
34 576
34 577
34 579
35 36
35 42
35 45
35 47
35 49
35 50
35 52
35 54
35 57
35 58
35 59
35 61
35 62
35 63
35 65
35 66
35 68
35 69
35 70
35 71
35 72
35 73
35 74
35 75
35 76
35 77
35 78
35 79
35 80
35 81
35 82
35 83
35 84
35 85
35 87
35 88
35 93
35 94
35 96
35 97
35 102
35 104
35 108
35 111
35 112
35 113
35 116
35 119
35 121
35 122
35 123
35 124
35 128
35 129
35 131
35 133
35 134
35 135
35 136
35 137
35 138
35 139
35 140
35 141
35 142
35 143
35 144
35 145
35 146
35 147
35 149
35 150
35 151
35 152
35 153
35 154
35 155
35 156
35 157
35 158
35 159
35 160
35 161
35 162
35 164
35 168
35 170
35 171
35 172
35 173
35 175
35 176
35 178
35 183
35 185
35 188
35 189
35 192
35 193
35 194
35 195
35 196
35 198
35 200
35 201
35 202
35 205
35 206
35 209
35 211
35 215
35 216
35 219
35 220
35 221
35 223
35 224
35 227
35 228
35 229
35 230
35 231
35 232
35 233
35 234
35 235
35 236
35 237
35 238
35 239
35 240
35 241
35 242
35 243
35 245
35 248
35 250
35 251
35 252
35 254
35 255
35 257
35 259
35 261
35 264
35 268
35 269
35 271
35 273
35 275
35 278
35 279
35 280
35 281
35 282
35 283
35 284
35 285
35 286
35 287
35 288
35 289
35 290
35 291
35 292
35 293
35 294
35 298
35 300
35 301
35 303
35 305
35 306
35 307
35 308
35 309
35 310
35 319
35 320
35 321
35 322
35 324
35 325
35 327
35 328
35 336
35 337
35 339
35 340
35 341
35 343
35 344
35 345
35 350
35 353
35 356
35 357
35 358
35 359
35 360
35 362
35 364
35 365
35 366
35 367
35 368
35 369
35 370
35 371
35 372
35 373
35 374
35 375
35 376
35 377
35 378
35 379
35 381
35 383
35 386
35 388
35 390
35 391
35 392
35 393
35 394
35 396
35 397
35 398
35 399
35 400
35 401
35 402
35 403
35 404
35 405
35 406
35 407
35 408
35 409
35 411
35 412
35 413
35 414
35 415
35 416
35 417
35 418
35 419
35 420
35 421
35 422
35 423
35 424
35 426
35 427
35 428
35 429
35 430
35 431
35 432
35 433
35 434
35 435
35 436
35 437
35 438
35 439
35 441
35 442
35 443
35 444
35 445
35 446
35 447
35 448
35 449
35 450
35 451
35 452
35 453
35 454
35 456
35 458
35 460
35 462
35 465
35 466
35 468
35 471
35 472
35 473
35 474
35 475
35 476
35 477
35 478
35 479
35 480
35 481
35 482
35 483
35 484
35 485
35 486
35 488
35 491
35 493
35 495
35 496
35 497
35 498
35 499
35 501
35 503
35 506
35 508
35 509
35 510
35 512
35 513
35 514
35 517
35 518
35 519
35 520
35 521
35 522
35 523
35 524
35 525
35 526
35 527
35 528
35 529
35 530
35 531
35 533
35 534
35 535
35 536
35 537
35 538
35 539
35 540
35 541
35 542
35 543
35 544
35 545
35 546
35 548
35 549
35 550
35 551
35 552
35 553
35 554
35 555
35 556
35 557
35 558
35 559
35 560
35 561
35 563
35 565
35 567
35 569
35 571
35 574
35 575
35 578
36 37
36 38
36 39
36 40
36 41
36 42
36 43
36 44
36 45
36 46
36 47
36 48
36 49
36 50
36 51
36 55
36 58
36 60
36 61
36 65
36 69
36 70
36 71
36 72
36 73
36 74
36 75
36 76
36 77
36 78
36 79
36 80
36 81
36 82
36 83
36 84
36 85
36 86
36 88
36 89
36 90
36 91
36 92
36 93
36 94
36 95
36 96
36 97
36 98
36 99
36 100
36 101
36 103
36 104
36 105
36 106
36 107
36 108
36 109
36 110
36 111
36 112
36 113
36 114
36 115
36 116
36 117
36 118
36 125
36 128
36 133
36 135
36 136
36 137
36 138
36 139
36 140
36 141
36 142
36 143
36 144
36 145
36 146
36 147
36 148
36 150
36 151
36 154
36 156
36 160
36 165
36 166
36 169
36 170
36 172
36 174
36 181
36 182
36 183
36 184
36 187
36 189
36 190
36 191
36 199
36 200
36 201
36 202
36 203
36 204
36 205
36 206
36 207
36 208
36 209
36 210
36 211
36 212
36 213
36 214
36 216
36 218
36 220
36 222
36 229
36 230
36 231
36 233
36 234
36 239
36 240
36 246
36 247
36 248
36 249
36 250
36 251
36 252
36 253
36 254
36 255
36 256
36 257
36 258
36 259
36 260
36 262
36 263
36 264
36 265
36 267
36 270
36 272
36 275
36 278
36 280
36 281
36 282
36 283
36 284
36 285
36 286
36 287
36 288
36 289
36 290
36 291
36 292
36 293
36 294
36 295
36 296
36 297
36 301
36 302
36 304
36 306
36 307
36 313
36 314
36 316
36 317
36 318
36 320
36 321
36 323
36 328
36 332
36 333
36 334
36 335
36 336
36 338
36 339
36 342
36 344
36 349
36 351
36 354
36 355
36 358
36 361
36 364
36 365
36 366
36 367
36 368
36 370
36 371
36 377
36 382
36 383
36 384
36 385
36 386
36 387
36 388
36 389
36 390
36 391
36 392
36 393
36 394
36 395
36 396
36 397
36 400
36 401
36 402
36 404
36 405
36 412
36 414
36 416
36 419
36 426
36 427
36 428
36 431
36 432
36 435
36 439
36 441
36 444
36 447
36 453
36 457
36 458
36 459
36 460
36 461
36 462
36 463
36 464
36 465
36 466
36 467
36 468
36 469
36 470
36 472
36 473
36 474
36 475
36 476
36 477
36 478
36 479
36 480
36 481
36 482
36 483
36 484
36 485
36 486
36 487
36 489
36 490
36 491
36 492
36 493
36 494
36 495
36 496
36 497
36 498
36 499
36 500
36 501
36 502
36 504
36 505
36 506
36 507
36 508
36 509
36 510
36 511
36 512
36 513
36 514
36 515
36 516
36 517
36 518
36 520
36 521
36 525
36 531
36 533
36 534
36 536
36 537
36 542
36 545
36 549
36 550
36 551
36 552
36 553
36 554
36 555
36 556
36 557
36 558
36 559
36 560
36 561
36 562
36 565
36 566
36 567
36 568
36 570
36 578
37 38
37 39
37 40
37 41
37 42
37 43
37 44
37 45
37 46
37 47
37 48
37 49
37 50
37 52
37 53
37 54
37 55
37 56
37 57
37 58
37 59
37 60
37 61
37 62
37 63
37 64
37 65
37 66
37 67
37 68
37 69
37 70
37 72
37 73
37 75
37 76
37 78
37 81
37 87
37 90
37 92
37 95
37 102
37 103
37 105
37 106
37 109
37 110
37 111
37 117
37 118
37 125
37 128
37 133
37 134
37 136
37 137
37 138
37 139
37 140
37 141
37 142
37 143
37 144
37 145
37 146
37 147
37 148
37 150
37 151
37 154
37 156
37 160
37 165
37 166
37 169
37 170
37 172
37 174
37 181
37 182
37 183
37 184
37 187
37 189
37 190
37 191
37 198
37 199
37 203
37 204
37 211
37 214
37 215
37 216
37 217
37 218
37 219
37 220
37 221
37 222
37 223
37 224
37 225
37 226
37 227
37 228
37 229
37 231
37 232
37 233
37 234
37 235
37 236
37 237
37 238
37 239
37 240
37 241
37 242
37 243
37 244
37 245
37 246
37 249
37 251
37 253
37 254
37 259
37 261
37 262
37 263
37 264
37 265
37 266
37 267
37 268
37 269
37 270
37 271
37 272
37 273
37 274
37 275
37 276
37 277
37 278
37 279
37 281
37 282
37 283
37 284
37 285
37 286
37 287
37 288
37 289
37 290
37 291
37 292
37 293
37 294
37 295
37 297
37 298
37 299
37 300
37 301
37 302
37 303
37 304
37 305
37 306
37 307
37 308
37 309
37 310
37 311
37 312
37 313
37 314
37 316
37 317
37 318
37 320
37 321
37 323
37 328
37 333
37 334
37 335
37 336
37 337
37 338
37 339
37 340
37 341
37 342
37 343
37 344
37 345
37 346
37 347
37 348
37 349
37 351
37 354
37 355
37 358
37 361
37 364
37 365
37 367
37 368
37 369
37 370
37 371
37 372
37 373
37 374
37 375
37 376
37 377
37 378
37 379
37 380
37 381
37 383
37 384
37 385
37 386
37 387
37 388
37 389
37 390
37 391
37 392
37 393
37 394
37 395
37 396
37 397
37 400
37 401
37 402
37 404
37 405
37 412
37 414
37 416
37 419
37 426
37 427
37 428
37 431
37 432
37 435
37 439
37 442
37 443
37 444
37 445
37 446
37 447
37 448
37 449
37 450
37 451
37 452
37 453
37 454
37 455
37 456
37 458
37 459
37 460
37 461
37 462
37 463
37 464
37 465
37 466
37 467
37 468
37 469
37 470
37 471
37 472
37 474
37 477
37 483
37 485
37 488
37 490
37 491
37 492
37 493
37 494
37 495
37 496
37 497
37 498
37 499
37 500
37 501
37 502
37 503
37 504
37 506
37 509
37 513
37 518
37 520
37 521
37 525
37 531
37 533
37 534
37 536
37 537
37 542
37 545
37 548
37 549
37 551
37 553
37 554
37 560
37 565
37 566
37 567
37 568
37 570
37 578
38 39
38 40
38 41
38 42
38 43
38 44
38 45
38 46
38 47
38 48
38 49
38 50
38 51
38 55
38 58
38 60
38 61
38 65
38 68
38 70
38 71
38 72
38 73
38 74
38 75
38 76
38 77
38 78
38 79
38 80
38 81
38 82
38 83
38 84
38 85
38 86
38 87
38 90
38 92
38 95
38 102
38 104
38 105
38 106
38 107
38 108
38 109
38 110
38 111
38 112
38 113
38 114
38 115
38 116
38 118
38 119
38 120
38 121
38 122
38 123
38 124
38 125
38 126
38 127
38 128
38 129
38 130
38 131
38 132
38 133
38 134
38 135
38 137
38 138
38 139
38 140
38 141
38 142
38 143
38 144
38 145
38 146
38 147
38 148
38 150
38 151
38 154
38 156
38 160
38 165
38 166
38 169
38 170
38 172
38 174
38 182
38 183
38 184
38 185
38 186
38 187
38 188
38 189
38 190
38 191
38 192
38 193
38 194
38 195
38 196
38 197
38 198
38 199
38 203
38 204
38 211
38 213
38 214
38 216
38 218
38 220
38 222
38 229
38 230
38 232
38 233
38 234
38 235
38 236
38 237
38 238
38 239
38 240
38 241
38 242
38 243
38 244
38 245
38 247
38 248
38 249
38 250
38 251
38 252
38 253
38 254
38 255
38 256
38 257
38 258
38 259
38 260
38 262
38 263
38 264
38 265
38 267
38 270
38 272
38 275
38 278
38 279
38 280
38 282
38 283
38 284
38 285
38 286
38 287
38 288
38 289
38 290
38 291
38 292
38 293
38 294
38 295
38 296
38 298
38 299
38 300
38 301
38 302
38 303
38 304
38 305
38 306
38 307
38 308
38 309
38 310
38 311
38 312
38 314
38 315
38 316
38 317
38 318
38 319
38 320
38 321
38 322
38 323
38 324
38 325
38 326
38 327
38 328
38 329
38 330
38 331
38 332
38 333
38 334
38 335
38 336
38 338
38 339
38 342
38 344
38 350
38 351
38 352
38 353
38 354
38 355
38 356
38 357
38 358
38 359
38 360
38 361
38 362
38 363
38 364
38 365
38 366
38 367
38 368
38 370
38 371
38 377
38 381
38 382
38 384
38 385
38 387
38 388
38 396
38 397
38 400
38 401
38 402
38 404
38 405
38 412
38 414
38 416
38 419
38 427
38 428
38 429
38 430
38 431
38 432
38 433
38 434
38 435
38 436
38 437
38 438
38 439
38 440
38 441
38 444
38 447
38 453
38 456
38 457
38 459
38 460
38 461
38 464
38 465
38 468
38 471
38 472
38 474
38 477
38 483
38 485
38 488
38 489
38 491
38 492
38 493
38 494
38 495
38 496
38 497
38 498
38 499
38 500
38 501
38 502
38 503
38 504
38 506
38 509
38 513
38 518
38 520
38 521
38 525
38 531
38 534
38 535
38 536
38 537
38 538
38 539
38 540
38 541
38 542
38 543
38 544
38 545
38 546
38 547
38 548
38 549
38 551
38 553
38 554
38 560
38 565
38 566
38 567
38 568
38 570
38 578
39 40
39 41
39 42
39 43
39 44
39 45
39 46
39 47
39 48
39 49
39 50
39 51
39 55
39 58
39 60
39 61
39 65
39 68
39 69
39 71
39 72
39 73
39 74
39 75
39 76
39 77
39 78
39 79
39 80
39 81
39 82
39 83
39 84
39 85
39 86
39 87
39 90
39 92
39 95
39 102
39 103
39 104
39 106
39 107
39 108
39 109
39 110
39 111
39 112
39 113
39 114
39 115
39 116
39 117
39 118
39 125
39 128
39 133
39 134
39 135
39 136
39 137
39 139
39 140
39 141
39 142
39 143
39 144
39 145
39 146
39 147
39 148
39 150
39 151
39 154
39 156
39 160
39 164
39 166
39 167
39 168
39 169
39 170
39 171
39 172
39 173
39 174
39 175
39 176
39 177
39 178
39 179
39 180
39 181
39 183
39 184
39 185
39 186
39 187
39 188
39 189
39 190
39 191
39 192
39 193
39 194
39 195
39 196
39 197
39 198
39 199
39 203
39 204
39 211
39 213
39 215
39 216
39 217
39 218
39 219
39 220
39 221
39 222
39 223
39 224
39 225
39 226
39 227
39 228
39 229
39 230
39 231
39 232
39 234
39 235
39 236
39 237
39 238
39 239
39 240
39 241
39 242
39 243
39 244
39 245
39 246
39 249
39 251
39 253
39 254
39 259
39 260
39 262
39 263
39 264
39 265
39 267
39 270
39 272
39 275
39 278
39 279
39 280
39 281
39 283
39 284
39 285
39 288
39 291
39 296
39 297
39 301
39 302
39 304
39 306
39 307
39 313
39 314
39 316
39 317
39 318
39 320
39 321
39 323
39 328
39 332
39 334
39 335
39 336
39 337
39 338
39 339
39 340
39 341
39 342
39 343
39 344
39 345
39 346
39 347
39 348
39 349
39 350
39 352
39 353
39 354
39 355
39 356
39 357
39 358
39 359
39 360
39 361
39 362
39 363
39 364
39 365
39 366
39 367
39 368
39 370
39 371
39 377
39 381
39 382
39 383
39 385
39 386
39 387
39 388
39 389
39 390
39 391
39 392
39 393
39 394
39 395
39 397
39 398
39 399
39 400
39 401
39 402
39 403
39 404
39 405
39 406
39 407
39 408
39 409
39 410
39 412
39 414
39 416
39 419
39 426
39 427
39 428
39 431
39 432
39 435
39 439
39 441
39 444
39 447
39 453
39 456
39 457
39 459
39 460
39 461
39 464
39 465
39 468
39 471
39 473
39 474
39 475
39 476
39 477
39 478
39 479
39 480
39 481
39 482
39 483
39 484
39 485
39 486
39 487
39 488
39 489
39 490
39 492
39 493
39 494
39 503
39 505
39 506
39 507
39 508
39 509
39 510
39 511
39 512
39 513
39 514
39 515
39 516
39 517
39 519
39 520
39 521
39 522
39 523
39 524
39 525
39 526
39 527
39 528
39 529
39 530
39 531
39 532
39 533
39 534
39 536
39 537
39 542
39 545
39 548
39 549
39 551
39 553
39 554
39 560
39 565
39 566
39 567
39 568
39 570
39 578
40 41
40 42
40 43
40 44
40 45
40 46
40 47
40 48
40 49
40 50
40 51
40 55
40 58
40 60
40 61
40 65
40 68
40 69
40 70
40 72
40 73
40 75
40 76
40 78
40 81
40 87
40 90
40 92
40 95
40 102
40 103
40 104
40 105
40 107
40 108
40 109
40 110
40 111
40 112
40 113
40 114
40 115
40 116
40 117
40 118
40 125
40 128
40 133
40 134
40 135
40 136
40 138
40 139
40 141
40 142
40 149
40 151
40 152
40 153
40 154
40 155
40 156
40 157
40 158
40 159
40 160
40 161
40 162
40 163
40 164
40 165
40 167
40 168
40 169
40 170
40 171
40 172
40 173
40 174
40 175
40 176
40 177
40 178
40 179
40 180
40 181
40 182
40 183
40 184
40 187
40 189
40 190
40 191
40 198
40 200
40 201
40 202
40 203
40 204
40 205
40 206
40 207
40 208
40 209
40 210
40 211
40 212
40 213
40 214
40 216
40 218
40 220
40 222
40 229
40 230
40 231
40 232
40 233
40 235
40 236
40 237
40 238
40 239
40 240
40 241
40 242
40 243
40 244
40 245
40 246
40 249
40 251
40 253
40 254
40 259
40 260
40 261
40 263
40 264
40 265
40 266
40 267
40 268
40 269
40 270
40 271
40 272
40 273
40 274
40 275
40 276
40 277
40 278
40 279
40 280
40 281
40 283
40 284
40 285
40 288
40 291
40 296
40 297
40 301
40 302
40 304
40 306
40 307
40 313
40 315
40 316
40 317
40 318
40 319
40 320
40 321
40 322
40 323
40 324
40 325
40 326
40 327
40 328
40 329
40 330
40 331
40 332
40 333
40 334
40 335
40 336
40 338
40 339
40 342
40 344
40 349
40 351
40 354
40 355
40 358
40 361
40 364
40 365
40 366
40 368
40 369
40 370
40 371
40 372
40 373
40 374
40 375
40 376
40 377
40 378
40 379
40 380
40 381
40 382
40 383
40 384
40 386
40 387
40 388
40 389
40 390
40 391
40 392
40 393
40 394
40 395
40 396
40 398
40 399
40 400
40 401
40 402
40 403
40 404
40 405
40 406
40 407
40 408
40 409
40 410
40 412
40 414
40 416
40 419
40 426
40 428
40 429
40 430
40 431
40 432
40 433
40 434
40 435
40 436
40 437
40 438
40 439
40 440
40 441
40 444
40 447
40 453
40 456
40 457
40 459
40 460
40 461
40 464
40 465
40 468
40 471
40 472
40 474
40 477
40 483
40 485
40 488
40 489
40 490
40 491
40 493
40 494
40 495
40 496
40 497
40 498
40 499
40 500
40 501
40 502
40 503
40 504
40 506
40 509
40 513
40 518
40 520
40 521
40 525
40 531
40 533
40 534
40 536
40 537
40 542
40 545
40 548
40 550
40 551
40 552
40 553
40 554
40 555
40 556
40 557
40 558
40 559
40 560
40 561
40 562
40 565
40 566
40 567
40 568
40 570
40 578
41 42
41 43
41 44
41 45
41 46
41 47
41 48
41 49
41 50
41 51
41 52
41 53
41 54
41 56
41 57
41 58
41 59
41 60
41 61
41 62
41 63
41 64
41 65
41 66
41 67
41 68
41 69
41 70
41 71
41 73
41 74
41 75
41 76
41 77
41 78
41 79
41 80
41 81
41 82
41 83
41 84
41 85
41 86
41 87
41 88
41 89
41 91
41 92
41 93
41 94
41 95
41 96
41 97
41 98
41 99
41 100
41 101
41 102
41 103
41 104
41 105
41 106
41 107
41 108
41 110
41 111
41 112
41 113
41 114
41 115
41 116
41 117
41 119
41 120
41 121
41 122
41 123
41 124
41 125
41 126
41 127
41 128
41 129
41 130
41 131
41 132
41 133
41 134
41 135
41 136
41 138
41 139
41 141
41 142
41 150
41 151
41 154
41 156
41 160
41 164
41 165
41 166
41 167
41 168
41 170
41 171
41 172
41 173
41 174
41 175
41 176
41 177
41 178
41 179
41 180
41 181
41 182
41 183
41 184
41 187
41 189
41 190
41 191
41 198
41 199
41 203
41 204
41 211
41 213
41 214
41 216
41 218
41 220
41 222
41 229
41 230
41 231
41 233
41 234
41 239
41 240
41 245
41 246
41 249
41 251
41 253
41 254
41 259
41 260
41 261
41 262
41 264
41 265
41 266
41 267
41 268
41 269
41 270
41 271
41 272
41 273
41 274
41 275
41 276
41 277
41 278
41 279
41 280
41 281
41 282
41 284
41 285
41 286
41 287
41 288
41 289
41 290
41 291
41 292
41 293
41 294
41 295
41 296
41 297
41 301
41 302
41 304
41 306
41 307
41 313
41 314
41 315
41 317
41 318
41 319
41 320
41 321
41 322
41 323
41 324
41 325
41 326
41 327
41 328
41 329
41 330
41 331
41 332
41 333
41 335
41 336
41 337
41 338
41 339
41 340
41 341
41 342
41 343
41 344
41 345
41 346
41 347
41 348
41 349
41 350
41 351
41 352
41 353
41 355
41 356
41 357
41 358
41 359
41 360
41 361
41 362
41 363
41 364
41 365
41 366
41 367
41 369
41 370
41 371
41 372
41 373
41 374
41 375
41 376
41 377
41 378
41 379
41 380
41 381
41 382
41 383
41 384
41 385
41 386
41 388
41 389
41 390
41 391
41 392
41 393
41 394
41 395
41 396
41 397
41 398
41 399
41 401
41 402
41 403
41 404
41 405
41 406
41 407
41 408
41 409
41 410
41 412
41 414
41 416
41 419
41 426
41 427
41 428
41 431
41 432
41 435
41 439
41 441
41 444
41 447
41 453
41 456
41 457
41 458
41 460
41 461
41 462
41 463
41 464
41 465
41 466
41 467
41 468
41 469
41 470
41 471
41 472
41 474
41 477
41 483
41 485
41 488
41 489
41 490
41 492
41 493
41 494
41 503
41 504
41 506
41 509
41 513
41 518
41 520
41 521
41 525
41 531
41 533
41 535
41 536
41 537
41 538
41 539
41 540
41 541
41 542
41 543
41 544
41 545
41 546
41 547
41 548
41 549
41 551
41 553
41 554
41 560
41 565
41 566
41 567
41 568
41 570
41 578
42 43
42 44
42 45
42 46
42 47
42 48
42 49
42 50
42 51
42 55
42 58
42 60
42 61
42 65
42 68
42 69
42 70
42 71
42 72
42 74
42 75
42 76
42 77
42 78
42 79
42 80
42 81
42 82
42 83
42 84
42 85
42 86
42 87
42 90
42 92
42 95
42 102
42 103
42 105
42 106
42 109
42 110
42 111
42 117
42 118
42 125
42 128
42 133
42 134
42 135
42 136
42 138
42 139
42 141
42 142
42 150
42 151
42 154
42 156
42 160
42 164
42 165
42 166
42 167
42 168
42 169
42 171
42 172
42 173
42 174
42 175
42 176
42 177
42 178
42 179
42 180
42 181
42 182
42 184
42 185
42 186
42 187
42 188
42 189
42 190
42 191
42 192
42 193
42 194
42 195
42 196
42 197
42 198
42 199
42 203
42 204
42 211
42 213
42 214
42 215
42 217
42 218
42 219
42 220
42 221
42 222
42 223
42 224
42 225
42 226
42 227
42 228
42 229
42 230
42 231
42 233
42 234
42 239
42 240
42 245
42 246
42 249
42 251
42 253
42 254
42 259
42 260
42 261
42 262
42 263
42 265
42 266
42 267
42 268
42 269
42 270
42 271
42 272
42 273
42 274
42 275
42 276
42 277
42 278
42 279
42 280
42 281
42 282
42 283
42 285
42 286
42 287
42 288
42 289
42 290
42 291
42 292
42 293
42 294
42 295
42 296
42 297
42 298
42 299
42 300
42 302
42 303
42 304
42 305
42 306
42 307
42 308
42 309
42 310
42 311
42 312
42 313
42 314
42 316
42 317
42 318
42 320
42 321
42 323
42 328
42 332
42 333
42 334
42 335
42 336
42 338
42 339
42 342
42 344
42 349
42 351
42 354
42 355
42 358
42 361
42 364
42 365
42 366
42 367
42 368
42 370
42 371
42 377
42 381
42 382
42 383
42 384
42 385
42 386
42 387
42 389
42 390
42 391
42 392
42 393
42 394
42 395
42 396
42 397
42 398
42 399
42 400
42 402
42 403
42 404
42 405
42 406
42 407
42 408
42 409
42 410
42 411
42 413
42 414
42 415
42 416
42 417
42 418
42 419
42 420
42 421
42 422
42 423
42 424
42 425
42 426
42 427
42 429
42 430
42 431
42 432
42 433
42 434
42 435
42 436
42 437
42 438
42 439
42 440
42 441
42 444
42 447
42 453
42 456
42 457
42 458
42 459
42 461
42 462
42 463
42 464
42 465
42 466
42 467
42 468
42 469
42 470
42 471
42 472
42 474
42 477
42 483
42 485
42 488
42 489
42 490
42 491
42 492
42 494
42 495
42 496
42 497
42 498
42 499
42 500
42 501
42 502
42 503
42 504
42 505
42 507
42 508
42 509
42 510
42 511
42 512
42 513
42 514
42 515
42 516
42 517
42 518
42 520
42 521
42 525
42 531
42 533
42 534
42 536
42 537
42 542
42 545
42 548
42 549
42 551
42 553
42 554
42 560
42 563
42 564
42 566
42 567
42 568
42 569
42 570
42 571
42 572
42 573
42 574
42 575
42 576
42 577
42 578
42 579
43 44
43 45
43 46
43 47
43 48
43 49
43 50
43 51
43 55
43 58
43 60
43 61
43 65
43 68
43 69
43 70
43 72
43 73
43 75
43 76
43 78
43 81
43 87
43 90
43 92
43 95
43 102
43 103
43 105
43 106
43 109
43 110
43 111
43 117
43 118
43 125
43 128
43 133
43 134
43 135
43 136
43 137
43 138
43 140
43 141
43 142
43 143
43 144
43 145
43 146
43 147
43 148
43 149
43 150
43 152
43 153
43 154
43 155
43 156
43 157
43 158
43 159
43 160
43 161
43 162
43 163
43 165
43 166
43 169
43 170
43 172
43 174
43 181
43 182
43 183
43 185
43 186
43 187
43 188
43 189
43 190
43 191
43 192
43 193
43 194
43 195
43 196
43 197
43 198
43 199
43 203
43 204
43 211
43 213
43 214
43 216
43 218
43 220
43 222
43 229
43 230
43 231
43 233
43 234
43 239
43 240
43 245
43 246
43 249
43 251
43 253
43 254
43 259
43 260
43 261
43 262
43 263
43 264
43 266
43 267
43 268
43 269
43 270
43 271
43 272
43 273
43 274
43 275
43 276
43 277
43 278
43 279
43 280
43 281
43 282
43 283
43 284
43 286
43 287
43 288
43 289
43 290
43 291
43 292
43 293
43 294
43 295
43 296
43 297
43 298
43 299
43 300
43 301
43 303
43 304
43 305
43 306
43 307
43 308
43 309
43 310
43 311
43 312
43 313
43 314
43 315
43 316
43 318
43 319
43 320
43 321
43 322
43 323
43 324
43 325
43 326
43 327
43 328
43 329
43 330
43 331
43 332
43 333
43 334
43 336
43 337
43 338
43 339
43 340
43 341
43 342
43 343
43 344
43 345
43 346
43 347
43 348
43 349
43 350
43 351
43 352
43 353
43 354
43 356
43 357
43 358
43 359
43 360
43 361
43 362
43 363
43 364
43 365
43 366
43 367
43 368
43 370
43 371
43 377
43 381
43 382
43 384
43 385
43 387
43 388
43 396
43 397
43 398
43 399
43 400
43 401
43 403
43 404
43 405
43 406
43 407
43 408
43 409
43 410
43 412
43 414
43 416
43 419
43 426
43 427
43 428
43 431
43 432
43 435
43 439
43 441
43 444
43 447
43 453
43 456
43 457
43 458
43 459
43 460
43 462
43 463
43 464
43 465
43 466
43 467
43 468
43 469
43 470
43 471
43 472
43 473
43 475
43 476
43 477
43 478
43 479
43 480
43 481
43 482
43 483
43 484
43 485
43 486
43 487
43 488
43 489
43 490
43 491
43 492
43 493
43 495
43 496
43 497
43 498
43 499
43 500
43 501
43 502
43 503
43 504
43 506
43 509
43 513
43 518
43 519
43 521
43 522
43 523
43 524
43 525
43 526
43 527
43 528
43 529
43 530
43 531
43 532
43 533
43 534
43 536
43 537
43 542
43 545
43 548
43 549
43 550
43 552
43 553
43 554
43 555
43 556
43 557
43 558
43 559
43 560
43 561
43 562
43 565
43 566
43 567
43 568
43 570
43 578
44 45
44 46
44 47
44 48
44 49
44 50
44 51
44 55
44 58
44 60
44 61
44 65
44 68
44 69
44 70
44 71
44 72
44 73
44 74
44 76
44 77
44 78
44 79
44 80
44 81
44 82
44 83
44 84
44 85
44 86
44 87
44 88
44 89
44 90
44 91
44 93
44 94
44 95
44 96
44 97
44 98
44 99
44 100
44 101
44 102
44 103
44 104
44 105
44 106
44 107
44 108
44 109
44 111
44 112
44 113
44 114
44 115
44 116
44 117
44 118
44 125
44 128
44 133
44 134
44 135
44 136
44 138
44 139
44 141
44 142
44 149
44 150
44 151
44 152
44 153
44 155
44 156
44 157
44 158
44 159
44 160
44 161
44 162
44 163
44 165
44 166
44 169
44 170
44 172
44 174
44 181
44 182
44 183
44 184
44 185
44 186
44 188
44 189
44 190
44 191
44 192
44 193
44 194
44 195
44 196
44 197
44 198
44 199
44 203
44 204
44 211
44 213
44 214
44 215
44 216
44 217
44 219
44 220
44 221
44 222
44 223
44 224
44 225
44 226
44 227
44 228
44 229
44 230
44 231
44 233
44 234
44 239
44 240
44 245
44 246
44 247
44 248
44 250
44 251
44 252
44 253
44 254
44 255
44 256
44 257
44 258
44 259
44 260
44 261
44 262
44 263
44 264
44 265
44 266
44 268
44 269
44 270
44 271
44 272
44 273
44 274
44 275
44 276
44 277
44 278
44 279
44 280
44 281
44 282
44 283
44 284
44 285
44 286
44 287
44 289
44 290
44 291
44 292
44 293
44 294
44 295
44 296
44 297
44 298
44 299
44 300
44 301
44 302
44 303
44 305
44 306
44 307
44 308
44 309
44 310
44 311
44 312
44 313
44 314
44 315
44 316
44 317
44 319
44 320
44 321
44 322
44 323
44 324
44 325
44 326
44 327
44 328
44 329
44 330
44 331
44 332
44 333
44 334
44 335
44 336
44 338
44 339
44 342
44 344
44 349
44 351
44 354
44 355
44 358
44 361
44 364
44 365
44 366
44 367
44 368
44 370
44 371
44 377
44 381
44 382
44 384
44 385
44 387
44 388
44 396
44 397
44 400
44 401
44 402
44 404
44 405
44 412
44 414
44 416
44 419
44 426
44 427
44 428
44 431
44 432
44 435
44 439
44 441
44 442
44 443
44 445
44 446
44 447
44 448
44 449
44 450
44 451
44 452
44 453
44 454
44 455
44 456
44 457
44 458
44 459
44 460
44 461
44 462
44 463
44 465
44 466
44 467
44 468
44 469
44 470
44 471
44 472
44 474
44 477
44 483
44 485
44 488
44 489
44 490
44 492
44 493
44 494
44 503
44 504
44 506
44 509
44 513
44 518
44 519
44 520
44 522
44 523
44 524
44 525
44 526
44 527
44 528
44 529
44 530
44 531
44 532
44 533
44 534
44 536
44 537
44 542
44 545
44 548
44 549
44 551
44 553
44 554
44 560
44 563
44 564
44 565
44 567
44 568
44 569
44 570
44 571
44 572
44 573
44 574
44 575
44 576
44 577
44 578
44 579
45 46
45 47
45 48
45 49
45 50
45 51
45 52
45 53
45 54
45 55
45 56
45 57
45 59
45 60
45 61
45 62
45 63
45 64
45 65
45 66
45 67
45 68
45 69
45 70
45 71
45 72
45 73
45 74
45 75
45 77
45 78
45 79
45 80
45 81
45 82
45 83
45 84
45 85
45 86
45 87
45 90
45 92
45 95
45 102
45 103
45 104
45 105
45 106
45 107
45 108
45 109
45 110
45 112
45 113
45 114
45 115
45 116
45 117
45 118
45 125
45 128
45 133
45 134
45 135
45 136
45 137
45 138
45 139
45 140
45 142
45 143
45 144
45 145
45 146
45 147
45 148
45 149
45 150
45 151
45 152
45 153
45 154
45 155
45 157
45 158
45 159
45 160
45 161
45 162
45 163
45 164
45 165
45 166
45 167
45 168
45 169
45 170
45 171
45 173
45 174
45 175
45 176
45 177
45 178
45 179
45 180
45 181
45 182
45 183
45 184
45 185
45 186
45 187
45 188
45 190
45 191
45 192
45 193
45 194
45 195
45 196
45 197
45 198
45 199
45 203
45 204
45 211
45 213
45 214
45 216
45 218
45 220
45 222
45 229
45 230
45 231
45 233
45 234
45 239
45 240
45 245
45 246
45 247
45 248
45 249
45 250
45 252
45 253
45 254
45 255
45 256
45 257
45 258
45 259
45 260
45 262
45 263
45 264
45 265
45 267
45 270
45 272
45 275
45 278
45 279
45 280
45 281
45 283
45 284
45 285
45 288
45 291
45 296
45 297
45 298
45 299
45 300
45 301
45 302
45 303
45 304
45 305
45 307
45 308
45 309
45 310
45 311
45 312
45 313
45 314
45 315
45 316
45 317
45 318
45 319
45 321
45 322
45 323
45 324
45 325
45 326
45 327
45 328
45 329
45 330
45 331
45 332
45 333
45 334
45 335
45 337
45 338
45 339
45 340
45 341
45 342
45 343
45 344
45 345
45 346
45 347
45 348
45 349
45 350
45 351
45 352
45 353
45 354
45 355
45 356
45 357
45 359
45 360
45 361
45 362
45 363
45 364
45 365
45 366
45 367
45 368
45 369
45 371
45 372
45 373
45 374
45 375
45 376
45 377
45 378
45 379
45 380
45 381
45 382
45 384
45 385
45 387
45 388
45 396
45 397
45 400
45 401
45 402
45 404
45 405
45 411
45 412
45 413
45 415
45 416
45 417
45 418
45 419
45 420
45 421
45 422
45 423
45 424
45 425
45 426
45 427
45 428
45 431
45 432
45 435
45 439
45 441
45 444
45 447
45 453
45 456
45 457
45 459
45 460
45 461
45 464
45 465
45 468
45 471
45 472
45 474
45 477
45 483
45 485
45 488
45 489
45 490
45 492
45 493
45 494
45 503
45 504
45 506
45 509
45 513
45 518
45 520
45 521
45 525
45 531
45 533
45 534
45 536
45 537
45 542
45 545
45 548
45 549
45 550
45 551
45 552
45 554
45 555
45 556
45 557
45 558
45 559
45 560
45 561
45 562
45 563
45 564
45 565
45 566
45 568
45 569
45 570
45 571
45 572
45 573
45 574
45 575
45 576
45 577
45 578
45 579
46 47
46 48
46 49
46 50
46 51
46 52
46 53
46 54
46 55
46 56
46 57
46 58
46 59
46 61
46 62
46 63
46 64
46 65
46 66
46 67
46 68
46 69
46 70
46 71
46 72
46 73
46 74
46 75
46 76
46 77
46 79
46 80
46 81
46 82
46 83
46 84
46 85
46 86
46 87
46 90
46 92
46 95
46 102
46 103
46 105
46 106
46 109
46 110
46 111
46 117
46 118
46 125
46 128
46 133
46 134
46 135
46 136
46 137
46 138
46 139
46 140
46 141
46 143
46 144
46 145
46 146
46 147
46 148
46 150
46 151
46 154
46 156
46 160
46 164
46 165
46 166
46 167
46 168
46 169
46 170
46 171
46 172
46 173
46 175
46 176
46 177
46 178
46 179
46 180
46 181
46 182
46 183
46 184
46 185
46 186
46 187
46 188
46 189
46 191
46 192
46 193
46 194
46 195
46 196
46 197
46 198
46 199
46 200
46 201
46 202
46 204
46 205
46 206
46 207
46 208
46 209
46 210
46 211
46 212
46 213
46 214
46 216
46 218
46 220
46 222
46 229
46 230
46 231
46 233
46 234
46 239
46 240
46 245
46 246
46 247
46 248
46 249
46 250
46 251
46 252
46 254
46 255
46 256
46 257
46 258
46 259
46 260
46 261
46 262
46 263
46 264
46 265
46 266
46 267
46 268
46 269
46 271
46 272
46 273
46 274
46 275
46 276
46 277
46 278
46 279
46 280
46 281
46 283
46 284
46 285
46 288
46 291
46 296
46 297
46 301
46 302
46 304
46 306
46 307
46 313
46 314
46 316
46 317
46 318
46 320
46 321
46 323
46 328
46 332
46 333
46 334
46 335
46 336
46 337
46 339
46 340
46 341
46 342
46 343
46 344
46 345
46 346
46 347
46 348
46 349
46 351
46 354
46 355
46 358
46 361
46 364
46 365
46 366
46 367
46 368
46 369
46 370
46 372
46 373
46 374
46 375
46 376
46 377
46 378
46 379
46 380
46 381
46 382
46 384
46 385
46 387
46 388
46 396
46 397
46 398
46 399
46 400
46 401
46 402
46 403
46 405
46 406
46 407
46 408
46 409
46 410
46 412
46 414
46 416
46 419
46 426
46 427
46 428
46 429
46 430
46 432
46 433
46 434
46 435
46 436
46 437
46 438
46 439
46 440
46 441
46 444
46 447
46 453
46 456
46 457
46 459
46 460
46 461
46 464
46 465
46 468
46 471
46 472
46 474
46 477
46 483
46 485
46 488
46 489
46 490
46 492
46 493
46 494
46 503
46 504
46 506
46 509
46 513
46 518
46 520
46 521
46 525
46 531
46 533
46 534
46 535
46 537
46 538
46 539
46 540
46 541
46 542
46 543
46 544
46 545
46 546
46 547
46 548
46 549
46 551
46 553
46 554
46 560
46 563
46 564
46 565
46 566
46 567
46 569
46 570
46 571
46 572
46 573
46 574
46 575
46 576
46 577
46 578
46 579
47 48
47 49
47 50
47 51
47 52
47 53
47 54
47 55
47 56
47 57
47 58
47 59
47 60
47 62
47 63
47 64
47 65
47 66
47 67
47 68
47 69
47 70
47 72
47 73
47 75
47 76
47 78
47 81
47 87
47 90
47 92
47 95
47 102
47 103
47 105
47 106
47 109
47 110
47 111
47 117
47 118
47 125
47 128
47 133
47 134
47 135
47 136
47 138
47 139
47 141
47 142
47 150
47 151
47 154
47 156
47 160
47 165
47 166
47 169
47 170
47 172
47 174
47 181
47 182
47 183
47 184
47 187
47 189
47 190
47 191
47 198
47 199
47 203
47 204
47 211
47 213
47 214
47 215
47 216
47 217
47 218
47 219
47 221
47 222
47 223
47 224
47 225
47 226
47 227
47 228
47 229
47 230
47 231
47 232
47 233
47 234
47 235
47 236
47 237
47 238
47 240
47 241
47 242
47 243
47 244
47 245
47 246
47 247
47 248
47 249
47 250
47 251
47 252
47 253
47 255
47 256
47 257
47 258
47 259
47 260
47 262
47 263
47 264
47 265
47 267
47 270
47 272
47 275
47 278
47 279
47 280
47 281
47 283
47 284
47 285
47 288
47 291
47 296
47 297
47 298
47 299
47 300
47 301
47 302
47 303
47 304
47 305
47 306
47 308
47 309
47 310
47 311
47 312
47 313
47 314
47 315
47 316
47 317
47 318
47 319
47 320
47 322
47 323
47 324
47 325
47 326
47 327
47 328
47 329
47 330
47 331
47 332
47 333
47 334
47 335
47 336
47 337
47 338
47 340
47 341
47 342
47 343
47 344
47 345
47 346
47 347
47 348
47 349
47 351
47 354
47 355
47 358
47 361
47 364
47 365
47 366
47 367
47 368
47 370
47 371
47 377
47 381
47 382
47 384
47 385
47 387
47 388
47 396
47 397
47 400
47 401
47 402
47 404
47 405
47 412
47 414
47 416
47 419
47 426
47 427
47 428
47 429
47 430
47 431
47 433
47 434
47 435
47 436
47 437
47 438
47 439
47 440
47 441
47 444
47 447
47 453
47 456
47 457
47 458
47 459
47 460
47 461
47 462
47 463
47 464
47 466
47 467
47 468
47 469
47 470
47 471
47 472
47 474
47 477
47 483
47 485
47 488
47 489
47 490
47 492
47 493
47 494
47 503
47 504
47 505
47 506
47 507
47 508
47 510
47 511
47 512
47 513
47 514
47 515
47 516
47 517
47 518
47 520
47 521
47 525
47 531
47 533
47 534
47 535
47 536
47 538
47 539
47 540
47 541
47 542
47 543
47 544
47 545
47 546
47 547
47 548
47 549
47 550
47 551
47 552
47 553
47 555
47 556
47 557
47 558
47 559
47 560
47 561
47 562
47 565
47 566
47 567
47 568
47 570
47 578
48 49
48 50
48 51
48 55
48 58
48 60
48 61
48 65
48 68
48 69
48 70
48 71
48 72
48 73
48 74
48 75
48 76
48 77
48 78
48 79
48 80
48 82
48 83
48 84
48 85
48 86
48 87
48 88
48 89
48 90
48 91
48 92
48 93
48 94
48 96
48 97
48 98
48 99
48 100
48 101
48 102
48 103
48 105
48 106
48 109
48 110
48 111
48 117
48 118
48 119
48 120
48 121
48 122
48 123
48 124
48 126
48 127
48 128
48 129
48 130
48 131
48 132
48 133
48 134
48 135
48 136
48 138
48 139
48 141
48 142
48 150
48 151
48 154
48 156
48 160
48 165
48 166
48 169
48 170
48 172
48 174
48 181
48 182
48 183
48 184
48 185
48 186
48 187
48 188
48 189
48 190
48 192
48 193
48 194
48 195
48 196
48 197
48 198
48 199
48 200
48 201
48 202
48 203
48 205
48 206
48 207
48 208
48 209
48 210
48 211
48 212
48 213
48 214
48 215
48 216
48 217
48 218
48 219
48 220
48 221
48 223
48 224
48 225
48 226
48 227
48 228
48 229
48 230
48 231
48 232
48 233
48 234
48 235
48 236
48 237
48 238
48 239
48 241
48 242
48 243
48 244
48 245
48 246
48 249
48 251
48 253
48 254
48 259
48 260
48 261
48 262
48 263
48 264
48 265
48 266
48 267
48 268
48 269
48 270
48 271
48 273
48 274
48 275
48 276
48 277
48 278
48 279
48 280
48 281
48 282
48 283
48 284
48 285
48 286
48 287
48 288
48 289
48 290
48 292
48 293
48 294
48 295
48 296
48 297
48 301
48 302
48 304
48 306
48 307
48 313
48 314
48 315
48 316
48 317
48 318
48 319
48 320
48 321
48 322
48 324
48 325
48 326
48 327
48 328
48 329
48 330
48 331
48 332
48 333
48 334
48 335
48 336
48 337
48 338
48 339
48 340
48 341
48 343
48 344
48 345
48 346
48 347
48 348
48 349
48 350
48 351
48 352
48 353
48 354
48 355
48 356
48 357
48 358
48 359
48 360
48 362
48 363
48 364
48 365
48 366
48 367
48 368
48 370
48 371
48 377
48 381
48 382
48 384
48 385
48 387
48 388
48 396
48 397
48 398
48 399
48 400
48 401
48 402
48 403
48 404
48 406
48 407
48 408
48 409
48 410
48 411
48 412
48 413
48 414
48 415
48 417
48 418
48 419
48 420
48 421
48 422
48 423
48 424
48 425
48 426
48 427
48 428
48 429
48 430
48 431
48 432
48 433
48 434
48 436
48 437
48 438
48 439
48 440
48 441
48 442
48 443
48 444
48 445
48 446
48 448
48 449
48 450
48 451
48 452
48 453
48 454
48 455
48 456
48 457
48 459
48 460
48 461
48 464
48 465
48 468
48 471
48 472
48 473
48 474
48 475
48 476
48 478
48 479
48 480
48 481
48 482
48 483
48 484
48 485
48 486
48 487
48 488
48 489
48 490
48 492
48 493
48 494
48 503
48 504
48 506
48 509
48 513
48 518
48 520
48 521
48 525
48 531
48 533
48 534
48 536
48 537
48 542
48 545
48 548
48 549
48 551
48 553
48 554
48 560
48 563
48 564
48 565
48 566
48 567
48 568
48 569
48 571
48 572
48 573
48 574
48 575
48 576
48 577
48 578
48 579
49 50
49 51
49 52
49 53
49 54
49 55
49 56
49 57
49 58
49 59
49 60
49 61
49 62
49 63
49 64
49 66
49 67
49 68
49 69
49 70
49 72
49 73
49 75
49 76
49 78
49 81
49 87
49 90
49 92
49 95
49 102
49 103
49 105
49 106
49 109
49 110
49 111
49 117
49 118
49 119
49 120
49 121
49 122
49 123
49 124
49 125
49 126
49 127
49 129
49 130
49 131
49 132
49 133
49 134
49 135
49 136
49 138
49 139
49 141
49 142
49 149
49 150
49 151
49 152
49 153
49 154
49 155
49 156
49 157
49 158
49 159
49 161
49 162
49 163
49 165
49 166
49 169
49 170
49 172
49 174
49 181
49 182
49 183
49 184
49 187
49 189
49 190
49 191
49 198
49 199
49 203
49 204
49 211
49 213
49 214
49 216
49 218
49 220
49 222
49 229
49 230
49 231
49 233
49 234
49 239
49 240
49 245
49 246
49 249
49 251
49 253
49 254
49 259
49 260
49 261
49 262
49 263
49 264
49 265
49 266
49 267
49 268
49 269
49 270
49 271
49 272
49 273
49 274
49 276
49 277
49 278
49 279
49 280
49 281
49 283
49 284
49 285
49 288
49 291
49 296
49 297
49 301
49 302
49 304
49 306
49 307
49 313
49 314
49 315
49 316
49 317
49 318
49 319
49 320
49 321
49 322
49 323
49 324
49 325
49 326
49 327
49 329
49 330
49 331
49 332
49 333
49 334
49 335
49 336
49 337
49 338
49 339
49 340
49 341
49 342
49 343
49 345
49 346
49 347
49 348
49 349
49 350
49 351
49 352
49 353
49 354
49 355
49 356
49 357
49 358
49 359
49 360
49 361
49 362
49 363
49 365
49 366
49 367
49 368
49 369
49 370
49 371
49 372
49 373
49 374
49 375
49 376
49 378
49 379
49 380
49 381
49 382
49 384
49 385
49 387
49 388
49 396
49 397
49 400
49 401
49 402
49 404
49 405
49 411
49 412
49 413
49 414
49 415
49 416
49 417
49 418
49 420
49 421
49 422
49 423
49 424
49 425
49 426
49 427
49 428
49 431
49 432
49 435
49 439
49 441
49 444
49 447
49 453
49 456
49 457
49 458
49 459
49 460
49 461
49 462
49 463
49 464
49 465
49 466
49 467
49 469
49 470
49 471
49 472
49 473
49 474
49 475
49 476
49 477
49 478
49 479
49 480
49 481
49 482
49 484
49 485
49 486
49 487
49 488
49 489
49 490
49 492
49 493
49 494
49 503
49 504
49 505
49 506
49 507
49 508
49 509
49 510
49 511
49 512
49 514
49 515
49 516
49 517
49 518
49 519
49 520
49 521
49 522
49 523
49 524
49 526
49 527
49 528
49 529
49 530
49 531
49 532
49 533
49 534
49 535
49 536
49 537
49 538
49 539
49 540
49 541
49 543
49 544
49 545
49 546
49 547
49 548
49 549
49 551
49 553
49 554
49 560
49 565
49 566
49 567
49 568
49 570
49 578
50 51
50 55
50 58
50 60
50 61
50 65
50 68
50 69
50 70
50 72
50 73
50 75
50 76
50 78
50 81
50 87
50 90
50 92
50 95
50 102
50 103
50 105
50 106
50 109
50 110
50 111
50 117
50 118
50 119
50 120
50 121
50 122
50 123
50 124
50 125
50 126
50 127
50 128
50 129
50 130
50 131
50 132
50 134
50 135
50 136
50 138
50 139
50 141
50 142
50 150
50 151
50 154
50 156
50 160
50 165
50 166
50 169
50 170
50 172
50 174
50 181
50 182
50 183
50 184
50 187
50 189
50 190
50 191
50 198
50 199
50 200
50 201
50 202
50 203
50 204
50 205
50 206
50 207
50 208
50 209
50 210
50 212
50 213
50 214
50 215
50 216
50 217
50 218
50 219
50 220
50 221
50 222
50 223
50 224
50 225
50 226
50 227
50 228
50 230
50 231
50 233
50 234
50 239
50 240
50 245
50 246
50 247
50 248
50 249
50 250
50 251
50 252
50 253
50 254
50 255
50 256
50 257
50 258
50 260
50 261
50 262
50 263
50 264
50 265
50 266
50 267
50 268
50 269
50 270
50 271
50 272
50 273
50 274
50 275
50 276
50 277
50 279
50 280
50 281
50 283
50 284
50 285
50 288
50 291
50 296
50 297
50 301
50 302
50 304
50 306
50 307
50 313
50 314
50 316
50 317
50 318
50 320
50 321
50 323
50 328
50 332
50 333
50 334
50 335
50 336
50 338
50 339
50 342
50 344
50 349
50 350
50 351
50 352
50 353
50 354
50 355
50 356
50 357
50 358
50 359
50 360
50 361
50 362
50 363
50 364
50 366
50 367
50 368
50 370
50 371
50 377
50 381
50 382
50 384
50 385
50 387
50 388
50 396
50 397
50 400
50 401
50 402
50 404
50 405
50 412
50 414
50 416
50 419
50 426
50 427
50 428
50 429
50 430
50 431
50 432
50 433
50 434
50 435
50 436
50 437
50 438
50 440
50 441
50 442
50 443
50 444
50 445
50 446
50 447
50 448
50 449
50 450
50 451
50 452
50 454
50 455
50 456
50 457
50 459
50 460
50 461
50 464
50 465
50 468
50 471
50 472
50 473
50 474
50 475
50 476
50 477
50 478
50 479
50 480
50 481
50 482
50 483
50 484
50 486
50 487
50 488
50 489
50 490
50 492
50 493
50 494
50 503
50 504
50 506
50 509
50 513
50 518
50 519
50 520
50 521
50 522
50 523
50 524
50 525
50 526
50 527
50 528
50 529
50 530
50 532
50 533
50 534
50 535
50 536
50 537
50 538
50 539
50 540
50 541
50 542
50 543
50 544
50 546
50 547
50 548
50 549
50 550
50 551
50 552
50 553
50 554
50 555
50 556
50 557
50 558
50 559
50 561
50 562
50 563
50 564
50 565
50 566
50 567
50 568
50 569
50 570
50 571
50 572
50 573
50 574
50 575
50 576
50 577
50 579
51 52
51 53
51 54
51 55
51 56
51 57
51 58
51 59
51 60
51 61
51 62
51 63
51 64
51 65
51 66
51 67
51 71
51 72
51 74
51 76
51 77
51 78
51 79
51 80
51 88
51 89
51 90
51 91
51 93
51 94
51 99
51 104
51 107
51 108
51 109
51 111
51 112
51 114
51 116
51 118
51 120
51 121
51 122
51 123
51 124
51 127
51 128
51 131
51 134
51 136
51 137
51 138
51 139
51 140
51 141
51 142
51 143
51 144
51 145
51 146
51 147
51 148
51 149
51 153
51 155
51 156
51 157
51 160
51 164
51 167
51 168
51 169
51 172
51 173
51 174
51 175
51 177
51 180
51 186
51 188
51 189
51 190
51 196
51 197
51 200
51 202
51 203
51 209
51 212
51 214
51 215
51 216
51 217
51 218
51 219
51 220
51 221
51 222
51 223
51 224
51 225
51 226
51 227
51 228
51 229
51 231
51 232
51 233
51 234
51 235
51 236
51 237
51 238
51 239
51 240
51 241
51 242
51 243
51 244
51 247
51 248
51 250
51 251
51 252
51 253
51 254
51 255
51 261
51 262
51 263
51 264
51 265
51 266
51 267
51 268
51 269
51 270
51 271
51 272
51 273
51 274
51 275
51 276
51 277
51 278
51 279
51 281
51 282
51 283
51 284
51 285
51 286
51 287
51 288
51 289
51 290
51 291
51 292
51 293
51 294
51 295
51 297
51 298
51 299
51 300
51 301
51 302
51 303
51 304
51 305
51 306
51 307
51 308
51 309
51 310
51 311
51 312
51 315
51 316
51 319
51 320
51 321
51 322
51 326
51 328
51 331
51 333
51 334
51 335
51 336
51 337
51 338
51 339
51 340
51 341
51 342
51 343
51 344
51 345
51 346
51 347
51 348
51 350
51 352
51 353
51 354
51 357
51 358
51 359
51 360
51 364
51 367
51 368
51 369
51 370
51 371
51 372
51 373
51 374
51 375
51 376
51 377
51 378
51 379
51 380
51 381
51 383
51 384
51 385
51 386
51 387
51 388
51 389
51 390
51 391
51 392
51 393
51 394
51 395
51 398
51 399
51 400
51 403
51 404
51 409
51 411
51 413
51 414
51 415
51 419
51 422
51 424
51 430
51 431
51 432
51 433
51 434
51 442
51 443
51 444
51 445
51 446
51 447
51 448
51 449
51 450
51 451
51 452
51 453
51 454
51 455
51 456
51 458
51 459
51 460
51 461
51 462
51 463
51 464
51 465
51 466
51 467
51 468
51 469
51 470
51 473
51 475
51 476
51 481
51 483
51 486
51 488
51 490
51 491
51 492
51 493
51 494
51 495
51 496
51 497
51 498
51 499
51 500
51 501
51 502
51 505
51 507
51 508
51 509
51 510
51 511
51 513
51 517
51 519
51 522
51 523
51 525
51 529
51 534
51 535
51 536
51 537
51 538
51 540
51 542
51 544
51 546
51 550
51 552
51 553
51 554
51 555
51 557
51 558
51 561
51 563
51 564
51 567
51 568
51 569
51 573
51 579
52 53
52 54
52 55
52 56
52 57
52 58
52 59
52 60
52 61
52 62
52 63
52 64
52 65
52 66
52 67
52 71
52 72
52 74
52 76
52 77
52 78
52 79
52 80
52 87
52 89
52 90
52 91
52 92
52 93
52 94
52 95
52 96
52 97
52 98
52 99
52 100
52 101
52 102
52 103
52 105
52 106
52 107
52 108
52 109
52 110
52 111
52 112
52 113
52 114
52 115
52 116
52 118
52 120
52 121
52 122
52 123
52 124
52 127
52 128
52 131
52 134
52 135
52 136
52 138
52 139
52 140
52 141
52 142
52 143
52 144
52 145
52 146
52 147
52 148
52 150
52 151
52 152
52 153
52 154
52 155
52 156
52 157
52 158
52 159
52 160
52 161
52 162
52 163
52 165
52 166
52 167
52 168
52 169
52 170
52 171
52 172
52 173
52 174
52 175
52 176
52 177
52 178
52 179
52 180
52 186
52 188
52 189
52 190
52 196
52 197
52 200
52 202
52 203
52 209
52 212
52 213
52 215
52 217
52 219
52 220
52 221
52 226
52 228
52 230
52 231
52 233
52 234
52 235
52 236
52 237
52 238
52 239
52 240
52 241
52 242
52 243
52 244
52 247
52 248
52 250
52 251
52 252
52 253
52 254
52 255
52 260
52 262
52 263
52 264
52 265
52 266
52 267
52 268
52 269
52 270
52 271
52 272
52 273
52 274
52 275
52 276
52 277
52 278
52 280
52 282
52 283
52 287
52 289
52 290
52 292
52 294
52 296
52 297
52 299
52 300
52 301
52 302
52 303
52 304
52 305
52 306
52 307
52 308
52 309
52 310
52 311
52 312
52 315
52 316
52 319
52 320
52 321
52 322
52 326
52 328
52 331
52 332
52 334
52 336
52 337
52 338
52 339
52 340
52 341
52 344
52 348
52 349
52 351
52 352
52 353
52 354
52 355
52 356
52 357
52 358
52 359
52 360
52 361
52 362
52 363
52 364
52 365
52 366
52 368
52 370
52 371
52 375
52 377
52 379
52 381
52 382
52 384
52 385
52 386
52 387
52 388
52 389
52 390
52 391
52 392
52 393
52 394
52 395
52 398
52 399
52 400
52 403
52 404
52 409
52 412
52 413
52 414
52 415
52 416
52 417
52 418
52 419
52 420
52 421
52 422
52 423
52 424
52 425
52 430
52 431
52 432
52 433
52 434
52 441
52 442
52 445
52 446
52 449
52 454
52 457
52 458
52 459
52 463
52 465
52 466
52 468
52 470
52 473
52 475
52 476
52 481
52 483
52 486
52 488
52 489
52 490
52 492
52 493
52 494
52 495
52 496
52 497
52 498
52 499
52 500
52 501
52 502
52 505
52 507
52 508
52 509
52 510
52 511
52 513
52 517
52 519
52 522
52 523
52 525
52 529
52 534
52 535
52 536
52 537
52 538
52 540
52 542
52 544
52 546
52 550
52 552
52 553
52 554
52 555
52 557
52 558
52 561
52 564
52 565
52 566
52 567
52 568
52 569
52 570
52 571
52 572
52 573
52 574
52 575
52 576
52 577
52 578
52 579
53 54
53 55
53 56
53 57
53 58
53 59
53 60
53 61
53 62
53 63
53 64
53 65
53 66
53 67
53 71
53 72
53 74
53 76
53 77
53 78
53 79
53 80
53 87
53 88
53 90
53 91
53 92
53 93
53 94
53 95
53 96
53 97
53 98
53 99
53 100
53 101
53 102
53 103
53 104
53 105
53 106
53 108
53 109
53 110
53 111
53 112
53 113
53 114
53 115
53 116
53 118
53 120
53 121
53 122
53 123
53 124
53 127
53 128
53 131
53 135
53 137
53 141
53 142
53 143
53 145
53 149
53 153
53 155
53 156
53 157
53 160
53 164
53 165
53 166
53 168
53 169
53 170
53 171
53 172
53 173
53 174
53 175
53 176
53 177
53 178
53 179
53 180
53 186
53 188
53 189
53 190
53 196
53 197
53 200
53 202
53 203
53 209
53 212
53 213
53 215
53 217
53 219
53 220
53 221
53 226
53 228
53 230
53 231
53 232
53 233
53 234
53 236
53 237
53 238
53 239
53 240
53 241
53 242
53 243
53 244
53 245
53 246
53 248
53 249
53 250
53 251
53 252
53 253
53 254
53 255
53 256
53 257
53 258
53 259
53 260
53 261
53 263
53 266
53 268
53 269
53 270
53 271
53 274
53 275
53 279
53 280
53 281
53 283
53 284
53 285
53 286
53 287
53 288
53 289
53 290
53 291
53 292
53 293
53 294
53 295
53 296
53 297
53 298
53 300
53 301
53 302
53 303
53 304
53 305
53 306
53 307
53 308
53 309
53 310
53 311
53 312
53 313
53 314
53 316
53 317
53 318
53 319
53 320
53 321
53 322
53 323
53 324
53 325
53 326
53 327
53 328
53 329
53 330
53 331
53 332
53 334
53 336
53 337
53 338
53 339
53 340
53 341
53 344
53 348
53 349
53 350
53 351
53 353
53 354
53 355
53 356
53 357
53 358
53 359
53 360
53 361
53 362
53 363
53 364
53 365
53 366
53 368
53 370
53 371
53 375
53 377
53 379
53 382
53 383
53 386
53 387
53 389
53 390
53 391
53 392
53 396
53 397
53 399
53 400
53 401
53 402
53 403
53 404
53 405
53 406
53 407
53 408
53 409
53 410
53 411
53 413
53 414
53 415
53 419
53 422
53 424
53 430
53 431
53 432
53 433
53 434
53 441
53 442
53 445
53 446
53 449
53 454
53 457
53 458
53 459
53 463
53 465
53 466
53 468
53 470
53 473
53 475
53 476
53 481
53 483
53 486
53 489
53 491
53 496
53 497
53 498
53 502
53 503
53 504
53 506
53 507
53 508
53 509
53 510
53 511
53 512
53 513
53 514
53 515
53 516
53 517
53 518
53 520
53 521
53 522
53 523
53 524
53 525
53 526
53 527
53 528
53 529
53 530
53 531
53 532
53 534
53 535
53 536
53 537
53 538
53 540
53 542
53 544
53 546
53 548
53 549
53 551
53 552
53 553
53 554
53 555
53 556
53 557
53 558
53 559
53 560
53 561
53 562
53 563
53 565
53 566
53 567
53 568
53 569
53 570
53 571
53 572
53 573
53 574
53 575
53 576
53 577
53 578
53 579
54 55
54 56
54 57
54 58
54 59
54 60
54 61
54 62
54 63
54 64
54 65
54 66
54 67
54 68
54 69
54 70
54 72
54 73
54 74
54 75
54 76
54 77
54 78
54 79
54 80
54 81
54 82
54 83
54 84
54 85
54 86
54 88
54 89
54 90
54 91
54 93
54 94
54 99
54 102
54 103
54 104
54 105
54 106
54 107
54 109
54 110
54 111
54 112
54 113
54 114
54 115
54 116
54 118
54 120
54 121
54 122
54 123
54 124
54 127
54 128
54 131
54 135
54 137
54 141
54 142
54 143
54 145
54 149
54 153
54 155
54 156
54 157
54 160
54 164
54 165
54 166
54 167
54 169
54 170
54 171
54 172
54 173
54 174
54 175
54 176
54 177
54 178
54 179
54 180
54 186
54 188
54 189
54 190
54 196
54 197
54 198
54 199
54 201
54 202
54 203
54 204
54 205
54 206
54 207
54 208
54 209
54 210
54 211
54 212
54 213
54 214
54 216
54 217
54 218
54 219
54 220
54 221
54 222
54 223
54 224
54 225
54 226
54 227
54 228
54 229
54 230
54 231
54 232
54 233
54 234
54 235
54 237
54 238
54 239
54 240
54 241
54 242
54 243
54 244
54 245
54 246
54 247
54 249
54 250
54 251
54 252
54 253
54 254
54 255
54 256
54 257
54 258
54 259
54 260
54 261
54 263
54 266
54 268
54 269
54 270
54 271
54 274
54 275
54 280
54 282
54 283
54 287
54 289
54 290
54 292
54 294
54 296
54 297
54 298
54 299
54 301
54 302
54 303
54 304
54 305
54 306
54 307
54 308
54 309
54 310
54 311
54 312
54 315
54 316
54 319
54 320
54 321
54 322
54 326
54 328
54 331
54 332
54 334
54 336
54 337
54 338
54 339
54 340
54 341
54 344
54 348
54 349
54 350
54 351
54 352
54 354
54 355
54 356
54 357
54 358
54 359
54 360
54 361
54 362
54 363
54 364
54 365
54 366
54 368
54 370
54 371
54 375
54 377
54 379
54 381
54 382
54 383
54 384
54 385
54 387
54 388
54 389
54 390
54 391
54 392
54 393
54 394
54 395
54 396
54 397
54 398
54 400
54 401
54 402
54 403
54 404
54 405
54 406
54 407
54 408
54 409
54 410
54 411
54 413
54 414
54 415
54 419
54 422
54 424
54 430
54 431
54 432
54 433
54 434
54 441
54 443
54 444
54 445
54 446
54 447
54 448
54 449
54 450
54 451
54 452
54 453
54 454
54 455
54 456
54 457
54 459
54 460
54 461
54 462
54 463
54 464
54 465
54 466
54 467
54 468
54 469
54 470
54 471
54 472
54 474
54 475
54 476
54 477
54 478
54 479
54 480
54 481
54 482
54 483
54 484
54 485
54 486
54 487
54 489
54 491
54 496
54 497
54 498
54 502
54 505
54 507
54 508
54 509
54 510
54 511
54 513
54 517
54 519
54 522
54 523
54 525
54 529
54 534
54 535
54 536
54 537
54 538
54 540
54 542
54 544
54 546
54 550
54 552
54 553
54 554
54 555
54 557
54 558
54 561
54 563
54 564
54 567
54 568
54 569
54 573
54 579
55 56
55 57
55 58
55 59
55 60
55 61
55 62
55 63
55 64
55 65
55 66
55 67
55 68
55 69
55 70
55 71
55 73
55 74
55 75
55 76
55 77
55 78
55 79
55 80
55 81
55 82
55 83
55 84
55 85
55 86
55 87
55 88
55 89
55 91
55 92
55 93
55 94
55 95
55 96
55 97
55 98
55 99
55 100
55 101
55 102
55 103
55 104
55 105
55 106
55 107
55 108
55 110
55 111
55 112
55 113
55 114
55 115
55 116
55 117
55 119
55 120
55 121
55 122
55 123
55 124
55 125
55 126
55 127
55 128
55 129
55 130
55 131
55 132
55 133
55 135
55 137
55 141
55 142
55 143
55 145
55 149
55 153
55 155
55 156
55 157
55 160
55 164
55 165
55 166
55 167
55 168
55 170
55 171
55 172
55 173
55 174
55 175
55 176
55 177
55 178
55 179
55 180
55 186
55 188
55 189
55 190
55 196
55 197
55 200
55 202
55 203
55 209
55 212
55 213
55 215
55 217
55 219
55 220
55 221
55 226
55 228
55 230
55 232
55 235
55 236
55 237
55 238
55 239
55 247
55 248
55 250
55 251
55 252
55 253
55 254
55 255
55 260
55 261
55 262
55 264
55 265
55 266
55 267
55 268
55 269
55 270
55 271
55 272
55 273
55 274
55 275
55 276
55 277
55 278
55 279
55 280
55 281
55 282
55 284
55 285
55 286
55 287
55 288
55 289
55 290
55 291
55 292
55 293
55 294
55 295
55 296
55 298
55 299
55 300
55 305
55 306
55 307
55 308
55 313
55 314
55 315
55 317
55 318
55 319
55 320
55 321
55 322
55 323
55 324
55 325
55 326
55 327
55 328
55 329
55 330
55 331
55 332
55 333
55 335
55 336
55 337
55 338
55 339
55 340
55 341
55 342
55 343
55 344
55 345
55 346
55 347
55 348
55 349
55 350
55 351
55 352
55 353
55 355
55 356
55 357
55 358
55 359
55 360
55 361
55 362
55 363
55 364
55 365
55 366
55 367
55 369
55 370
55 371
55 372
55 373
55 374
55 375
55 376
55 377
55 378
55 379
55 380
55 381
55 382
55 383
55 384
55 385
55 386
55 388
55 389
55 390
55 391
55 392
55 393
55 394
55 395
55 396
55 397
55 398
55 399
55 401
55 402
55 403
55 404
55 405
55 406
55 407
55 408
55 409
55 410
55 411
55 413
55 414
55 415
55 419
55 422
55 424
55 430
55 431
55 432
55 433
55 434
55 441
55 442
55 445
55 446
55 449
55 454
55 456
55 457
55 458
55 460
55 461
55 462
55 463
55 464
55 465
55 466
55 467
55 468
55 469
55 470
55 473
55 475
55 476
55 481
55 483
55 486
55 489
55 491
55 496
55 497
55 498
55 502
55 505
55 507
55 508
55 509
55 510
55 511
55 513
55 517
55 519
55 522
55 523
55 525
55 529
55 533
55 535
55 536
55 537
55 538
55 539
55 540
55 541
55 542
55 543
55 544
55 545
55 546
55 547
55 550
55 552
55 553
55 554
55 555
55 557
55 558
55 561
55 563
55 564
55 567
55 568
55 569
55 573
55 579
56 57
56 58
56 59
56 60
56 61
56 62
56 63
56 64
56 65
56 66
56 67
56 68
56 69
56 70
56 71
56 72
56 73
56 75
56 76
56 77
56 78
56 79
56 80
56 81
56 82
56 83
56 84
56 85
56 86
56 87
56 88
56 89
56 90
56 92
56 93
56 94
56 95
56 96
56 97
56 98
56 99
56 100
56 101
56 104
56 107
56 108
56 109
56 111
56 112
56 114
56 116
56 117
56 118
56 119
56 121
56 122
56 123
56 124
56 125
56 126
56 127
56 128
56 129
56 130
56 131
56 132
56 133
56 135
56 137
56 141
56 142
56 143
56 145
56 149
56 150
56 151
56 152
56 154
56 155
56 156
56 157
56 158
56 159
56 160
56 161
56 162
56 163
56 164
56 167
56 168
56 169
56 172
56 173
56 174
56 175
56 177
56 180
56 181
56 182
56 183
56 184
56 185
56 187
56 188
56 189
56 190
56 191
56 192
56 193
56 194
56 195
56 196
56 197
56 200
56 202
56 203
56 209
56 212
56 213
56 214
56 215
56 216
56 218
56 219
56 220
56 221
56 222
56 223
56 224
56 225
56 226
56 227
56 228
56 229
56 230
56 231
56 232
56 233
56 234
56 235
56 236
56 238
56 239
56 240
56 241
56 242
56 243
56 244
56 247
56 248
56 250
56 251
56 252
56 253
56 254
56 255
56 260
56 261
56 262
56 263
56 264
56 265
56 267
56 268
56 269
56 270
56 271
56 272
56 273
56 274
56 275
56 276
56 277
56 278
56 279
56 280
56 281
56 282
56 283
56 284
56 285
56 286
56 288
56 289
56 290
56 291
56 292
56 293
56 294
56 295
56 296
56 298
56 299
56 300
56 305
56 306
56 307
56 308
56 315
56 316
56 319
56 320
56 321
56 322
56 326
56 328
56 331
56 332
56 334
56 336
56 337
56 338
56 339
56 340
56 341
56 344
56 348
56 350
56 352
56 353
56 354
56 357
56 358
56 359
56 360
56 364
56 366
56 368
56 370
56 371
56 375
56 377
56 379
56 381
56 382
56 383
56 384
56 385
56 386
56 387
56 388
56 390
56 391
56 392
56 393
56 394
56 395
56 398
56 399
56 400
56 403
56 404
56 409
56 411
56 412
56 414
56 415
56 416
56 417
56 418
56 419
56 420
56 421
56 422
56 423
56 424
56 425
56 430
56 431
56 432
56 433
56 434
56 441
56 442
56 445
56 446
56 449
56 454
56 456
56 457
56 458
56 459
56 460
56 461
56 462
56 464
56 465
56 466
56 467
56 468
56 469
56 470
56 473
56 475
56 476
56 481
56 483
56 486
56 489
56 491
56 496
56 497
56 498
56 502
56 503
56 504
56 505
56 506
56 508
56 509
56 510
56 511
56 512
56 513
56 514
56 515
56 516
56 517
56 519
56 522
56 523
56 525
56 529
56 534
56 535
56 536
56 537
56 538
56 540
56 542
56 544
56 546
56 548
56 549
56 550
56 551
56 553
56 554
56 555
56 556
56 557
56 558
56 559
56 560
56 561
56 562
56 563
56 564
56 567
56 568
56 569
56 573
56 579
57 58
57 59
57 60
57 61
57 62
57 63
57 64
57 65
57 66
57 67
57 71
57 72
57 74
57 76
57 77
57 78
57 79
57 80
57 88
57 89
57 90
57 91
57 93
57 94
57 99
57 104
57 107
57 108
57 109
57 111
57 112
57 114
57 116
57 117
57 118
57 119
57 120
57 122
57 123
57 124
57 125
57 126
57 127
57 128
57 129
57 130
57 131
57 132
57 133
57 135
57 137
57 141
57 142
57 143
57 145
57 149
57 150
57 151
57 152
57 153
57 154
57 156
57 157
57 158
57 159
57 160
57 161
57 162
57 163
57 164
57 167
57 168
57 169
57 172
57 173
57 174
57 175
57 177
57 180
57 181
57 182
57 183
57 184
57 185
57 186
57 187
57 189
57 190
57 191
57 192
57 193
57 194
57 195
57 196
57 197
57 198
57 199
57 200
57 201
57 203
57 204
57 205
57 206
57 207
57 208
57 209
57 210
57 211
57 212
57 213
57 214
57 215
57 216
57 217
57 218
57 220
57 221
57 222
57 223
57 224
57 225
57 226
57 227
57 228
57 229
57 230
57 231
57 232
57 233
57 234
57 235
57 236
57 237
57 239
57 240
57 241
57 242
57 243
57 244
57 245
57 246
57 247
57 248
57 249
57 251
57 252
57 253
57 254
57 255
57 256
57 257
57 258
57 259
57 260
57 261
57 262
57 263
57 264
57 265
57 266
57 267
57 269
57 270
57 271
57 272
57 273
57 274
57 275
57 276
57 277
57 278
57 279
57 280
57 281
57 282
57 283
57 284
57 285
57 286
57 287
57 288
57 290
57 291
57 292
57 293
57 294
57 295
57 296
57 297
57 298
57 299
57 300
57 301
57 302
57 303
57 304
57 306
57 307
57 308
57 309
57 310
57 311
57 312
57 313
57 314
57 315
57 316
57 317
57 318
57 320
57 321
57 322
57 323
57 324
57 325
57 326
57 327
57 328
57 329
57 330
57 331
57 332
57 334
57 336
57 337
57 338
57 339
57 340
57 341
57 344
57 348
57 349
57 350
57 351
57 352
57 353
57 354
57 355
57 356
57 358
57 359
57 360
57 361
57 362
57 363
57 364
57 365
57 366
57 368
57 370
57 371
57 375
57 377
57 379
57 381
57 382
57 383
57 384
57 385
57 386
57 387
57 388
57 389
57 391
57 392
57 393
57 394
57 395
57 398
57 399
57 400
57 403
57 404
57 409
57 411
57 413
57 414
57 415
57 419
57 422
57 424
57 430
57 431
57 432
57 433
57 434
57 441
57 442
57 445
57 446
57 449
57 454
57 457
57 458
57 459
57 463
57 465
57 466
57 468
57 470
57 471
57 472
57 473
57 474
57 476
57 477
57 478
57 479
57 480
57 481
57 482
57 483
57 484
57 485
57 486
57 487
57 488
57 489
57 490
57 491
57 492
57 493
57 494
57 495
57 497
57 498
57 499
57 500
57 501
57 502
57 503
57 504
57 505
57 506
57 507
57 509
57 510
57 511
57 512
57 513
57 514
57 515
57 516
57 517
57 519
57 522
57 523
57 525
57 529
57 533
57 534
57 536
57 537
57 538
57 539
57 540
57 541
57 542
57 543
57 544
57 545
57 546
57 547
57 550
57 552
57 553
57 554
57 555
57 557
57 558
57 561
57 563
57 564
57 567
57 568
57 569
57 573
57 579
58 59
58 60
58 61
58 62
58 63
58 64
58 65
58 66
58 67
58 68
58 69
58 70
58 71
58 72
58 73
58 74
58 75
58 77
58 78
58 79
58 80
58 81
58 82
58 83
58 84
58 85
58 86
58 88
58 89
58 90
58 91
58 93
58 94
58 99
58 102
58 103
58 104
58 105
58 106
58 107
58 108
58 109
58 110
58 112
58 113
58 114
58 115
58 116
58 118
58 120
58 121
58 122
58 123
58 124
58 127
58 128
58 131
58 134
58 135
58 136
58 137
58 138
58 139
58 140
58 142
58 143
58 144
58 145
58 146
58 147
58 148
58 149
58 150
58 151
58 152
58 153
58 154
58 155
58 157
58 158
58 159
58 160
58 161
58 162
58 163
58 164
58 165
58 166
58 167
58 168
58 169
58 170
58 171
58 173
58 174
58 175
58 176
58 177
58 178
58 179
58 180
58 181
58 182
58 183
58 184
58 185
58 186
58 187
58 188
58 190
58 191
58 192
58 193
58 194
58 195
58 196
58 197
58 200
58 202
58 203
58 209
58 212
58 213
58 215
58 217
58 219
58 220
58 221
58 226
58 228
58 230
58 232
58 235
58 236
58 237
58 238
58 239
58 245
58 246
58 247
58 248
58 249
58 250
58 252
58 253
58 254
58 255
58 256
58 257
58 258
58 259
58 260
58 261
58 263
58 266
58 268
58 269
58 270
58 271
58 274
58 275
58 280
58 282
58 283
58 287
58 289
58 290
58 292
58 294
58 296
58 297
58 298
58 299
58 300
58 301
58 302
58 303
58 304
58 305
58 307
58 308
58 309
58 310
58 311
58 312
58 313
58 314
58 315
58 316
58 317
58 318
58 319
58 321
58 322
58 323
58 324
58 325
58 326
58 327
58 328
58 329
58 330
58 331
58 332
58 333
58 334
58 335
58 337
58 338
58 339
58 340
58 341
58 342
58 343
58 344
58 345
58 346
58 347
58 348
58 349
58 350
58 351
58 352
58 353
58 354
58 355
58 356
58 357
58 359
58 360
58 361
58 362
58 363
58 364
58 365
58 366
58 367
58 368
58 369
58 371
58 372
58 373
58 374
58 375
58 376
58 377
58 378
58 379
58 380
58 382
58 383
58 386
58 387
58 389
58 390
58 391
58 392
58 398
58 399
58 400
58 403
58 404
58 409
58 411
58 412
58 413
58 415
58 416
58 417
58 418
58 419
58 420
58 421
58 422
58 423
58 424
58 425
58 430
58 431
58 432
58 433
58 434
58 441
58 442
58 445
58 446
58 449
58 454
58 457
58 458
58 459
58 463
58 465
58 466
58 468
58 470
58 473
58 475
58 476
58 481
58 483
58 486
58 489
58 491
58 496
58 497
58 498
58 502
58 505
58 507
58 508
58 509
58 510
58 511
58 513
58 517
58 519
58 522
58 523
58 525
58 529
58 534
58 535
58 536
58 537
58 538
58 540
58 542
58 544
58 546
58 548
58 549
58 550
58 551
58 552
58 554
58 555
58 556
58 557
58 558
58 559
58 560
58 561
58 562
58 563
58 564
58 565
58 566
58 568
58 569
58 570
58 571
58 572
58 573
58 574
58 575
58 576
58 577
58 578
58 579
59 60
59 61
59 62
59 63
59 64
59 65
59 66
59 67
59 68
59 69
59 70
59 71
59 72
59 73
59 74
59 75
59 76
59 78
59 79
59 80
59 81
59 82
59 83
59 84
59 85
59 86
59 88
59 89
59 90
59 91
59 93
59 94
59 99
59 104
59 107
59 108
59 109
59 111
59 112
59 114
59 116
59 117
59 118
59 119
59 120
59 121
59 123
59 124
59 125
59 126
59 127
59 128
59 129
59 130
59 131
59 132
59 133
59 135
59 137
59 141
59 142
59 143
59 145
59 149
59 150
59 151
59 152
59 153
59 154
59 155
59 156
59 158
59 159
59 160
59 161
59 162
59 163
59 164
59 165
59 166
59 167
59 168
59 169
59 170
59 171
59 172
59 174
59 175
59 176
59 177
59 178
59 179
59 180
59 186
59 188
59 189
59 190
59 196
59 197
59 200
59 202
59 203
59 209
59 212
59 213
59 215
59 217
59 219
59 220
59 221
59 226
59 228
59 230
59 232
59 235
59 236
59 237
59 238
59 239
59 245
59 246
59 247
59 248
59 249
59 250
59 251
59 253
59 254
59 255
59 256
59 257
59 258
59 259
59 260
59 261
59 262
59 263
59 264
59 265
59 266
59 267
59 268
59 270
59 271
59 272
59 273
59 274
59 275
59 276
59 277
59 278
59 280
59 282
59 283
59 287
59 289
59 290
59 292
59 294
59 296
59 298
59 299
59 300
59 305
59 306
59 307
59 308
59 315
59 316
59 319
59 320
59 321
59 322
59 326
59 328
59 331
59 332
59 333
59 334
59 335
59 336
59 338
59 339
59 340
59 341
59 342
59 343
59 344
59 345
59 346
59 347
59 348
59 349
59 350
59 351
59 352
59 353
59 354
59 355
59 356
59 357
59 358
59 360
59 361
59 362
59 363
59 364
59 365
59 366
59 368
59 370
59 371
59 375
59 377
59 379
59 381
59 382
59 383
59 384
59 385
59 386
59 387
59 388
59 389
59 390
59 392
59 393
59 394
59 395
59 396
59 397
59 398
59 399
59 400
59 401
59 402
59 404
59 405
59 406
59 407
59 408
59 409
59 410
59 411
59 413
59 414
59 415
59 419
59 422
59 424
59 426
59 427
59 428
59 429
59 431
59 432
59 433
59 434
59 435
59 436
59 437
59 438
59 439
59 440
59 441
59 442
59 443
59 444
59 446
59 447
59 448
59 449
59 450
59 451
59 452
59 453
59 454
59 455
59 457
59 458
59 459
59 463
59 465
59 466
59 468
59 470
59 471
59 472
59 473
59 474
59 475
59 477
59 478
59 479
59 480
59 481
59 482
59 483
59 484
59 485
59 486
59 487
59 488
59 489
59 490
59 491
59 492
59 493
59 494
59 495
59 496
59 498
59 499
59 500
59 501
59 502
59 505
59 507
59 508
59 509
59 510
59 511
59 513
59 517
59 518
59 519
59 520
59 521
59 523
59 524
59 525
59 526
59 527
59 528
59 529
59 530
59 531
59 532
59 534
59 535
59 536
59 537
59 538
59 540
59 542
59 544
59 546
59 550
59 552
59 553
59 554
59 555
59 557
59 558
59 561
59 563
59 564
59 567
59 568
59 569
59 573
59 579
60 61
60 62
60 63
60 64
60 65
60 66
60 67
60 68
60 69
60 70
60 71
60 72
60 73
60 74
60 75
60 76
60 77
60 79
60 80
60 81
60 82
60 83
60 84
60 85
60 86
60 88
60 89
60 90
60 91
60 93
60 94
60 99
60 104
60 107
60 108
60 109
60 111
60 112
60 114
60 116
60 118
60 120
60 121
60 122
60 123
60 124
60 127
60 128
60 131
60 134
60 135
60 136
60 137
60 138
60 139
60 140
60 141
60 143
60 144
60 145
60 146
60 147
60 148
60 149
60 153
60 155
60 156
60 157
60 160
60 164
60 165
60 166
60 167
60 168
60 169
60 170
60 171
60 172
60 173
60 175
60 176
60 177
60 178
60 179
60 180
60 181
60 182
60 183
60 184
60 185
60 186
60 187
60 188
60 189
60 191
60 192
60 193
60 194
60 195
60 196
60 197
60 198
60 199
60 200
60 201
60 202
60 204
60 205
60 206
60 207
60 208
60 209
60 210
60 211
60 212
60 213
60 215
60 217
60 219
60 220
60 221
60 226
60 228
60 230
60 232
60 235
60 236
60 237
60 238
60 239
60 245
60 246
60 247
60 248
60 249
60 250
60 251
60 252
60 254
60 255
60 256
60 257
60 258
60 259
60 260
60 261
60 262
60 263
60 264
60 265
60 266
60 267
60 268
60 269
60 271
60 272
60 273
60 274
60 275
60 276
60 277
60 278
60 280
60 282
60 283
60 287
60 289
60 290
60 292
60 294
60 296
60 298
60 299
60 300
60 305
60 306
60 307
60 308
60 315
60 316
60 319
60 320
60 321
60 322
60 326
60 328
60 331
60 332
60 333
60 334
60 335
60 336
60 337
60 339
60 340
60 341
60 342
60 343
60 344
60 345
60 346
60 347
60 348
60 350
60 352
60 353
60 354
60 357
60 358
60 359
60 360
60 364
60 366
60 367
60 368
60 369
60 370
60 372
60 373
60 374
60 375
60 376
60 377
60 378
60 379
60 380
60 382
60 383
60 386
60 387
60 389
60 390
60 391
60 392
60 396
60 397
60 398
60 399
60 400
60 401
60 402
60 403
60 405
60 406
60 407
60 408
60 409
60 410
60 411
60 413
60 414
60 415
60 419
60 422
60 424
60 426
60 427
60 428
60 429
60 430
60 432
60 433
60 434
60 435
60 436
60 437
60 438
60 439
60 440
60 441
60 442
60 445
60 446
60 449
60 454
60 457
60 458
60 459
60 463
60 465
60 466
60 468
60 470
60 473
60 475
60 476
60 481
60 483
60 486
60 489
60 491
60 496
60 497
60 498
60 502
60 505
60 507
60 508
60 509
60 510
60 511
60 513
60 517
60 519
60 522
60 523
60 525
60 529
60 533
60 534
60 535
60 537
60 538
60 539
60 540
60 541
60 542
60 543
60 544
60 545
60 546
60 547
60 550
60 552
60 553
60 554
60 555
60 557
60 558
60 561
60 563
60 564
60 565
60 566
60 567
60 569
60 570
60 571
60 572
60 573
60 574
60 575
60 576
60 577
60 578
60 579
61 62
61 63
61 64
61 65
61 66
61 67
61 71
61 72
61 74
61 76
61 77
61 78
61 79
61 80
61 88
61 89
61 90
61 91
61 93
61 94
61 99
61 104
61 107
61 108
61 109
61 111
61 112
61 114
61 116
61 118
61 120
61 121
61 122
61 123
61 124
61 127
61 128
61 131
61 135
61 137
61 141
61 142
61 143
61 145
61 149
61 153
61 155
61 156
61 157
61 160
61 164
61 167
61 168
61 169
61 172
61 173
61 174
61 175
61 177
61 180
61 186
61 188
61 189
61 190
61 196
61 197
61 200
61 202
61 203
61 209
61 212
61 213
61 214
61 215
61 216
61 217
61 218
61 219
61 221
61 222
61 223
61 224
61 225
61 226
61 227
61 228
61 229
61 230
61 231
61 232
61 233
61 234
61 235
61 236
61 237
61 238
61 240
61 241
61 242
61 243
61 244
61 245
61 246
61 247
61 248
61 249
61 250
61 251
61 252
61 253
61 255
61 256
61 257
61 258
61 259
61 260
61 261
61 263
61 266
61 268
61 269
61 270
61 271
61 274
61 275
61 280
61 282
61 283
61 287
61 289
61 290
61 292
61 294
61 296
61 297
61 298
61 299
61 300
61 301
61 302
61 303
61 304
61 305
61 306
61 308
61 309
61 310
61 311
61 312
61 313
61 314
61 315
61 316
61 317
61 318
61 319
61 320
61 322
61 323
61 324
61 325
61 326
61 327
61 328
61 329
61 330
61 331
61 332
61 333
61 334
61 335
61 336
61 337
61 338
61 340
61 341
61 342
61 343
61 344
61 345
61 346
61 347
61 348
61 350
61 352
61 353
61 354
61 357
61 358
61 359
61 360
61 364
61 366
61 368
61 370
61 371
61 375
61 377
61 379
61 382
61 383
61 386
61 387
61 389
61 390
61 391
61 392
61 398
61 399
61 400
61 403
61 404
61 409
61 411
61 413
61 414
61 415
61 419
61 422
61 424
61 426
61 427
61 428
61 429
61 430
61 431
61 433
61 434
61 435
61 436
61 437
61 438
61 439
61 440
61 441
61 442
61 445
61 446
61 449
61 454
61 456
61 457
61 458
61 459
61 460
61 461
61 462
61 463
61 464
61 466
61 467
61 468
61 469
61 470
61 473
61 475
61 476
61 481
61 483
61 486
61 489
61 491
61 496
61 497
61 498
61 502
61 503
61 504
61 505
61 506
61 507
61 508
61 510
61 511
61 512
61 513
61 514
61 515
61 516
61 517
61 519
61 522
61 523
61 525
61 529
61 533
61 534
61 535
61 536
61 538
61 539
61 540
61 541
61 542
61 543
61 544
61 545
61 546
61 547
61 548
61 549
61 550
61 551
61 552
61 553
61 555
61 556
61 557
61 558
61 559
61 560
61 561
61 562
61 563
61 564
61 567
61 568
61 569
61 573
61 579
62 63
62 64
62 65
62 66
62 67
62 68
62 69
62 70
62 71
62 72
62 73
62 74
62 75
62 76
62 77
62 78
62 80
62 81
62 82
62 83
62 84
62 85
62 86
62 87
62 88
62 89
62 90
62 91
62 92
62 94
62 95
62 96
62 97
62 98
62 99
62 100
62 101
62 102
62 103
62 104
62 105
62 106
62 107
62 108
62 109
62 110
62 111
62 113
62 114
62 115
62 116
62 117
62 118
62 119
62 120
62 121
62 122
62 124
62 125
62 126
62 127
62 128
62 129
62 130
62 131
62 132
62 133
62 135
62 137
62 141
62 142
62 143
62 145
62 149
62 153
62 155
62 156
62 157
62 160
62 164
62 167
62 168
62 169
62 172
62 173
62 174
62 175
62 177
62 180
62 186
62 188
62 189
62 190
62 196
62 197
62 200
62 202
62 203
62 209
62 212
62 213
62 215
62 217
62 219
62 220
62 221
62 226
62 228
62 230
62 232
62 235
62 236
62 237
62 238
62 239
62 245
62 246
62 247
62 248
62 249
62 250
62 251
62 252
62 253
62 254
62 256
62 257
62 258
62 259
62 260
62 261
62 263
62 266
62 268
62 269
62 270
62 271
62 274
62 275
62 279
62 280
62 281
62 282
62 283
62 284
62 285
62 286
62 287
62 288
62 289
62 291
62 292
62 293
62 294
62 295
62 296
62 298
62 299
62 300
62 305
62 306
62 307
62 308
62 313
62 314
62 315
62 316
62 317
62 318
62 319
62 320
62 321
62 323
62 324
62 325
62 326
62 327
62 328
62 329
62 330
62 331
62 332
62 333
62 334
62 335
62 336
62 337
62 338
62 339
62 341
62 342
62 343
62 344
62 345
62 346
62 347
62 348
62 349
62 350
62 351
62 352
62 353
62 354
62 355
62 356
62 357
62 358
62 359
62 361
62 362
62 363
62 364
62 365
62 366
62 368
62 370
62 371
62 375
62 377
62 379
62 382
62 383
62 386
62 387
62 389
62 390
62 391
62 392
62 398
62 399
62 400
62 403
62 404
62 409
62 411
62 412
62 413
62 414
62 416
62 417
62 418
62 419
62 420
62 421
62 422
62 423
62 424
62 425
62 426
62 427
62 428
62 429
62 430
62 431
62 432
62 434
62 435
62 436
62 437
62 438
62 439
62 440
62 441
62 442
62 443
62 444
62 445
62 447
62 448
62 449
62 450
62 451
62 452
62 453
62 454
62 455
62 457
62 458
62 459
62 463
62 465
62 466
62 468
62 470
62 473
62 475
62 476
62 481
62 483
62 486
62 488
62 489
62 490
62 491
62 492
62 493
62 494
62 495
62 496
62 497
62 499
62 500
62 501
62 502
62 503
62 504
62 505
62 506
62 507
62 508
62 509
62 511
62 512
62 513
62 514
62 515
62 516
62 517
62 519
62 522
62 523
62 525
62 529
62 534
62 535
62 536
62 537
62 538
62 540
62 542
62 544
62 546
62 550
62 552
62 553
62 554
62 555
62 557
62 558
62 561
62 563
62 564
62 567
62 568
62 569
62 573
62 579
63 64
63 65
63 66
63 67
63 68
63 69
63 70
63 71
63 72
63 73
63 74
63 75
63 76
63 77
63 78
63 79
63 81
63 82
63 83
63 84
63 85
63 86
63 87
63 88
63 89
63 90
63 91
63 92
63 93
63 95
63 96
63 97
63 98
63 99
63 100
63 101
63 104
63 107
63 108
63 109
63 111
63 112
63 114
63 116
63 117
63 118
63 119
63 120
63 121
63 122
63 123
63 125
63 126
63 127
63 128
63 129
63 130
63 131
63 132
63 133
63 134
63 135
63 136
63 137
63 138
63 139
63 140
63 141
63 142
63 144
63 145
63 146
63 147
63 148
63 149
63 153
63 155
63 156
63 157
63 160
63 164
63 165
63 166
63 167
63 168
63 169
63 170
63 171
63 172
63 173
63 174
63 176
63 177
63 178
63 179
63 180
63 186
63 188
63 189
63 190
63 196
63 197
63 200
63 202
63 203
63 209
63 212
63 213
63 214
63 215
63 216
63 217
63 218
63 219
63 220
63 222
63 223
63 224
63 225
63 226
63 227
63 228
63 229
63 230
63 232
63 235
63 236
63 237
63 238
63 239
63 247
63 248
63 250
63 251
63 252
63 253
63 254
63 255
63 260
63 261
63 262
63 263
63 264
63 265
63 266
63 267
63 268
63 269
63 270
63 272
63 273
63 274
63 275
63 276
63 277
63 278
63 280
63 282
63 283
63 287
63 289
63 290
63 292
63 294
63 296
63 297
63 298
63 299
63 300
63 301
63 302
63 303
63 304
63 305
63 306
63 307
63 309
63 310
63 311
63 312
63 315
63 316
63 319
63 320
63 321
63 322
63 326
63 328
63 331
63 332
63 333
63 334
63 335
63 336
63 337
63 338
63 339
63 340
63 342
63 343
63 344
63 345
63 346
63 347
63 348
63 350
63 352
63 353
63 354
63 357
63 358
63 359
63 360
63 364
63 366
63 368
63 370
63 371
63 375
63 377
63 379
63 381
63 382
63 383
63 384
63 385
63 386
63 387
63 388
63 389
63 390
63 391
63 393
63 394
63 395
63 398
63 399
63 400
63 403
63 404
63 409
63 411
63 413
63 414
63 415
63 419
63 422
63 424
63 426
63 427
63 428
63 429
63 430
63 431
63 432
63 433
63 435
63 436
63 437
63 438
63 439
63 440
63 441
63 442
63 445
63 446
63 449
63 454
63 456
63 457
63 458
63 459
63 460
63 461
63 462
63 463
63 464
63 465
63 467
63 468
63 469
63 470
63 473
63 475
63 476
63 481
63 483
63 486
63 489
63 491
63 496
63 497
63 498
63 502
63 505
63 507
63 508
63 509
63 510
63 511
63 513
63 517
63 518
63 519
63 520
63 521
63 522
63 524
63 525
63 526
63 527
63 528
63 529
63 530
63 531
63 532
63 533
63 534
63 535
63 536
63 537
63 539
63 540
63 541
63 542
63 543
63 544
63 545
63 546
63 547
63 548
63 549
63 550
63 551
63 552
63 553
63 554
63 556
63 557
63 558
63 559
63 560
63 561
63 562
63 563
63 564
63 565
63 566
63 567
63 568
63 570
63 571
63 572
63 573
63 574
63 575
63 576
63 577
63 578
63 579
64 65
64 66
64 67
64 71
64 72
64 74
64 76
64 77
64 78
64 79
64 80
64 87
64 88
64 89
64 90
64 91
64 92
64 93
64 94
64 95
64 96
64 97
64 98
64 100
64 101
64 102
64 103
64 104
64 105
64 106
64 107
64 108
64 109
64 110
64 111
64 112
64 113
64 115
64 116
64 117
64 118
64 119
64 120
64 121
64 122
64 123
64 124
64 125
64 126
64 128
64 129
64 130
64 131
64 132
64 133
64 134
64 135
64 136
64 137
64 138
64 139
64 140
64 141
64 142
64 143
64 144
64 146
64 147
64 148
64 149
64 153
64 155
64 156
64 157
64 160
64 164
64 165
64 166
64 167
64 168
64 169
64 170
64 171
64 172
64 173
64 174
64 175
64 176
64 178
64 179
64 180
64 186
64 188
64 189
64 190
64 196
64 197
64 200
64 202
64 203
64 209
64 212
64 213
64 214
64 215
64 216
64 217
64 218
64 219
64 220
64 221
64 222
64 223
64 224
64 225
64 227
64 228
64 229
64 230
64 232
64 235
64 236
64 237
64 238
64 239
64 247
64 248
64 250
64 251
64 252
64 253
64 254
64 255
64 260
64 261
64 262
64 263
64 264
64 265
64 266
64 267
64 268
64 269
64 270
64 271
64 272
64 273
64 275
64 276
64 277
64 278
64 279
64 280
64 281
64 282
64 283
64 284
64 285
64 286
64 287
64 288
64 289
64 290
64 291
64 293
64 294
64 295
64 296
64 298
64 299
64 300
64 305
64 306
64 307
64 308
64 313
64 314
64 315
64 316
64 317
64 318
64 319
64 320
64 321
64 322
64 323
64 324
64 325
64 327
64 328
64 329
64 330
64 331
64 332
64 334
64 336
64 337
64 338
64 339
64 340
64 341
64 344
64 348
64 350
64 352
64 353
64 354
64 357
64 358
64 359
64 360
64 364
64 366
64 367
64 368
64 369
64 370
64 371
64 372
64 373
64 374
64 376
64 377
64 378
64 379
64 380
64 382
64 383
64 386
64 387
64 389
64 390
64 391
64 392
64 398
64 399
64 400
64 403
64 404
64 409
64 411
64 413
64 414
64 415
64 419
64 422
64 424
64 430
64 431
64 432
64 433
64 434
64 441
64 442
64 443
64 444
64 445
64 446
64 447
64 448
64 450
64 451
64 452
64 453
64 454
64 455
64 457
64 458
64 459
64 463
64 465
64 466
64 468
64 470
64 471
64 472
64 473
64 474
64 475
64 476
64 477
64 478
64 479
64 480
64 482
64 483
64 484
64 485
64 486
64 487
64 489
64 491
64 496
64 497
64 498
64 502
64 503
64 504
64 505
64 506
64 507
64 508
64 509
64 510
64 512
64 513
64 514
64 515
64 516
64 517
64 519
64 522
64 523
64 525
64 529
64 533
64 534
64 535
64 536
64 537
64 538
64 539
64 541
64 542
64 543
64 544
64 545
64 546
64 547
64 548
64 549
64 550
64 551
64 552
64 553
64 554
64 555
64 556
64 558
64 559
64 560
64 561
64 562
64 563
64 564
64 565
64 566
64 567
64 568
64 569
64 570
64 571
64 572
64 574
64 575
64 576
64 577
64 578
64 579
65 66
65 67
65 71
65 72
65 74
65 76
65 77
65 78
65 79
65 80
65 88
65 89
65 90
65 91
65 93
65 94
65 99
65 104
65 107
65 108
65 109
65 111
65 112
65 114
65 116
65 117
65 118
65 119
65 120
65 121
65 122
65 123
65 124
65 125
65 126
65 127
65 129
65 130
65 131
65 132
65 133
65 135
65 137
65 141
65 142
65 143
65 145
65 149
65 150
65 151
65 152
65 153
65 154
65 155
65 156
65 157
65 158
65 159
65 161
65 162
65 163
65 164
65 167
65 168
65 169
65 172
65 173
65 174
65 175
65 177
65 180
65 186
65 188
65 189
65 190
65 196
65 197
65 200
65 202
65 203
65 209
65 212
65 213
65 215
65 217
65 219
65 220
65 221
65 226
65 228
65 230
65 232
65 235
65 236
65 237
65 238
65 239
65 247
65 248
65 250
65 251
65 252
65 253
65 254
65 255
65 260
65 261
65 262
65 263
65 264
65 265
65 266
65 267
65 268
65 269
65 270
65 271
65 272
65 273
65 274
65 276
65 277
65 278
65 280
65 282
65 283
65 287
65 289
65 290
65 292
65 294
65 296
65 298
65 299
65 300
65 305
65 306
65 307
65 308
65 313
65 314
65 315
65 316
65 317
65 318
65 319
65 320
65 321
65 322
65 323
65 324
65 325
65 326
65 327
65 329
65 330
65 331
65 332
65 333
65 334
65 335
65 336
65 337
65 338
65 339
65 340
65 341
65 342
65 343
65 345
65 346
65 347
65 348
65 349
65 350
65 351
65 352
65 353
65 354
65 355
65 356
65 357
65 358
65 359
65 360
65 361
65 362
65 363
65 365
65 366
65 367
65 368
65 369
65 370
65 371
65 372
65 373
65 374
65 375
65 376
65 378
65 379
65 380
65 382
65 383
65 386
65 387
65 389
65 390
65 391
65 392
65 398
65 399
65 400
65 403
65 404
65 409
65 411
65 412
65 413
65 414
65 415
65 416
65 417
65 418
65 420
65 421
65 422
65 423
65 424
65 425
65 430
65 431
65 432
65 433
65 434
65 441
65 442
65 445
65 446
65 449
65 454
65 456
65 457
65 458
65 459
65 460
65 461
65 462
65 463
65 464
65 465
65 466
65 467
65 469
65 470
65 471
65 472
65 473
65 474
65 475
65 476
65 477
65 478
65 479
65 480
65 481
65 482
65 484
65 485
65 486
65 487
65 489
65 491
65 496
65 497
65 498
65 502
65 503
65 504
65 505
65 506
65 507
65 508
65 509
65 510
65 511
65 512
65 514
65 515
65 516
65 517
65 518
65 519
65 520
65 521
65 522
65 523
65 524
65 526
65 527
65 528
65 529
65 530
65 531
65 532
65 533
65 534
65 535
65 536
65 537
65 538
65 539
65 540
65 541
65 543
65 544
65 545
65 546
65 547
65 550
65 552
65 553
65 554
65 555
65 557
65 558
65 561
65 563
65 564
65 567
65 568
65 569
65 573
65 579
66 67
66 71
66 72
66 74
66 76
66 77
66 78
66 79
66 80
66 88
66 89
66 90
66 91
66 93
66 94
66 99
66 102
66 103
66 104
66 105
66 106
66 107
66 108
66 109
66 110
66 111
66 112
66 113
66 114
66 115
66 117
66 118
66 119
66 120
66 121
66 122
66 123
66 124
66 125
66 126
66 127
66 128
66 129
66 130
66 132
66 133
66 135
66 137
66 141
66 142
66 143
66 145
66 149
66 153
66 155
66 156
66 157
66 160
66 164
66 167
66 168
66 169
66 172
66 173
66 174
66 175
66 177
66 180
66 181
66 182
66 183
66 184
66 185
66 186
66 187
66 188
66 189
66 190
66 191
66 192
66 193
66 194
66 195
66 197
66 198
66 199
66 200
66 201
66 202
66 203
66 204
66 205
66 206
66 207
66 208
66 210
66 211
66 212
66 213
66 214
66 215
66 216
66 217
66 218
66 219
66 220
66 221
66 222
66 223
66 224
66 225
66 226
66 227
66 229
66 230
66 232
66 235
66 236
66 237
66 238
66 239
66 247
66 248
66 250
66 251
66 252
66 253
66 254
66 255
66 260
66 261
66 263
66 266
66 268
66 269
66 270
66 271
66 274
66 275
66 279
66 280
66 281
66 282
66 283
66 284
66 285
66 286
66 287
66 288
66 289
66 290
66 291
66 292
66 293
66 295
66 296
66 298
66 299
66 300
66 305
66 306
66 307
66 308
66 315
66 316
66 319
66 320
66 321
66 322
66 326
66 328
66 331
66 332
66 334
66 336
66 337
66 338
66 339
66 340
66 341
66 344
66 348
66 350
66 352
66 353
66 354
66 357
66 358
66 359
66 360
66 364
66 366
66 368
66 370
66 371
66 375
66 377
66 379
66 382
66 383
66 386
66 387
66 389
66 390
66 391
66 392
66 396
66 397
66 398
66 399
66 400
66 401
66 402
66 403
66 404
66 405
66 406
66 407
66 408
66 410
66 411
66 412
66 413
66 414
66 415
66 416
66 417
66 418
66 419
66 420
66 421
66 423
66 424
66 425
66 430
66 431
66 432
66 433
66 434
66 441
66 442
66 445
66 446
66 449
66 454
66 457
66 458
66 459
66 463
66 465
66 466
66 468
66 470
66 473
66 475
66 476
66 481
66 483
66 486
66 489
66 491
66 496
66 497
66 498
66 502
66 503
66 504
66 505
66 506
66 507
66 508
66 509
66 510
66 511
66 512
66 513
66 514
66 515
66 516
66 518
66 519
66 520
66 521
66 522
66 523
66 524
66 525
66 526
66 527
66 528
66 530
66 531
66 532
66 533
66 534
66 535
66 536
66 537
66 538
66 539
66 540
66 541
66 542
66 543
66 545
66 546
66 547
66 548
66 549
66 550
66 551
66 552
66 553
66 554
66 555
66 556
66 557
66 559
66 560
66 561
66 562
66 563
66 564
66 567
66 568
66 569
66 573
66 579
67 71
67 72
67 74
67 76
67 77
67 78
67 79
67 80
67 88
67 89
67 90
67 91
67 93
67 94
67 99
67 104
67 107
67 108
67 109
67 111
67 112
67 114
67 116
67 118
67 120
67 121
67 122
67 123
67 124
67 127
67 128
67 131
67 135
67 137
67 141
67 142
67 143
67 145
67 149
67 153
67 155
67 156
67 157
67 160
67 164
67 165
67 166
67 167
67 168
67 169
67 170
67 171
67 172
67 173
67 174
67 175
67 176
67 177
67 178
67 179
67 181
67 182
67 183
67 184
67 185
67 186
67 187
67 188
67 189
67 190
67 191
67 192
67 193
67 194
67 195
67 196
67 198
67 199
67 200
67 201
67 202
67 203
67 204
67 205
67 206
67 207
67 208
67 209
67 210
67 211
67 213
67 215
67 217
67 219
67 220
67 221
67 226
67 228
67 230
67 232
67 235
67 236
67 237
67 238
67 239
67 247
67 248
67 250
67 251
67 252
67 253
67 254
67 255
67 260
67 261
67 263
67 266
67 268
67 269
67 270
67 271
67 274
67 275
67 280
67 282
67 283
67 287
67 289
67 290
67 292
67 294
67 296
67 298
67 299
67 300
67 305
67 306
67 307
67 308
67 313
67 314
67 315
67 316
67 317
67 318
67 319
67 320
67 321
67 322
67 323
67 324
67 325
67 326
67 327
67 328
67 329
67 330
67 332
67 333
67 334
67 335
67 336
67 337
67 338
67 339
67 340
67 341
67 342
67 343
67 344
67 345
67 346
67 347
67 350
67 352
67 353
67 354
67 357
67 358
67 359
67 360
67 364
67 366
67 367
67 368
67 369
67 370
67 371
67 372
67 373
67 374
67 375
67 376
67 377
67 378
67 380
67 382
67 383
67 386
67 387
67 389
67 390
67 391
67 392
67 398
67 399
67 400
67 403
67 404
67 409
67 411
67 412
67 413
67 414
67 415
67 416
67 417
67 418
67 419
67 420
67 421
67 422
67 423
67 425
67 430
67 431
67 432
67 433
67 434
67 441
67 442
67 443
67 444
67 445
67 446
67 447
67 448
67 449
67 450
67 451
67 452
67 453
67 455
67 456
67 457
67 458
67 459
67 460
67 461
67 462
67 463
67 464
67 465
67 466
67 467
67 468
67 469
67 471
67 472
67 473
67 474
67 475
67 476
67 477
67 478
67 479
67 480
67 481
67 482
67 483
67 484
67 485
67 487
67 488
67 489
67 490
67 491
67 492
67 493
67 494
67 495
67 496
67 497
67 498
67 499
67 500
67 501
67 505
67 507
67 508
67 509
67 510
67 511
67 513
67 517
67 519
67 522
67 523
67 525
67 529
67 533
67 534
67 535
67 536
67 537
67 538
67 539
67 540
67 541
67 542
67 543
67 544
67 545
67 547
67 548
67 549
67 550
67 551
67 552
67 553
67 554
67 555
67 556
67 557
67 558
67 559
67 560
67 562
67 563
67 564
67 565
67 566
67 567
67 568
67 569
67 570
67 571
67 572
67 573
67 574
67 575
67 576
67 577
67 578
68 69
68 70
68 71
68 72
68 73
68 74
68 75
68 76
68 77
68 78
68 79
68 80
68 81
68 82
68 83
68 84
68 85
68 86
68 88
68 89
68 90
68 91
68 92
68 93
68 94
68 95
68 96
68 97
68 98
68 99
68 100
68 101
68 103
68 104
68 105
68 106
68 107
68 108
68 109
68 110
68 111
68 112
68 113
68 114
68 115
68 116
68 117
68 118
68 120
68 122
68 123
68 124
68 125
68 126
68 129
68 132
68 135
68 136
68 137
68 138
68 139
68 140
68 141
68 142
68 143
68 144
68 145
68 146
68 147
68 148
68 153
68 154
68 156
68 157
68 162
68 163
68 165
68 168
68 169
68 170
68 172
68 173
68 174
68 175
68 178
68 181
68 182
68 183
68 186
68 187
68 189
68 190
68 191
68 194
68 195
68 199
68 200
68 201
68 202
68 203
68 204
68 205
68 206
68 207
68 208
68 209
68 210
68 211
68 212
68 214
68 215
68 216
68 217
68 218
68 221
68 222
68 225
68 227
68 231
68 233
68 236
68 237
68 240
68 241
68 242
68 244
68 246
68 247
68 248
68 249
68 250
68 251
68 252
68 253
68 254
68 255
68 256
68 257
68 258
68 259
68 263
68 264
68 266
68 267
68 269
68 270
68 271
68 272
68 280
68 281
68 282
68 283
68 284
68 285
68 286
68 287
68 288
68 289
68 290
68 291
68 292
68 293
68 294
68 295
68 297
68 300
68 301
68 304
68 306
68 308
68 310
68 312
68 313
68 316
68 318
68 320
68 322
68 323
68 327
68 330
68 333
68 334
68 336
68 337
68 338
68 340
68 341
68 342
68 345
68 347
68 349
68 351
68 353
68 354
68 358
68 359
68 360
68 361
68 363
68 368
68 370
68 371
68 374
68 376
68 378
68 380
68 382
68 383
68 384
68 385
68 386
68 387
68 388
68 389
68 390
68 391
68 392
68 393
68 394
68 395
68 396
68 399
68 400
68 401
68 403
68 404
68 405
68 407
68 410
68 412
68 413
68 414
68 415
68 416
68 418
68 420
68 423
68 425
68 426
68 428
68 430
68 431
68 433
68 434
68 435
68 437
68 440
68 442
68 444
68 445
68 446
68 447
68 448
68 450
68 452
68 455
68 457
68 458
68 459
68 460
68 461
68 462
68 463
68 464
68 465
68 466
68 467
68 468
68 469
68 470
68 472
68 473
68 474
68 475
68 476
68 477
68 478
68 479
68 480
68 481
68 482
68 483
68 484
68 485
68 486
68 487
68 489
68 490
68 491
68 492
68 493
68 494
68 495
68 496
68 497
68 498
68 499
68 500
68 501
68 502
68 504
68 505
68 506
68 507
68 508
68 509
68 510
68 511
68 512
68 513
68 514
68 515
68 516
68 517
68 518
68 521
68 522
68 523
68 526
68 530
68 532
68 533
68 534
68 536
68 538
68 541
68 547
68 549
68 550
68 551
68 552
68 553
68 554
68 555
68 556
68 557
68 558
68 559
68 560
68 561
68 562
68 565
68 566
68 567
68 568
68 569
68 570
68 572
68 574
68 575
68 577
69 70
69 71
69 72
69 73
69 74
69 75
69 76
69 77
69 78
69 79
69 80
69 81
69 82
69 83
69 84
69 85
69 86
69 87
69 90
69 91
69 92
69 93
69 94
69 95
69 98
69 101
69 102
69 104
69 105
69 106
69 107
69 108
69 109
69 110
69 111
69 112
69 113
69 114
69 115
69 116
69 118
69 119
69 120
69 121
69 122
69 123
69 124
69 125
69 126
69 127
69 128
69 129
69 130
69 131
69 132
69 133
69 134
69 135
69 137
69 138
69 139
69 140
69 141
69 142
69 143
69 144
69 145
69 146
69 147
69 148
69 153
69 154
69 156
69 157
69 162
69 163
69 165
69 168
69 169
69 170
69 172
69 173
69 174
69 175
69 178
69 182
69 183
69 184
69 185
69 186
69 187
69 188
69 189
69 190
69 191
69 192
69 193
69 194
69 195
69 196
69 197
69 198
69 200
69 203
69 204
69 206
69 210
69 214
69 215
69 216
69 217
69 218
69 221
69 222
69 225
69 227
69 230
69 232
69 233
69 234
69 235
69 236
69 237
69 238
69 239
69 240
69 241
69 242
69 243
69 244
69 245
69 247
69 248
69 249
69 250
69 251
69 252
69 253
69 254
69 255
69 256
69 257
69 258
69 259
69 263
69 264
69 266
69 267
69 269
69 270
69 271
69 272
69 279
69 280
69 282
69 283
69 284
69 285
69 286
69 287
69 288
69 289
69 290
69 291
69 292
69 293
69 294
69 295
69 296
69 298
69 299
69 300
69 301
69 302
69 303
69 304
69 305
69 306
69 307
69 308
69 309
69 310
69 311
69 312
69 314
69 315
69 316
69 317
69 318
69 319
69 320
69 321
69 322
69 323
69 324
69 325
69 326
69 327
69 328
69 329
69 330
69 331
69 333
69 334
69 336
69 337
69 338
69 340
69 341
69 342
69 345
69 347
69 350
69 351
69 352
69 353
69 354
69 355
69 356
69 357
69 358
69 359
69 360
69 361
69 362
69 363
69 364
69 365
69 368
69 370
69 371
69 374
69 376
69 378
69 380
69 381
69 384
69 386
69 387
69 388
69 389
69 391
69 392
69 394
69 395
69 396
69 399
69 400
69 401
69 403
69 404
69 405
69 407
69 410
69 412
69 413
69 414
69 415
69 416
69 418
69 420
69 423
69 425
69 427
69 428
69 429
69 430
69 431
69 432
69 433
69 434
69 435
69 436
69 437
69 438
69 439
69 440
69 442
69 444
69 445
69 446
69 447
69 448
69 450
69 452
69 455
69 456
69 458
69 459
69 460
69 463
69 464
69 466
69 467
69 471
69 472
69 473
69 476
69 477
69 480
69 482
69 487
69 488
69 489
69 491
69 492
69 493
69 494
69 495
69 496
69 497
69 498
69 499
69 500
69 501
69 502
69 503
69 504
69 506
69 507
69 510
69 512
69 514
69 518
69 521
69 522
69 523
69 526
69 530
69 532
69 534
69 535
69 536
69 537
69 538
69 539
69 540
69 541
69 542
69 543
69 544
69 545
69 546
69 547
69 548
69 552
69 553
69 555
69 556
69 559
69 562
69 565
69 566
69 567
69 568
69 569
69 570
69 572
69 574
69 575
69 577
70 71
70 72
70 73
70 74
70 75
70 76
70 77
70 78
70 79
70 80
70 81
70 82
70 83
70 84
70 85
70 86
70 87
70 90
70 91
70 92
70 93
70 94
70 95
70 98
70 101
70 102
70 103
70 104
70 106
70 107
70 108
70 109
70 110
70 111
70 112
70 113
70 114
70 115
70 116
70 117
70 118
70 120
70 122
70 123
70 124
70 125
70 126
70 129
70 132
70 134
70 135
70 136
70 137
70 139
70 140
70 141
70 142
70 143
70 144
70 145
70 146
70 147
70 148
70 153
70 154
70 156
70 157
70 162
70 163
70 164
70 166
70 167
70 168
70 169
70 170
70 171
70 172
70 173
70 174
70 175
70 176
70 177
70 178
70 179
70 180
70 181
70 183
70 184
70 185
70 186
70 187
70 188
70 189
70 190
70 191
70 192
70 193
70 194
70 195
70 196
70 197
70 198
70 200
70 203
70 204
70 206
70 210
70 213
70 215
70 216
70 217
70 218
70 219
70 220
70 221
70 222
70 223
70 224
70 225
70 226
70 227
70 228
70 229
70 230
70 231
70 232
70 234
70 235
70 236
70 237
70 238
70 239
70 240
70 241
70 242
70 243
70 244
70 245
70 246
70 248
70 249
70 251
70 252
70 253
70 255
70 256
70 257
70 263
70 264
70 266
70 267
70 269
70 270
70 271
70 272
70 279
70 281
70 283
70 284
70 287
70 288
70 290
70 291
70 293
70 295
70 297
70 300
70 301
70 304
70 306
70 308
70 310
70 312
70 313
70 316
70 318
70 320
70 322
70 323
70 327
70 330
70 332
70 334
70 335
70 336
70 337
70 338
70 339
70 340
70 341
70 342
70 343
70 344
70 345
70 346
70 347
70 348
70 349
70 350
70 352
70 353
70 354
70 355
70 356
70 357
70 358
70 359
70 360
70 361
70 362
70 363
70 364
70 365
70 368
70 370
70 371
70 374
70 376
70 378
70 380
70 381
70 382
70 383
70 385
70 386
70 387
70 388
70 389
70 390
70 391
70 392
70 393
70 394
70 395
70 397
70 398
70 399
70 400
70 401
70 402
70 403
70 404
70 405
70 406
70 407
70 408
70 409
70 410
70 412
70 413
70 414
70 415
70 416
70 418
70 420
70 423
70 425
70 426
70 428
70 430
70 431
70 433
70 434
70 435
70 437
70 440
70 442
70 444
70 445
70 446
70 447
70 448
70 450
70 452
70 455
70 456
70 458
70 459
70 460
70 463
70 464
70 466
70 467
70 471
70 473
70 474
70 475
70 476
70 477
70 478
70 479
70 480
70 481
70 482
70 483
70 484
70 485
70 486
70 487
70 488
70 490
70 493
70 497
70 498
70 500
70 501
70 503
70 505
70 506
70 507
70 508
70 509
70 510
70 511
70 512
70 513
70 514
70 515
70 516
70 517
70 519
70 520
70 521
70 522
70 523
70 524
70 525
70 526
70 527
70 528
70 529
70 530
70 531
70 532
70 533
70 534
70 536
70 538
70 541
70 547
70 548
70 552
70 553
70 555
70 556
70 559
70 562
70 565
70 566
70 567
70 568
70 569
70 570
70 572
70 574
70 575
70 577
71 72
71 73
71 74
71 75
71 76
71 77
71 78
71 79
71 80
71 81
71 82
71 83
71 84
71 85
71 86
71 87
71 90
71 91
71 92
71 93
71 94
71 95
71 98
71 101
71 102
71 103
71 104
71 105
71 106
71 107
71 109
71 110
71 111
71 112
71 113
71 114
71 115
71 116
71 117
71 118
71 120
71 122
71 123
71 124
71 125
71 126
71 129
71 132
71 134
71 136
71 138
71 141
71 142
71 143
71 148
71 153
71 154
71 156
71 157
71 162
71 163
71 164
71 165
71 166
71 167
71 169
71 170
71 171
71 172
71 173
71 174
71 175
71 176
71 177
71 178
71 179
71 180
71 181
71 182
71 183
71 186
71 187
71 189
71 190
71 191
71 194
71 195
71 198
71 199
71 201
71 202
71 203
71 204
71 205
71 206
71 207
71 208
71 209
71 210
71 211
71 212
71 213
71 214
71 216
71 217
71 218
71 219
71 220
71 221
71 222
71 223
71 224
71 225
71 226
71 227
71 228
71 229
71 230
71 231
71 232
71 233
71 234
71 235
71 237
71 238
71 239
71 240
71 241
71 242
71 243
71 244
71 245
71 246
71 247
71 249
71 250
71 251
71 252
71 253
71 254
71 255
71 256
71 257
71 258
71 259
71 263
71 264
71 266
71 267
71 269
71 270
71 271
71 272
71 279
71 281
71 283
71 284
71 287
71 288
71 290
71 291
71 293
71 295
71 296
71 297
71 298
71 299
71 301
71 302
71 303
71 304
71 305
71 306
71 307
71 308
71 309
71 310
71 311
71 312
71 313
71 316
71 318
71 320
71 322
71 323
71 327
71 330
71 333
71 334
71 336
71 337
71 338
71 340
71 341
71 342
71 345
71 347
71 349
71 350
71 351
71 352
71 354
71 355
71 356
71 357
71 358
71 359
71 360
71 361
71 362
71 363
71 364
71 365
71 368
71 370
71 371
71 374
71 376
71 378
71 380
71 381
71 382
71 383
71 384
71 385
71 387
71 388
71 389
71 390
71 391
71 392
71 393
71 394
71 395
71 396
71 397
71 398
71 400
71 401
71 402
71 403
71 404
71 405
71 406
71 407
71 408
71 409
71 410
71 412
71 413
71 414
71 415
71 416
71 418
71 420
71 423
71 425
71 426
71 428
71 430
71 431
71 433
71 434
71 435
71 437
71 440
71 441
71 443
71 444
71 445
71 446
71 447
71 448
71 449
71 450
71 451
71 452
71 453
71 454
71 455
71 456
71 457
71 459
71 460
71 461
71 462
71 463
71 464
71 465
71 466
71 467
71 468
71 469
71 470
71 471
71 472
71 474
71 475
71 476
71 477
71 478
71 479
71 480
71 481
71 482
71 483
71 484
71 485
71 486
71 487
71 488
71 490
71 493
71 497
71 498
71 500
71 501
71 503
71 504
71 506
71 507
71 510
71 512
71 514
71 518
71 521
71 522
71 523
71 526
71 530
71 532
71 533
71 534
71 536
71 538
71 541
71 547
71 548
71 552
71 553
71 555
71 556
71 559
71 562
71 565
71 566
71 567
71 568
71 569
71 570
71 572
71 574
71 575
71 577
72 73
72 74
72 75
72 76
72 77
72 78
72 79
72 80
72 81
72 82
72 83
72 84
72 85
72 86
72 87
72 88
72 89
72 91
72 92
72 93
72 94
72 95
72 96
72 97
72 98
72 99
72 100
72 101
72 102
72 103
72 104
72 105
72 106
72 107
72 108
72 110
72 111
72 112
72 113
72 114
72 115
72 116
72 117
72 119
72 120
72 121
72 122
72 123
72 124
72 125
72 126
72 127
72 128
72 129
72 130
72 131
72 132
72 133
72 134
72 136
72 138
72 141
72 142
72 143
72 148
72 153
72 154
72 156
72 157
72 162
72 163
72 164
72 165
72 166
72 167
72 168
72 170
72 171
72 172
72 173
72 174
72 175
72 176
72 177
72 178
72 179
72 180
72 181
72 182
72 183
72 186
72 187
72 189
72 190
72 191
72 194
72 195
72 198
72 200
72 203
72 204
72 206
72 210
72 214
72 215
72 216
72 217
72 218
72 221
72 222
72 225
72 227
72 231
72 233
72 236
72 237
72 240
72 241
72 242
72 244
72 245
72 246
72 248
72 249
72 251
72 252
72 253
72 255
72 256
72 257
72 260
72 261
72 262
72 264
72 265
72 266
72 267
72 268
72 269
72 270
72 271
72 272
72 273
72 274
72 275
72 276
72 277
72 278
72 279
72 280
72 281
72 282
72 284
72 285
72 286
72 287
72 288
72 289
72 290
72 291
72 292
72 293
72 294
72 295
72 297
72 300
72 301
72 304
72 306
72 308
72 310
72 312
72 313
72 314
72 315
72 317
72 318
72 319
72 320
72 321
72 322
72 323
72 324
72 325
72 326
72 327
72 328
72 329
72 330
72 331
72 332
72 333
72 335
72 336
72 337
72 338
72 339
72 340
72 341
72 342
72 343
72 344
72 345
72 346
72 347
72 348
72 349
72 350
72 351
72 352
72 353
72 355
72 356
72 357
72 358
72 359
72 360
72 361
72 362
72 363
72 364
72 365
72 366
72 367
72 369
72 370
72 371
72 372
72 373
72 374
72 375
72 376
72 377
72 378
72 379
72 380
72 381
72 382
72 383
72 384
72 385
72 386
72 388
72 389
72 390
72 391
72 392
72 393
72 394
72 395
72 396
72 397
72 398
72 399
72 401
72 402
72 403
72 404
72 405
72 406
72 407
72 408
72 409
72 410
72 412
72 413
72 414
72 415
72 416
72 418
72 420
72 423
72 425
72 426
72 428
72 430
72 431
72 433
72 434
72 435
72 437
72 440
72 442
72 444
72 445
72 446
72 447
72 448
72 450
72 452
72 455
72 456
72 457
72 458
72 460
72 461
72 462
72 463
72 464
72 465
72 466
72 467
72 468
72 469
72 470
72 471
72 472
72 473
72 476
72 477
72 480
72 482
72 487
72 488
72 490
72 493
72 497
72 498
72 500
72 501
72 503
72 504
72 506
72 507
72 510
72 512
72 514
72 518
72 521
72 522
72 523
72 526
72 530
72 532
72 533
72 535
72 536
72 537
72 538
72 539
72 540
72 541
72 542
72 543
72 544
72 545
72 546
72 547
72 548
72 552
72 553
72 555
72 556
72 559
72 562
72 565
72 566
72 567
72 568
72 569
72 570
72 572
72 574
72 575
72 577
73 74
73 75
73 76
73 77
73 78
73 79
73 80
73 81
73 82
73 83
73 84
73 85
73 86
73 87
73 90
73 91
73 92
73 93
73 94
73 95
73 98
73 101
73 102
73 103
73 105
73 108
73 109
73 110
73 111
73 112
73 117
73 118
73 120
73 122
73 123
73 124
73 125
73 126
73 129
73 132
73 134
73 136
73 138
73 141
73 142
73 143
73 148
73 153
73 154
73 156
73 157
73 162
73 163
73 164
73 165
73 166
73 167
73 168
73 169
73 171
73 172
73 173
73 174
73 175
73 176
73 177
73 178
73 179
73 180
73 181
73 182
73 184
73 185
73 186
73 187
73 188
73 189
73 190
73 191
73 192
73 193
73 194
73 195
73 196
73 197
73 198
73 200
73 203
73 204
73 206
73 210
73 213
73 214
73 215
73 217
73 218
73 219
73 220
73 221
73 222
73 223
73 224
73 225
73 226
73 227
73 228
73 229
73 231
73 233
73 236
73 237
73 240
73 241
73 242
73 244
73 245
73 246
73 248
73 249
73 251
73 252
73 253
73 255
73 256
73 257
73 260
73 261
73 262
73 263
73 265
73 266
73 267
73 268
73 269
73 270
73 271
73 272
73 273
73 274
73 275
73 276
73 277
73 278
73 279
73 280
73 281
73 282
73 283
73 285
73 286
73 287
73 288
73 289
73 290
73 291
73 292
73 293
73 294
73 295
73 296
73 297
73 298
73 299
73 300
73 302
73 303
73 304
73 305
73 306
73 307
73 308
73 309
73 310
73 311
73 312
73 313
73 316
73 318
73 320
73 322
73 323
73 327
73 330
73 333
73 334
73 336
73 337
73 338
73 340
73 341
73 342
73 345
73 347
73 349
73 351
73 353
73 354
73 358
73 359
73 360
73 361
73 363
73 368
73 370
73 371
73 374
73 376
73 378
73 380
73 381
73 382
73 383
73 384
73 385
73 386
73 387
73 389
73 390
73 391
73 392
73 393
73 394
73 395
73 396
73 397
73 398
73 399
73 400
73 402
73 403
73 404
73 405
73 406
73 407
73 408
73 409
73 410
73 411
73 413
73 414
73 415
73 416
73 417
73 418
73 419
73 420
73 421
73 422
73 423
73 424
73 425
73 426
73 427
73 429
73 430
73 431
73 432
73 433
73 434
73 435
73 436
73 437
73 438
73 439
73 440
73 442
73 444
73 445
73 446
73 447
73 448
73 450
73 452
73 455
73 456
73 457
73 458
73 459
73 461
73 462
73 463
73 464
73 465
73 466
73 467
73 468
73 469
73 470
73 471
73 472
73 473
73 476
73 477
73 480
73 482
73 487
73 488
73 489
73 490
73 491
73 492
73 494
73 495
73 496
73 497
73 498
73 499
73 500
73 501
73 502
73 503
73 504
73 505
73 507
73 508
73 509
73 510
73 511
73 512
73 513
73 514
73 515
73 516
73 517
73 518
73 521
73 522
73 523
73 526
73 530
73 532
73 533
73 534
73 536
73 538
73 541
73 547
73 548
73 552
73 553
73 555
73 556
73 559
73 562
73 563
73 564
73 566
73 567
73 568
73 569
73 570
73 571
73 572
73 573
73 574
73 575
73 576
73 577
73 578
73 579
74 75
74 76
74 77
74 78
74 79
74 80
74 81
74 82
74 83
74 84
74 85
74 86
74 87
74 88
74 89
74 90
74 92
74 93
74 94
74 95
74 96
74 97
74 98
74 99
74 100
74 101
74 102
74 103
74 105
74 108
74 109
74 110
74 111
74 112
74 117
74 118
74 119
74 121
74 122
74 123
74 124
74 125
74 126
74 127
74 128
74 129
74 130
74 131
74 132
74 133
74 134
74 136
74 138
74 141
74 142
74 143
74 148
74 149
74 150
74 151
74 152
74 154
74 155
74 156
74 157
74 158
74 159
74 160
74 161
74 162
74 163
74 165
74 168
74 169
74 170
74 172
74 173
74 174
74 175
74 178
74 181
74 182
74 183
74 184
74 185
74 187
74 188
74 189
74 190
74 191
74 192
74 193
74 194
74 195
74 196
74 197
74 198
74 200
74 203
74 204
74 206
74 210
74 213
74 214
74 215
74 216
74 218
74 219
74 220
74 221
74 222
74 223
74 224
74 225
74 226
74 227
74 228
74 229
74 230
74 231
74 232
74 233
74 234
74 235
74 236
74 238
74 239
74 240
74 241
74 242
74 243
74 244
74 245
74 246
74 248
74 249
74 251
74 252
74 253
74 255
74 256
74 257
74 260
74 261
74 262
74 263
74 264
74 265
74 267
74 268
74 269
74 270
74 271
74 272
74 273
74 274
74 275
74 276
74 277
74 278
74 279
74 280
74 281
74 282
74 283
74 284
74 285
74 286
74 288
74 289
74 290
74 291
74 292
74 293
74 294
74 295
74 297
74 300
74 301
74 304
74 306
74 308
74 310
74 312
74 313
74 316
74 318
74 320
74 322
74 323
74 327
74 330
74 333
74 334
74 336
74 337
74 338
74 340
74 341
74 342
74 345
74 347
74 349
74 351
74 353
74 354
74 358
74 359
74 360
74 361
74 363
74 368
74 370
74 371
74 374
74 376
74 378
74 380
74 381
74 382
74 383
74 384
74 385
74 386
74 387
74 388
74 390
74 391
74 392
74 393
74 394
74 395
74 396
74 399
74 400
74 401
74 403
74 404
74 405
74 407
74 410
74 411
74 412
74 414
74 415
74 416
74 417
74 418
74 419
74 420
74 421
74 422
74 423
74 424
74 425
74 426
74 428
74 430
74 431
74 433
74 434
74 435
74 437
74 440
74 442
74 444
74 445
74 446
74 447
74 448
74 450
74 452
74 455
74 456
74 457
74 458
74 459
74 460
74 461
74 462
74 464
74 465
74 466
74 467
74 468
74 469
74 470
74 471
74 472
74 473
74 476
74 477
74 480
74 482
74 487
74 488
74 490
74 493
74 497
74 498
74 500
74 501
74 503
74 504
74 505
74 506
74 508
74 509
74 510
74 511
74 512
74 513
74 514
74 515
74 516
74 517
74 518
74 521
74 522
74 523
74 526
74 530
74 532
74 533
74 534
74 536
74 538
74 541
74 547
74 548
74 549
74 550
74 551
74 553
74 554
74 555
74 556
74 557
74 558
74 559
74 560
74 561
74 562
74 565
74 566
74 567
74 568
74 569
74 570
74 572
74 574
74 575
74 577
75 76
75 77
75 78
75 79
75 80
75 81
75 82
75 83
75 84
75 85
75 86
75 87
75 88
75 89
75 90
75 91
75 93
75 94
75 95
75 96
75 97
75 98
75 99
75 100
75 101
75 102
75 103
75 104
75 105
75 106
75 107
75 108
75 109
75 111
75 112
75 113
75 114
75 115
75 116
75 117
75 118
75 120
75 122
75 123
75 124
75 125
75 126
75 129
75 132
75 134
75 136
75 138
75 141
75 142
75 143
75 148
75 149
75 150
75 151
75 152
75 153
75 155
75 156
75 157
75 158
75 159
75 160
75 161
75 162
75 163
75 165
75 168
75 169
75 170
75 172
75 173
75 174
75 175
75 178
75 181
75 182
75 183
75 184
75 185
75 186
75 188
75 189
75 190
75 191
75 192
75 193
75 194
75 195
75 196
75 197
75 198
75 200
75 203
75 204
75 206
75 210
75 213
75 214
75 215
75 216
75 217
75 219
75 220
75 221
75 222
75 223
75 224
75 225
75 226
75 227
75 228
75 229
75 231
75 233
75 236
75 237
75 240
75 241
75 242
75 244
75 245
75 246
75 247
75 248
75 250
75 251
75 252
75 253
75 254
75 255
75 256
75 257
75 258
75 259
75 260
75 261
75 262
75 263
75 264
75 265
75 266
75 268
75 269
75 270
75 271
75 272
75 273
75 274
75 275
75 276
75 277
75 278
75 279
75 280
75 281
75 282
75 283
75 284
75 285
75 286
75 287
75 289
75 290
75 291
75 292
75 293
75 294
75 295
75 296
75 297
75 298
75 299
75 300
75 301
75 302
75 303
75 305
75 306
75 307
75 308
75 309
75 310
75 311
75 312
75 313
75 314
75 315
75 316
75 317
75 319
75 320
75 321
75 322
75 323
75 324
75 325
75 326
75 327
75 328
75 329
75 330
75 331
75 333
75 334
75 336
75 337
75 338
75 340
75 341
75 342
75 345
75 347
75 349
75 351
75 353
75 354
75 358
75 359
75 360
75 361
75 363
75 368
75 370
75 371
75 374
75 376
75 378
75 380
75 381
75 384
75 386
75 387
75 388
75 389
75 391
75 392
75 394
75 395
75 396
75 399
75 400
75 401
75 403
75 404
75 405
75 407
75 410
75 412
75 413
75 414
75 415
75 416
75 418
75 420
75 423
75 425
75 426
75 428
75 430
75 431
75 433
75 434
75 435
75 437
75 440
75 441
75 442
75 443
75 445
75 446
75 447
75 448
75 449
75 450
75 451
75 452
75 453
75 454
75 455
75 456
75 457
75 458
75 459
75 460
75 461
75 462
75 463
75 465
75 466
75 467
75 468
75 469
75 470
75 471
75 472
75 473
75 476
75 477
75 480
75 482
75 487
75 488
75 490
75 493
75 497
75 498
75 500
75 501
75 503
75 504
75 506
75 507
75 510
75 512
75 514
75 518
75 519
75 520
75 522
75 523
75 524
75 525
75 526
75 527
75 528
75 529
75 530
75 531
75 532
75 533
75 534
75 536
75 538
75 541
75 547
75 548
75 552
75 553
75 555
75 556
75 559
75 562
75 563
75 564
75 565
75 567
75 568
75 569
75 570
75 571
75 572
75 573
75 574
75 575
75 576
75 577
75 578
75 579
76 77
76 78
76 79
76 80
76 81
76 82
76 83
76 84
76 85
76 86
76 87
76 90
76 91
76 92
76 93
76 94
76 95
76 98
76 101
76 102
76 103
76 104
76 105
76 106
76 107
76 108
76 109
76 110
76 112
76 113
76 114
76 115
76 116
76 117
76 118
76 120
76 122
76 123
76 124
76 125
76 126
76 129
76 132
76 134
76 135
76 136
76 137
76 138
76 139
76 140
76 142
76 143
76 144
76 145
76 146
76 147
76 148
76 149
76 150
76 151
76 152
76 153
76 154
76 155
76 157
76 158
76 159
76 160
76 161
76 162
76 163
76 164
76 165
76 166
76 167
76 168
76 169
76 170
76 171
76 173
76 174
76 175
76 176
76 177
76 178
76 179
76 180
76 181
76 182
76 183
76 184
76 185
76 186
76 187
76 188
76 190
76 191
76 192
76 193
76 194
76 195
76 196
76 197
76 198
76 200
76 203
76 204
76 206
76 210
76 214
76 215
76 216
76 217
76 218
76 221
76 222
76 225
76 227
76 231
76 233
76 236
76 237
76 240
76 241
76 242
76 244
76 245
76 246
76 247
76 248
76 249
76 250
76 252
76 253
76 254
76 255
76 256
76 257
76 258
76 259
76 263
76 264
76 266
76 267
76 269
76 270
76 271
76 272
76 279
76 281
76 283
76 284
76 287
76 288
76 290
76 291
76 293
76 295
76 296
76 297
76 298
76 299
76 300
76 301
76 302
76 303
76 304
76 305
76 307
76 308
76 309
76 310
76 311
76 312
76 313
76 314
76 315
76 316
76 317
76 318
76 319
76 321
76 322
76 323
76 324
76 325
76 326
76 327
76 328
76 329
76 330
76 331
76 332
76 333
76 334
76 335
76 337
76 338
76 339
76 340
76 341
76 342
76 343
76 344
76 345
76 346
76 347
76 348
76 349
76 350
76 351
76 352
76 353
76 354
76 355
76 356
76 357
76 359
76 360
76 361
76 362
76 363
76 364
76 365
76 366
76 367
76 368
76 369
76 371
76 372
76 373
76 374
76 375
76 376
76 377
76 378
76 379
76 380
76 381
76 384
76 386
76 387
76 388
76 389
76 391
76 392
76 394
76 395
76 396
76 399
76 400
76 401
76 403
76 404
76 405
76 407
76 410
76 411
76 412
76 413
76 415
76 416
76 417
76 418
76 419
76 420
76 421
76 422
76 423
76 424
76 425
76 426
76 428
76 430
76 431
76 433
76 434
76 435
76 437
76 440
76 442
76 444
76 445
76 446
76 447
76 448
76 450
76 452
76 455
76 456
76 458
76 459
76 460
76 463
76 464
76 466
76 467
76 471
76 472
76 473
76 476
76 477
76 480
76 482
76 487
76 488
76 490
76 493
76 497
76 498
76 500
76 501
76 503
76 504
76 506
76 507
76 510
76 512
76 514
76 518
76 521
76 522
76 523
76 526
76 530
76 532
76 533
76 534
76 536
76 538
76 541
76 547
76 548
76 549
76 550
76 551
76 552
76 554
76 555
76 556
76 557
76 558
76 559
76 560
76 561
76 562
76 563
76 564
76 565
76 566
76 568
76 569
76 570
76 571
76 572
76 573
76 574
76 575
76 576
76 577
76 578
76 579
77 78
77 79
77 80
77 81
77 82
77 83
77 84
77 85
77 86
77 87
77 90
77 91
77 92
77 93
77 94
77 95
77 98
77 101
77 102
77 103
77 105
77 108
77 109
77 110
77 111
77 112
77 117
77 118
77 119
77 120
77 121
77 123
77 124
77 125
77 126
77 127
77 128
77 129
77 130
77 131
77 132
77 133
77 134
77 136
77 138
77 141
77 142
77 143
77 148
77 149
77 150
77 151
77 152
77 153
77 154
77 155
77 156
77 158
77 159
77 160
77 161
77 162
77 163
77 164
77 165
77 166
77 167
77 168
77 169
77 170
77 171
77 172
77 174
77 175
77 176
77 177
77 178
77 179
77 180
77 181
77 182
77 183
77 186
77 187
77 189
77 190
77 191
77 194
77 195
77 198
77 200
77 203
77 204
77 206
77 210
77 214
77 215
77 216
77 217
77 218
77 221
77 222
77 225
77 227
77 231
77 233
77 236
77 237
77 240
77 241
77 242
77 244
77 245
77 246
77 247
77 248
77 249
77 250
77 251
77 253
77 254
77 255
77 256
77 257
77 258
77 259
77 260
77 261
77 262
77 263
77 264
77 265
77 266
77 267
77 268
77 270
77 271
77 272
77 273
77 274
77 275
77 276
77 277
77 278
77 279
77 281
77 283
77 284
77 287
77 288
77 290
77 291
77 293
77 295
77 297
77 300
77 301
77 304
77 306
77 308
77 310
77 312
77 313
77 316
77 318
77 320
77 322
77 323
77 327
77 330
77 332
77 333
77 334
77 335
77 336
77 338
77 339
77 340
77 341
77 342
77 343
77 344
77 345
77 346
77 347
77 348
77 349
77 350
77 351
77 352
77 353
77 354
77 355
77 356
77 357
77 358
77 360
77 361
77 362
77 363
77 364
77 365
77 368
77 370
77 371
77 374
77 376
77 378
77 380
77 381
77 382
77 383
77 384
77 385
77 386
77 387
77 388
77 389
77 390
77 392
77 393
77 394
77 395
77 396
77 397
77 398
77 399
77 400
77 401
77 402
77 404
77 405
77 406
77 407
77 408
77 409
77 410
77 412
77 413
77 414
77 415
77 416
77 418
77 420
77 423
77 425
77 426
77 427
77 428
77 429
77 431
77 432
77 433
77 434
77 435
77 436
77 437
77 438
77 439
77 440
77 441
77 442
77 443
77 444
77 446
77 447
77 448
77 449
77 450
77 451
77 452
77 453
77 454
77 455
77 456
77 458
77 459
77 460
77 463
77 464
77 466
77 467
77 471
77 472
77 473
77 474
77 475
77 477
77 478
77 479
77 480
77 481
77 482
77 483
77 484
77 485
77 486
77 487
77 488
77 489
77 490
77 491
77 492
77 493
77 494
77 495
77 496
77 498
77 499
77 500
77 501
77 502
77 503
77 504
77 506
77 507
77 510
77 512
77 514
77 518
77 519
77 520
77 521
77 523
77 524
77 525
77 526
77 527
77 528
77 529
77 530
77 531
77 532
77 533
77 534
77 536
77 538
77 541
77 547
77 548
77 552
77 553
77 555
77 556
77 559
77 562
77 565
77 566
77 567
77 568
77 569
77 570
77 572
77 574
77 575
77 577
78 79
78 80
78 81
78 82
78 83
78 84
78 85
78 86
78 87
78 90
78 91
78 92
78 93
78 94
78 95
78 98
78 101
78 102
78 103
78 105
78 108
78 109
78 110
78 111
78 112
78 117
78 118
78 120
78 122
78 123
78 124
78 125
78 126
78 129
78 132
78 134
78 135
78 136
78 137
78 138
78 139
78 140
78 141
78 143
78 144
78 145
78 146
78 147
78 148
78 153
78 154
78 156
78 157
78 162
78 163
78 164
78 165
78 166
78 167
78 168
78 169
78 170
78 171
78 172
78 173
78 175
78 176
78 177
78 178
78 179
78 180
78 181
78 182
78 183
78 184
78 185
78 186
78 187
78 188
78 189
78 191
78 192
78 193
78 194
78 195
78 196
78 197
78 198
78 199
78 200
78 201
78 202
78 204
78 205
78 206
78 207
78 208
78 209
78 210
78 211
78 212
78 214
78 215
78 216
78 217
78 218
78 221
78 222
78 225
78 227
78 231
78 233
78 236
78 237
78 240
78 241
78 242
78 244
78 245
78 246
78 247
78 248
78 249
78 250
78 251
78 252
78 254
78 255
78 256
78 257
78 258
78 259
78 260
78 261
78 262
78 263
78 264
78 265
78 266
78 267
78 268
78 269
78 271
78 272
78 273
78 274
78 275
78 276
78 277
78 278
78 279
78 281
78 283
78 284
78 287
78 288
78 290
78 291
78 293
78 295
78 297
78 300
78 301
78 304
78 306
78 308
78 310
78 312
78 313
78 316
78 318
78 320
78 322
78 323
78 327
78 330
78 332
78 333
78 334
78 335
78 336
78 337
78 339
78 340
78 341
78 342
78 343
78 344
78 345
78 346
78 347
78 348
78 349
78 351
78 353
78 354
78 358
78 359
78 360
78 361
78 363
78 366
78 367
78 368
78 369
78 370
78 372
78 373
78 374
78 375
78 376
78 377
78 378
78 379
78 380
78 381
78 384
78 386
78 387
78 388
78 389
78 391
78 392
78 394
78 395
78 396
78 397
78 398
78 399
78 400
78 401
78 402
78 403
78 405
78 406
78 407
78 408
78 409
78 410
78 412
78 413
78 414
78 415
78 416
78 418
78 420
78 423
78 425
78 426
78 427
78 428
78 429
78 430
78 432
78 433
78 434
78 435
78 436
78 437
78 438
78 439
78 440
78 442
78 444
78 445
78 446
78 447
78 448
78 450
78 452
78 455
78 456
78 458
78 459
78 460
78 463
78 464
78 466
78 467
78 471
78 472
78 473
78 476
78 477
78 480
78 482
78 487
78 488
78 490
78 493
78 497
78 498
78 500
78 501
78 503
78 504
78 506
78 507
78 510
78 512
78 514
78 518
78 521
78 522
78 523
78 526
78 530
78 532
78 533
78 534
78 535
78 537
78 538
78 539
78 540
78 541
78 542
78 543
78 544
78 545
78 546
78 547
78 548
78 552
78 553
78 555
78 556
78 559
78 562
78 563
78 564
78 565
78 566
78 567
78 569
78 570
78 571
78 572
78 573
78 574
78 575
78 576
78 577
78 578
78 579
79 80
79 81
79 82
79 83
79 84
79 85
79 86
79 87
79 88
79 89
79 90
79 91
79 92
79 94
79 95
79 96
79 97
79 98
79 99
79 100
79 101
79 102
79 103
79 104
79 105
79 106
79 107
79 108
79 109
79 110
79 111
79 113
79 114
79 115
79 116
79 117
79 118
79 119
79 120
79 121
79 122
79 124
79 125
79 126
79 127
79 128
79 129
79 130
79 131
79 132
79 133
79 134
79 136
79 138
79 141
79 142
79 143
79 148
79 153
79 154
79 156
79 157
79 162
79 163
79 165
79 168
79 169
79 170
79 172
79 173
79 174
79 175
79 178
79 181
79 182
79 183
79 186
79 187
79 189
79 190
79 191
79 194
79 195
79 198
79 200
79 203
79 204
79 206
79 210
79 214
79 215
79 216
79 217
79 218
79 221
79 222
79 225
79 227
79 231
79 233
79 236
79 237
79 240
79 241
79 242
79 244
79 245
79 246
79 247
79 248
79 249
79 250
79 251
79 252
79 253
79 254
79 256
79 257
79 258
79 259
79 263
79 264
79 266
79 267
79 269
79 270
79 271
79 272
79 279
79 280
79 281
79 282
79 283
79 284
79 285
79 286
79 287
79 288
79 289
79 291
79 292
79 293
79 294
79 295
79 297
79 300
79 301
79 304
79 306
79 308
79 310
79 312
79 313
79 314
79 315
79 316
79 317
79 318
79 319
79 320
79 321
79 323
79 324
79 325
79 326
79 327
79 328
79 329
79 330
79 331
79 332
79 333
79 334
79 335
79 336
79 337
79 338
79 339
79 341
79 342
79 343
79 344
79 345
79 346
79 347
79 348
79 349
79 350
79 351
79 352
79 353
79 354
79 355
79 356
79 357
79 358
79 359
79 361
79 362
79 363
79 364
79 365
79 368
79 370
79 371
79 374
79 376
79 378
79 380
79 381
79 384
79 386
79 387
79 388
79 389
79 391
79 392
79 394
79 395
79 396
79 399
79 400
79 401
79 403
79 404
79 405
79 407
79 410
79 411
79 412
79 413
79 414
79 416
79 417
79 418
79 419
79 420
79 421
79 422
79 423
79 424
79 425
79 426
79 427
79 428
79 429
79 430
79 431
79 432
79 434
79 435
79 436
79 437
79 438
79 439
79 440
79 441
79 442
79 443
79 444
79 445
79 447
79 448
79 449
79 450
79 451
79 452
79 453
79 454
79 455
79 456
79 458
79 459
79 460
79 463
79 464
79 466
79 467
79 471
79 472
79 473
79 476
79 477
79 480
79 482
79 487
79 488
79 489
79 490
79 491
79 492
79 493
79 494
79 495
79 496
79 497
79 499
79 500
79 501
79 502
79 503
79 504
79 505
79 506
79 507
79 508
79 509
79 511
79 512
79 513
79 514
79 515
79 516
79 517
79 518
79 521
79 522
79 523
79 526
79 530
79 532
79 533
79 534
79 536
79 538
79 541
79 547
79 548
79 552
79 553
79 555
79 556
79 559
79 562
79 565
79 566
79 567
79 568
79 569
79 570
79 572
79 574
79 575
79 577
80 81
80 82
80 83
80 84
80 85
80 86
80 87
80 88
80 89
80 90
80 91
80 92
80 93
80 95
80 96
80 97
80 98
80 99
80 100
80 101
80 102
80 103
80 105
80 108
80 109
80 110
80 111
80 112
80 117
80 118
80 119
80 120
80 121
80 122
80 123
80 125
80 126
80 127
80 128
80 129
80 130
80 131
80 132
80 133
80 134
80 135
80 136
80 137
80 138
80 139
80 140
80 141
80 142
80 144
80 145
80 146
80 147
80 148
80 153
80 154
80 156
80 157
80 162
80 163
80 164
80 165
80 166
80 167
80 168
80 169
80 170
80 171
80 172
80 173
80 174
80 176
80 177
80 178
80 179
80 180
80 181
80 182
80 183
80 186
80 187
80 189
80 190
80 191
80 194
80 195
80 198
80 200
80 203
80 204
80 206
80 210
80 213
80 214
80 215
80 216
80 217
80 218
80 219
80 220
80 222
80 223
80 224
80 225
80 226
80 227
80 228
80 229
80 231
80 233
80 236
80 237
80 240
80 241
80 242
80 244
80 245
80 246
80 248
80 249
80 251
80 252
80 253
80 255
80 256
80 257
80 260
80 261
80 262
80 263
80 264
80 265
80 266
80 267
80 268
80 269
80 270
80 272
80 273
80 274
80 275
80 276
80 277
80 278
80 279
80 281
80 283
80 284
80 287
80 288
80 290
80 291
80 293
80 295
80 296
80 297
80 298
80 299
80 300
80 301
80 302
80 303
80 304
80 305
80 306
80 307
80 309
80 310
80 311
80 312
80 313
80 316
80 318
80 320
80 322
80 323
80 327
80 330
80 332
80 333
80 334
80 335
80 336
80 337
80 338
80 339
80 340
80 342
80 343
80 344
80 345
80 346
80 347
80 348
80 349
80 351
80 353
80 354
80 358
80 359
80 360
80 361
80 363
80 368
80 370
80 371
80 374
80 376
80 378
80 380
80 381
80 382
80 383
80 384
80 385
80 386
80 387
80 388
80 389
80 390
80 391
80 393
80 394
80 395
80 396
80 399
80 400
80 401
80 403
80 404
80 405
80 407
80 410
80 412
80 413
80 414
80 415
80 416
80 418
80 420
80 423
80 425
80 426
80 427
80 428
80 429
80 430
80 431
80 432
80 433
80 435
80 436
80 437
80 438
80 439
80 440
80 442
80 444
80 445
80 446
80 447
80 448
80 450
80 452
80 455
80 456
80 457
80 458
80 459
80 460
80 461
80 462
80 463
80 464
80 465
80 467
80 468
80 469
80 470
80 471
80 472
80 473
80 476
80 477
80 480
80 482
80 487
80 488
80 490
80 493
80 497
80 498
80 500
80 501
80 503
80 504
80 506
80 507
80 510
80 512
80 514
80 518
80 519
80 520
80 521
80 522
80 524
80 525
80 526
80 527
80 528
80 529
80 530
80 531
80 532
80 533
80 534
80 535
80 536
80 537
80 539
80 540
80 541
80 542
80 543
80 544
80 545
80 546
80 547
80 548
80 549
80 550
80 551
80 552
80 553
80 554
80 556
80 557
80 558
80 559
80 560
80 561
80 562
80 563
80 564
80 565
80 566
80 567
80 568
80 570
80 571
80 572
80 573
80 574
80 575
80 576
80 577
80 578
80 579
81 82
81 83
81 84
81 85
81 86
81 87
81 88
81 89
81 90
81 91
81 92
81 93
81 94
81 96
81 97
81 98
81 99
81 100
81 101
81 102
81 103
81 105
81 108
81 109
81 110
81 111
81 112
81 117
81 118
81 119
81 120
81 121
81 122
81 123
81 124
81 126
81 127
81 128
81 129
81 130
81 131
81 132
81 133
81 134
81 136
81 138
81 141
81 142
81 143
81 148
81 153
81 154
81 156
81 157
81 162
81 163
81 165
81 168
81 169
81 170
81 172
81 173
81 174
81 175
81 178
81 181
81 182
81 183
81 184
81 185
81 186
81 187
81 188
81 189
81 190
81 192
81 193
81 194
81 195
81 196
81 197
81 198
81 199
81 200
81 201
81 202
81 203
81 205
81 206
81 207
81 208
81 209
81 210
81 211
81 212
81 213
81 214
81 215
81 216
81 217
81 218
81 219
81 220
81 221
81 223
81 224
81 225
81 226
81 227
81 228
81 229
81 230
81 231
81 232
81 233
81 234
81 235
81 236
81 237
81 238
81 239
81 241
81 242
81 243
81 244
81 245
81 246
81 248
81 249
81 251
81 252
81 253
81 255
81 256
81 257
81 260
81 261
81 262
81 263
81 264
81 265
81 266
81 267
81 268
81 269
81 270
81 271
81 273
81 274
81 275
81 276
81 277
81 278
81 279
81 280
81 281
81 282
81 283
81 284
81 285
81 286
81 287
81 288
81 289
81 290
81 292
81 293
81 294
81 295
81 297
81 300
81 301
81 304
81 306
81 308
81 310
81 312
81 313
81 314
81 315
81 316
81 317
81 318
81 319
81 320
81 321
81 322
81 324
81 325
81 326
81 327
81 328
81 329
81 330
81 331
81 332
81 333
81 334
81 335
81 336
81 337
81 338
81 339
81 340
81 341
81 343
81 344
81 345
81 346
81 347
81 348
81 349
81 350
81 351
81 352
81 353
81 354
81 355
81 356
81 357
81 358
81 359
81 360
81 362
81 363
81 364
81 365
81 368
81 370
81 371
81 374
81 376
81 378
81 380
81 381
81 384
81 386
81 387
81 388
81 389
81 391
81 392
81 394
81 395
81 396
81 397
81 398
81 399
81 400
81 401
81 402
81 403
81 404
81 406
81 407
81 408
81 409
81 410
81 411
81 412
81 413
81 414
81 415
81 417
81 418
81 419
81 420
81 421
81 422
81 423
81 424
81 425
81 426
81 427
81 428
81 429
81 430
81 431
81 432
81 433
81 434
81 436
81 437
81 438
81 439
81 440
81 441
81 442
81 443
81 444
81 445
81 446
81 448
81 449
81 450
81 451
81 452
81 453
81 454
81 455
81 456
81 458
81 459
81 460
81 463
81 464
81 466
81 467
81 471
81 472
81 473
81 474
81 475
81 476
81 478
81 479
81 480
81 481
81 482
81 483
81 484
81 485
81 486
81 487
81 488
81 490
81 493
81 497
81 498
81 500
81 501
81 503
81 504
81 506
81 507
81 510
81 512
81 514
81 518
81 521
81 522
81 523
81 526
81 530
81 532
81 533
81 534
81 536
81 538
81 541
81 547
81 548
81 552
81 553
81 555
81 556
81 559
81 562
81 563
81 564
81 565
81 566
81 567
81 568
81 569
81 571
81 572
81 573
81 574
81 575
81 576
81 577
81 578
81 579
82 83
82 84
82 85
82 86
82 87
82 88
82 89
82 90
82 91
82 92
82 93
82 94
82 95
82 96
82 97
82 99
82 100
82 101
82 102
82 103
82 105
82 108
82 109
82 110
82 111
82 112
82 117
82 118
82 119
82 120
82 121
82 122
82 123
82 124
82 125
82 127
82 128
82 129
82 130
82 131
82 132
82 133
82 134
82 136
82 138
82 141
82 142
82 143
82 148
82 153
82 154
82 156
82 157
82 162
82 163
82 165
82 168
82 169
82 170
82 172
82 173
82 174
82 175
82 178
82 181
82 182
82 183
82 186
82 187
82 189
82 190
82 191
82 194
82 195
82 198
82 200
82 203
82 204
82 206
82 210
82 213
82 214
82 215
82 216
82 217
82 218
82 219
82 220
82 221
82 222
82 223
82 224
82 226
82 227
82 228
82 229
82 230
82 231
82 232
82 233
82 234
82 235
82 236
82 237
82 238
82 239
82 240
82 242
82 243
82 244
82 245
82 246
82 247
82 248
82 249
82 250
82 251
82 252
82 253
82 254
82 255
82 257
82 258
82 259
82 263
82 264
82 266
82 267
82 269
82 270
82 271
82 272
82 279
82 281
82 283
82 284
82 287
82 288
82 290
82 291
82 293
82 295
82 297
82 300
82 301
82 304
82 306
82 308
82 310
82 312
82 313
82 316
82 318
82 320
82 322
82 323
82 327
82 330
82 333
82 334
82 336
82 337
82 338
82 340
82 341
82 342
82 345
82 347
82 349
82 350
82 351
82 352
82 353
82 354
82 355
82 356
82 357
82 358
82 359
82 360
82 361
82 362
82 364
82 365
82 366
82 367
82 368
82 369
82 370
82 371
82 372
82 373
82 375
82 376
82 377
82 378
82 379
82 380
82 381
82 384
82 386
82 387
82 388
82 389
82 391
82 392
82 394
82 395
82 396
82 399
82 400
82 401
82 403
82 404
82 405
82 407
82 410
82 412
82 413
82 414
82 415
82 416
82 418
82 420
82 423
82 425
82 426
82 428
82 430
82 431
82 433
82 434
82 435
82 437
82 440
82 441
82 442
82 443
82 444
82 445
82 446
82 447
82 449
82 450
82 451
82 452
82 453
82 454
82 455
82 456
82 457
82 458
82 459
82 460
82 461
82 462
82 463
82 464
82 465
82 466
82 468
82 469
82 470
82 471
82 472
82 473
82 474
82 475
82 476
82 477
82 478
82 479
82 481
82 482
82 483
82 484
82 485
82 486
82 487
82 488
82 489
82 490
82 491
82 492
82 493
82 494
82 495
82 496
82 497
82 498
82 499
82 501
82 502
82 503
82 504
82 506
82 507
82 510
82 512
82 514
82 518
82 521
82 522
82 523
82 526
82 530
82 532
82 533
82 534
82 536
82 538
82 541
82 547
82 548
82 549
82 550
82 551
82 552
82 553
82 554
82 555
82 557
82 558
82 559
82 560
82 561
82 562
82 563
82 564
82 565
82 566
82 567
82 568
82 569
82 570
82 571
82 573
82 574
82 575
82 576
82 577
82 578
82 579
83 84
83 85
83 86
83 87
83 90
83 91
83 92
83 93
83 94
83 95
83 98
83 101
83 102
83 103
83 105
83 108
83 109
83 110
83 111
83 112
83 117
83 118
83 120
83 122
83 123
83 124
83 125
83 126
83 129
83 132
83 134
83 136
83 138
83 141
83 142
83 143
83 148
83 153
83 154
83 156
83 157
83 162
83 163
83 165
83 168
83 169
83 170
83 172
83 173
83 174
83 175
83 178
83 181
83 182
83 183
83 184
83 185
83 186
83 187
83 188
83 189
83 190
83 191
83 192
83 193
83 195
83 196
83 197
83 198
83 200
83 203
83 204
83 206
83 210
83 213
83 214
83 215
83 216
83 217
83 218
83 219
83 220
83 221
83 222
83 223
83 224
83 225
83 226
83 228
83 229
83 231
83 233
83 236
83 237
83 240
83 241
83 242
83 244
83 245
83 246
83 247
83 248
83 249
83 250
83 251
83 252
83 253
83 254
83 255
83 256
83 258
83 259
83 263
83 264
83 266
83 267
83 269
83 270
83 271
83 272
83 279
83 281
83 283
83 284
83 287
83 288
83 290
83 291
83 293
83 295
83 296
83 297
83 298
83 299
83 300
83 301
83 302
83 303
83 304
83 305
83 306
83 307
83 308
83 309
83 311
83 312
83 313
83 314
83 315
83 316
83 317
83 318
83 319
83 320
83 321
83 322
83 323
83 324
83 325
83 326
83 328
83 329
83 330
83 331
83 333
83 334
83 336
83 337
83 338
83 340
83 341
83 342
83 345
83 347
83 349
83 351
83 353
83 354
83 358
83 359
83 360
83 361
83 363
83 366
83 367
83 368
83 369
83 370
83 371
83 372
83 373
83 374
83 375
83 377
83 378
83 379
83 380
83 381
83 382
83 383
83 384
83 385
83 386
83 387
83 388
83 389
83 390
83 391
83 392
83 393
83 395
83 396
83 397
83 398
83 399
83 400
83 401
83 402
83 403
83 404
83 405
83 406
83 408
83 409
83 410
83 411
83 412
83 413
83 414
83 415
83 416
83 417
83 419
83 420
83 421
83 422
83 423
83 424
83 425
83 426
83 428
83 430
83 431
83 433
83 434
83 435
83 437
83 440
83 441
83 442
83 443
83 444
83 445
83 446
83 447
83 448
83 449
83 451
83 452
83 453
83 454
83 455
83 456
83 458
83 459
83 460
83 463
83 464
83 466
83 467
83 471
83 472
83 473
83 474
83 475
83 476
83 477
83 478
83 479
83 480
83 481
83 483
83 484
83 485
83 486
83 487
83 488
83 490
83 493
83 497
83 498
83 500
83 501
83 503
83 504
83 505
83 506
83 507
83 508
83 509
83 510
83 511
83 513
83 514
83 515
83 516
83 517
83 518
83 521
83 522
83 523
83 526
83 530
83 532
83 533
83 534
83 535
83 536
83 537
83 538
83 539
83 540
83 542
83 543
83 544
83 545
83 546
83 547
83 548
83 552
83 553
83 555
83 556
83 559
83 562
83 563
83 564
83 565
83 566
83 567
83 568
83 569
83 570
83 571
83 572
83 573
83 575
83 576
83 577
83 578
83 579
84 85
84 86
84 87
84 90
84 91
84 92
84 93
84 94
84 95
84 98
84 101
84 102
84 103
84 105
84 108
84 109
84 110
84 111
84 112
84 117
84 118
84 119
84 120
84 121
84 122
84 123
84 124
84 125
84 126
84 127
84 128
84 130
84 131
84 132
84 133
84 134
84 136
84 138
84 141
84 142
84 143
84 148
84 153
84 154
84 156
84 157
84 162
84 163
84 164
84 165
84 166
84 167
84 168
84 169
84 170
84 171
84 172
84 173
84 174
84 175
84 176
84 177
84 179
84 180
84 181
84 182
84 183
84 184
84 185
84 186
84 187
84 188
84 189
84 190
84 191
84 192
84 193
84 194
84 196
84 197
84 198
84 199
84 200
84 201
84 202
84 203
84 204
84 205
84 207
84 208
84 209
84 210
84 211
84 212
84 214
84 215
84 216
84 217
84 218
84 221
84 222
84 225
84 227
84 230
84 231
84 232
84 233
84 234
84 235
84 236
84 237
84 238
84 239
84 240
84 241
84 243
84 244
84 245
84 246
84 248
84 249
84 251
84 252
84 253
84 255
84 256
84 257
84 263
84 264
84 266
84 267
84 269
84 270
84 271
84 272
84 279
84 280
84 281
84 282
84 283
84 284
84 285
84 286
84 287
84 288
84 289
84 290
84 291
84 292
84 294
84 295
84 297
84 300
84 301
84 304
84 306
84 308
84 310
84 312
84 313
84 316
84 318
84 320
84 322
84 323
84 327
84 330
84 332
84 333
84 334
84 335
84 336
84 337
84 338
84 339
84 340
84 341
84 342
84 343
84 344
84 346
84 347
84 348
84 349
84 351
84 353
84 354
84 358
84 359
84 360
84 361
84 363
84 366
84 367
84 368
84 369
84 370
84 371
84 372
84 373
84 374
84 375
84 376
84 377
84 379
84 380
84 381
84 384
84 386
84 387
84 388
84 389
84 391
84 392
84 394
84 395
84 396
84 399
84 400
84 401
84 403
84 404
84 405
84 407
84 410
84 411
84 412
84 413
84 414
84 415
84 416
84 417
84 418
84 419
84 421
84 422
84 423
84 424
84 425
84 426
84 427
84 428
84 429
84 430
84 431
84 432
84 433
84 434
84 435
84 436
84 438
84 439
84 440
84 442
84 444
84 445
84 446
84 447
84 448
84 450
84 452
84 455
84 456
84 458
84 459
84 460
84 463
84 464
84 466
84 467
84 471
84 472
84 473
84 476
84 477
84 480
84 482
84 487
84 488
84 489
84 490
84 491
84 492
84 493
84 494
84 495
84 496
84 497
84 498
84 499
84 500
84 502
84 503
84 504
84 505
84 506
84 507
84 508
84 509
84 510
84 511
84 512
84 513
84 515
84 516
84 517
84 518
84 519
84 520
84 521
84 522
84 523
84 524
84 525
84 527
84 528
84 529
84 530
84 531
84 532
84 533
84 534
84 536
84 538
84 541
84 547
84 548
84 552
84 553
84 555
84 556
84 559
84 562
84 563
84 564
84 565
84 566
84 567
84 568
84 569
84 570
84 571
84 572
84 573
84 574
84 576
84 577
84 578
84 579
85 86
85 87
85 88
85 89
85 90
85 91
85 92
85 93
85 94
85 95
85 96
85 97
85 98
85 99
85 100
85 102
85 103
85 105
85 108
85 109
85 110
85 111
85 112
85 117
85 118
85 119
85 120
85 121
85 122
85 123
85 124
85 125
85 126
85 127
85 128
85 129
85 130
85 131
85 133
85 134
85 136
85 138
85 141
85 142
85 143
85 148
85 149
85 150
85 151
85 152
85 153
85 154
85 155
85 156
85 157
85 158
85 159
85 160
85 161
85 163
85 165
85 168
85 169
85 170
85 172
85 173
85 174
85 175
85 178
85 181
85 182
85 183
85 186
85 187
85 189
85 190
85 191
85 194
85 195
85 198
85 199
85 200
85 201
85 202
85 203
85 204
85 205
85 206
85 207
85 208
85 209
85 211
85 212
85 214
85 215
85 216
85 217
85 218
85 221
85 222
85 225
85 227
85 231
85 233
85 236
85 237
85 240
85 241
85 242
85 244
85 245
85 246
85 248
85 249
85 251
85 252
85 253
85 255
85 256
85 257
85 263
85 264
85 266
85 267
85 269
85 270
85 271
85 272
85 279
85 281
85 283
85 284
85 287
85 288
85 290
85 291
85 293
85 295
85 296
85 297
85 298
85 299
85 300
85 301
85 302
85 303
85 304
85 305
85 306
85 307
85 308
85 309
85 310
85 311
85 313
85 314
85 315
85 316
85 317
85 318
85 319
85 320
85 321
85 322
85 323
85 324
85 325
85 326
85 327
85 328
85 329
85 331
85 332
85 333
85 334
85 335
85 336
85 337
85 338
85 339
85 340
85 341
85 342
85 343
85 344
85 345
85 346
85 348
85 349
85 351
85 353
85 354
85 358
85 359
85 360
85 361
85 363
85 368
85 370
85 371
85 374
85 376
85 378
85 380
85 381
85 382
85 383
85 384
85 385
85 386
85 387
85 388
85 389
85 390
85 391
85 392
85 393
85 394
85 396
85 399
85 400
85 401
85 403
85 404
85 405
85 407
85 410
85 411
85 412
85 413
85 414
85 415
85 416
85 417
85 418
85 419
85 420
85 421
85 422
85 424
85 425
85 426
85 428
85 430
85 431
85 433
85 434
85 435
85 437
85 440
85 441
85 442
85 443
85 444
85 445
85 446
85 447
85 448
85 449
85 450
85 451
85 453
85 454
85 455
85 456
85 458
85 459
85 460
85 463
85 464
85 466
85 467
85 471
85 472
85 473
85 476
85 477
85 480
85 482
85 487
85 488
85 490
85 493
85 497
85 498
85 500
85 501
85 503
85 504
85 506
85 507
85 510
85 512
85 514
85 518
85 519
85 520
85 521
85 522
85 523
85 524
85 525
85 526
85 527
85 528
85 529
85 531
85 532
85 533
85 534
85 536
85 538
85 541
85 547
85 548
85 549
85 550
85 551
85 552
85 553
85 554
85 555
85 556
85 557
85 558
85 560
85 561
85 562
85 563
85 564
85 565
85 566
85 567
85 568
85 569
85 570
85 571
85 572
85 573
85 574
85 575
85 576
85 578
85 579
86 87
86 90
86 91
86 92
86 93
86 94
86 95
86 98
86 101
86 102
86 103
86 105
86 108
86 109
86 110
86 111
86 112
86 117
86 118
86 120
86 122
86 123
86 124
86 125
86 126
86 129
86 132
86 134
86 135
86 136
86 137
86 138
86 139
86 140
86 141
86 142
86 143
86 144
86 145
86 146
86 147
86 149
86 150
86 151
86 152
86 153
86 154
86 155
86 156
86 157
86 158
86 159
86 160
86 161
86 162
86 165
86 168
86 169
86 170
86 172
86 173
86 174
86 175
86 178
86 181
86 182
86 183
86 186
86 187
86 189
86 190
86 191
86 194
86 195
86 198
86 200
86 203
86 204
86 206
86 210
86 214
86 215
86 216
86 217
86 218
86 221
86 222
86 225
86 227
86 230
86 231
86 232
86 233
86 234
86 235
86 236
86 237
86 238
86 239
86 240
86 241
86 242
86 243
86 245
86 246
86 248
86 249
86 251
86 252
86 253
86 255
86 256
86 257
86 263
86 264
86 266
86 267
86 269
86 270
86 271
86 272
86 279
86 280
86 281
86 282
86 283
86 284
86 285
86 286
86 287
86 288
86 289
86 290
86 291
86 292
86 293
86 294
86 297
86 300
86 301
86 304
86 306
86 308
86 310
86 312
86 313
86 316
86 318
86 320
86 322
86 323
86 327
86 330
86 333
86 334
86 336
86 337
86 338
86 340
86 341
86 342
86 345
86 347
86 349
86 351
86 353
86 354
86 358
86 359
86 360
86 361
86 363
86 366
86 367
86 368
86 369
86 370
86 371
86 372
86 373
86 374
86 375
86 376
86 377
86 378
86 379
86 381
86 384
86 386
86 387
86 388
86 389
86 391
86 392
86 394
86 395
86 396
86 397
86 398
86 399
86 400
86 401
86 402
86 403
86 404
86 405
86 406
86 407
86 408
86 409
86 411
86 412
86 413
86 414
86 415
86 416
86 417
86 418
86 419
86 420
86 421
86 422
86 423
86 424
86 426
86 427
86 428
86 429
86 430
86 431
86 432
86 433
86 434
86 435
86 436
86 437
86 438
86 439
86 441
86 442
86 443
86 444
86 445
86 446
86 447
86 448
86 449
86 450
86 451
86 452
86 453
86 454
86 456
86 458
86 459
86 460
86 463
86 464
86 466
86 467
86 471
86 472
86 473
86 474
86 475
86 476
86 477
86 478
86 479
86 480
86 481
86 482
86 483
86 484
86 485
86 486
86 488
86 490
86 493
86 497
86 498
86 500
86 501
86 503
86 504
86 506
86 507
86 510
86 512
86 514
86 518
86 519
86 520
86 521
86 522
86 523
86 524
86 525
86 526
86 527
86 528
86 529
86 530
86 531
86 533
86 534
86 535
86 536
86 537
86 538
86 539
86 540
86 541
86 542
86 543
86 544
86 545
86 546
86 548
86 549
86 550
86 551
86 552
86 553
86 554
86 555
86 556
86 557
86 558
86 559
86 560
86 561
86 565
86 566
86 567
86 568
86 569
86 570
86 572
86 574
86 575
86 577
87 88
87 89
87 90
87 91
87 92
87 93
87 94
87 95
87 96
87 97
87 98
87 99
87 100
87 101
87 103
87 104
87 105
87 106
87 107
87 108
87 109
87 110
87 111
87 112
87 113
87 114
87 115
87 116
87 118
87 120
87 123
87 124
87 125
87 126
87 127
87 132
87 135
87 136
87 137
87 138
87 139
87 140
87 141
87 142
87 143
87 144
87 145
87 146
87 147
87 148
87 149
87 153
87 154
87 158
87 159
87 162
87 164
87 167
87 169
87 175
87 176
87 177
87 179
87 186
87 187
87 191
87 192
87 193
87 199
87 200
87 201
87 202
87 203
87 204
87 205
87 206
87 207
87 208
87 209
87 210
87 211
87 212
87 217
87 218
87 221
87 222
87 223
87 224
87 225
87 226
87 232
87 235
87 237
87 240
87 241
87 243
87 246
87 247
87 248
87 249
87 250
87 251
87 252
87 253
87 254
87 255
87 256
87 257
87 258
87 259
87 261
87 263
87 266
87 267
87 271
87 272
87 273
87 274
87 277
87 280
87 281
87 282
87 283
87 284
87 285
87 286
87 287
87 288
87 289
87 290
87 291
87 292
87 293
87 294
87 295
87 298
87 299
87 304
87 308
87 309
87 312
87 315
87 316
87 318
87 322
87 323
87 324
87 325
87 326
87 329
87 330
87 334
87 340
87 341
87 342
87 343
87 347
87 350
87 352
87 354
87 360
87 361
87 362
87 363
87 368
87 372
87 373
87 374
87 375
87 382
87 383
87 384
87 385
87 386
87 387
87 388
87 389
87 390
87 391
87 392
87 393
87 394
87 395
87 398
87 400
87 405
87 406
87 411
87 413
87 415
87 416
87 417
87 421
87 423
87 433
87 434
87 435
87 436
87 444
87 446
87 447
87 448
87 449
87 451
87 452
87 457
87 458
87 459
87 460
87 461
87 462
87 463
87 464
87 465
87 466
87 467
87 468
87 469
87 470
87 472
87 473
87 474
87 475
87 476
87 477
87 478
87 479
87 480
87 481
87 482
87 483
87 484
87 485
87 486
87 487
87 489
87 490
87 491
87 492
87 493
87 494
87 495
87 496
87 497
87 498
87 499
87 500
87 501
87 502
87 504
87 505
87 506
87 507
87 508
87 509
87 510
87 511
87 512
87 513
87 514
87 515
87 516
87 517
87 519
87 521
87 523
87 524
87 528
87 530
87 534
87 538
87 539
87 540
87 543
87 549
87 550
87 551
87 552
87 553
87 554
87 555
87 556
87 557
87 558
87 559
87 560
87 561
87 562
87 563
87 564
87 566
87 569
87 570
87 571
87 572
87 573
87 577
88 89
88 90
88 91
88 92
88 93
88 94
88 95
88 96
88 97
88 98
88 99
88 100
88 101
88 102
88 103
88 105
88 106
88 107
88 108
88 109
88 110
88 111
88 112
88 113
88 114
88 115
88 116
88 118
88 120
88 123
88 124
88 125
88 126
88 127
88 132
88 134
88 135
88 136
88 138
88 139
88 140
88 141
88 142
88 143
88 144
88 145
88 146
88 147
88 148
88 150
88 151
88 152
88 153
88 154
88 155
88 156
88 157
88 158
88 159
88 160
88 161
88 162
88 163
88 165
88 166
88 167
88 168
88 169
88 170
88 171
88 172
88 173
88 174
88 175
88 176
88 177
88 178
88 179
88 180
88 186
88 187
88 191
88 192
88 193
88 198
88 204
88 205
88 208
88 210
88 217
88 218
88 221
88 222
88 223
88 224
88 225
88 226
88 230
88 231
88 233
88 234
88 235
88 236
88 237
88 238
88 239
88 240
88 241
88 242
88 243
88 244
88 245
88 247
88 249
88 255
88 256
88 258
88 260
88 262
88 263
88 264
88 265
88 266
88 267
88 268
88 269
88 270
88 271
88 272
88 273
88 274
88 275
88 276
88 277
88 278
88 279
88 282
88 283
88 287
88 288
88 290
88 291
88 292
88 296
88 297
88 299
88 300
88 301
88 302
88 303
88 304
88 305
88 306
88 307
88 308
88 309
88 310
88 311
88 312
88 315
88 316
88 318
88 322
88 323
88 324
88 325
88 326
88 329
88 330
88 334
88 340
88 341
88 342
88 343
88 347
88 349
88 351
88 352
88 353
88 354
88 355
88 356
88 357
88 358
88 359
88 360
88 361
88 362
88 363
88 364
88 365
88 368
88 372
88 373
88 374
88 375
88 381
88 382
88 384
88 385
88 386
88 387
88 388
88 389
88 390
88 391
88 392
88 393
88 394
88 395
88 398
88 400
88 405
88 406
88 412
88 413
88 414
88 415
88 416
88 417
88 418
88 419
88 420
88 421
88 422
88 423
88 424
88 425
88 433
88 434
88 435
88 436
88 444
88 446
88 447
88 448
88 449
88 451
88 452
88 456
88 459
88 463
88 464
88 466
88 467
88 469
88 471
88 477
88 478
88 479
88 480
88 481
88 488
88 489
88 490
88 492
88 493
88 494
88 495
88 496
88 497
88 498
88 499
88 500
88 501
88 502
88 503
88 505
88 507
88 510
88 511
88 516
88 519
88 521
88 523
88 524
88 528
88 530
88 534
88 538
88 539
88 540
88 543
88 548
88 550
88 552
88 555
88 556
88 557
88 559
88 564
88 565
88 566
88 567
88 568
88 569
88 570
88 571
88 572
88 573
88 574
88 575
88 576
88 577
88 578
88 579
89 90
89 91
89 92
89 93
89 94
89 95
89 96
89 97
89 98
89 99
89 100
89 101
89 102
89 103
89 104
89 105
89 106
89 108
89 109
89 110
89 111
89 112
89 113
89 114
89 115
89 116
89 118
89 120
89 123
89 124
89 125
89 126
89 127
89 132
89 134
89 137
89 143
89 144
89 145
89 147
89 149
89 153
89 154
89 158
89 159
89 162
89 164
89 165
89 166
89 168
89 169
89 170
89 171
89 172
89 173
89 174
89 175
89 176
89 177
89 178
89 179
89 180
89 186
89 187
89 191
89 192
89 193
89 198
89 204
89 205
89 208
89 210
89 217
89 218
89 221
89 222
89 223
89 224
89 225
89 226
89 230
89 231
89 232
89 233
89 234
89 236
89 237
89 238
89 239
89 240
89 241
89 242
89 243
89 244
89 245
89 246
89 248
89 249
89 250
89 251
89 252
89 253
89 254
89 255
89 256
89 257
89 258
89 259
89 261
89 263
89 266
89 267
89 271
89 272
89 273
89 274
89 277
89 279
89 280
89 281
89 283
89 284
89 285
89 286
89 287
89 288
89 289
89 290
89 291
89 292
89 293
89 294
89 295
89 296
89 297
89 298
89 300
89 301
89 302
89 303
89 304
89 305
89 306
89 307
89 308
89 309
89 310
89 311
89 312
89 313
89 314
89 316
89 317
89 318
89 319
89 320
89 321
89 322
89 323
89 324
89 325
89 326
89 327
89 328
89 329
89 330
89 331
89 334
89 340
89 341
89 342
89 343
89 347
89 349
89 350
89 351
89 353
89 354
89 355
89 356
89 357
89 358
89 359
89 360
89 361
89 362
89 363
89 364
89 365
89 368
89 372
89 373
89 374
89 375
89 381
89 383
89 387
89 389
89 392
89 393
89 395
89 396
89 397
89 399
89 400
89 401
89 402
89 403
89 404
89 405
89 406
89 407
89 408
89 409
89 410
89 411
89 413
89 415
89 416
89 417
89 421
89 423
89 433
89 434
89 435
89 436
89 444
89 446
89 447
89 448
89 449
89 451
89 452
89 456
89 459
89 463
89 464
89 466
89 467
89 469
89 471
89 477
89 478
89 479
89 480
89 481
89 488
89 491
89 498
89 499
89 500
89 503
89 504
89 506
89 507
89 508
89 509
89 510
89 511
89 512
89 513
89 514
89 515
89 516
89 517
89 518
89 520
89 521
89 522
89 523
89 524
89 525
89 526
89 527
89 528
89 529
89 530
89 531
89 532
89 534
89 538
89 539
89 540
89 543
89 548
89 549
89 551
89 552
89 553
89 554
89 555
89 556
89 557
89 558
89 559
89 560
89 561
89 562
89 563
89 565
89 566
89 567
89 568
89 569
89 570
89 571
89 572
89 573
89 574
89 575
89 576
89 577
89 578
89 579
90 91
90 92
90 93
90 94
90 95
90 96
90 97
90 98
90 99
90 100
90 101
90 102
90 103
90 104
90 105
90 106
90 107
90 108
90 110
90 111
90 112
90 113
90 114
90 115
90 116
90 117
90 119
90 120
90 121
90 122
90 123
90 124
90 125
90 126
90 127
90 128
90 129
90 130
90 131
90 132
90 133
90 134
90 137
90 143
90 144
90 145
90 147
90 149
90 153
90 154
90 158
90 159
90 162
90 164
90 165
90 166
90 167
90 168
90 170
90 171
90 172
90 173
90 174
90 175
90 176
90 177
90 178
90 179
90 180
90 186
90 187
90 191
90 192
90 193
90 198
90 204
90 205
90 208
90 210
90 217
90 218
90 221
90 222
90 223
90 224
90 225
90 226
90 232
90 235
90 237
90 240
90 241
90 243
90 245
90 247
90 249
90 255
90 256
90 258
90 260
90 261
90 262
90 264
90 265
90 266
90 267
90 268
90 269
90 270
90 271
90 272
90 273
90 274
90 275
90 276
90 277
90 278
90 279
90 280
90 281
90 282
90 284
90 285
90 286
90 287
90 288
90 289
90 290
90 291
90 292
90 293
90 294
90 295
90 298
90 299
90 304
90 308
90 309
90 312
90 313
90 314
90 315
90 317
90 318
90 319
90 320
90 321
90 322
90 323
90 324
90 325
90 326
90 327
90 328
90 329
90 330
90 331
90 332
90 333
90 335
90 336
90 337
90 338
90 339
90 340
90 341
90 342
90 343
90 344
90 345
90 346
90 347
90 348
90 349
90 350
90 351
90 352
90 353
90 355
90 356
90 357
90 358
90 359
90 360
90 361
90 362
90 363
90 364
90 365
90 366
90 367
90 369
90 370
90 371
90 372
90 373
90 374
90 375
90 376
90 377
90 378
90 379
90 380
90 381
90 382
90 383
90 384
90 385
90 386
90 388
90 389
90 390
90 391
90 392
90 393
90 394
90 395
90 396
90 397
90 398
90 399
90 401
90 402
90 403
90 404
90 405
90 406
90 407
90 408
90 409
90 410
90 411
90 413
90 415
90 416
90 417
90 421
90 423
90 433
90 434
90 435
90 436
90 444
90 446
90 447
90 448
90 449
90 451
90 452
90 456
90 457
90 458
90 460
90 461
90 462
90 463
90 464
90 465
90 466
90 467
90 468
90 469
90 470
90 471
90 477
90 478
90 479
90 480
90 481
90 488
90 491
90 498
90 499
90 500
90 503
90 505
90 507
90 510
90 511
90 516
90 519
90 521
90 523
90 524
90 528
90 530
90 533
90 535
90 536
90 537
90 538
90 539
90 540
90 541
90 542
90 543
90 544
90 545
90 546
90 547
90 548
90 550
90 552
90 555
90 556
90 557
90 559
90 563
90 564
90 566
90 569
90 570
90 571
90 572
90 573
90 577
91 92
91 93
91 94
91 95
91 96
91 97
91 98
91 99
91 100
91 101
91 102
91 104
91 107
91 109
91 110
91 112
91 113
91 114
91 117
91 118
91 119
91 121
91 122
91 123
91 124
91 125
91 126
91 127
91 128
91 129
91 130
91 131
91 132
91 133
91 134
91 137
91 143
91 144
91 145
91 147
91 149
91 150
91 151
91 152
91 154
91 155
91 156
91 157
91 158
91 159
91 160
91 161
91 162
91 163
91 164
91 167
91 169
91 175
91 176
91 177
91 179
91 181
91 182
91 183
91 184
91 185
91 187
91 188
91 189
91 190
91 191
91 192
91 193
91 194
91 195
91 196
91 197
91 198
91 204
91 205
91 208
91 210
91 213
91 214
91 215
91 216
91 218
91 219
91 220
91 221
91 222
91 223
91 224
91 225
91 226
91 227
91 228
91 229
91 230
91 231
91 232
91 233
91 234
91 235
91 236
91 238
91 239
91 240
91 241
91 242
91 243
91 244
91 245
91 247
91 249
91 255
91 256
91 258
91 260
91 261
91 262
91 263
91 264
91 265
91 267
91 268
91 269
91 270
91 271
91 272
91 273
91 274
91 275
91 276
91 277
91 278
91 279
91 280
91 281
91 282
91 283
91 284
91 285
91 286
91 288
91 289
91 290
91 291
91 292
91 293
91 294
91 295
91 298
91 299
91 304
91 308
91 309
91 312
91 315
91 316
91 318
91 322
91 323
91 324
91 325
91 326
91 329
91 330
91 334
91 340
91 341
91 342
91 343
91 347
91 350
91 352
91 354
91 360
91 361
91 362
91 363
91 368
91 372
91 373
91 374
91 375
91 381
91 382
91 383
91 384
91 385
91 386
91 387
91 388
91 390
91 391
91 392
91 393
91 394
91 395
91 398
91 400
91 405
91 406
91 411
91 412
91 414
91 415
91 416
91 417
91 418
91 419
91 420
91 421
91 422
91 423
91 424
91 425
91 433
91 434
91 435
91 436
91 444
91 446
91 447
91 448
91 449
91 451
91 452
91 456
91 457
91 458
91 459
91 460
91 461
91 462
91 464
91 465
91 466
91 467
91 468
91 469
91 470
91 471
91 477
91 478
91 479
91 480
91 481
91 488
91 491
91 498
91 499
91 500
91 503
91 504
91 505
91 506
91 508
91 509
91 510
91 511
91 512
91 513
91 514
91 515
91 516
91 517
91 519
91 521
91 523
91 524
91 528
91 530
91 534
91 538
91 539
91 540
91 543
91 548
91 549
91 550
91 551
91 553
91 554
91 555
91 556
91 557
91 558
91 559
91 560
91 561
91 562
91 563
91 564
91 566
91 569
91 570
91 571
91 572
91 573
91 577
92 93
92 94
92 95
92 96
92 97
92 98
92 99
92 100
92 101
92 102
92 103
92 104
92 105
92 106
92 107
92 108
92 109
92 111
92 112
92 113
92 114
92 115
92 116
92 118
92 120
92 123
92 124
92 125
92 126
92 127
92 132
92 134
92 137
92 143
92 144
92 145
92 147
92 149
92 150
92 151
92 152
92 153
92 155
92 156
92 157
92 158
92 159
92 160
92 161
92 162
92 163
92 164
92 167
92 169
92 175
92 176
92 177
92 179
92 181
92 182
92 183
92 184
92 185
92 186
92 188
92 189
92 190
92 191
92 192
92 193
92 194
92 195
92 196
92 197
92 198
92 204
92 205
92 208
92 210
92 213
92 214
92 215
92 216
92 217
92 219
92 220
92 221
92 222
92 223
92 224
92 225
92 226
92 227
92 228
92 229
92 232
92 235
92 237
92 240
92 241
92 243
92 245
92 246
92 247
92 248
92 250
92 251
92 252
92 253
92 254
92 255
92 256
92 257
92 258
92 259
92 260
92 261
92 262
92 263
92 264
92 265
92 266
92 268
92 269
92 270
92 271
92 272
92 273
92 274
92 275
92 276
92 277
92 278
92 279
92 280
92 281
92 282
92 283
92 284
92 285
92 286
92 287
92 289
92 290
92 291
92 292
92 293
92 294
92 295
92 296
92 297
92 298
92 299
92 300
92 301
92 302
92 303
92 305
92 306
92 307
92 308
92 309
92 310
92 311
92 312
92 313
92 314
92 315
92 316
92 317
92 319
92 320
92 321
92 322
92 323
92 324
92 325
92 326
92 327
92 328
92 329
92 330
92 331
92 334
92 340
92 341
92 342
92 343
92 347
92 350
92 352
92 354
92 360
92 361
92 362
92 363
92 368
92 372
92 373
92 374
92 375
92 381
92 383
92 387
92 389
92 392
92 393
92 395
92 398
92 400
92 405
92 406
92 411
92 413
92 415
92 416
92 417
92 421
92 423
92 433
92 434
92 435
92 436
92 441
92 442
92 443
92 445
92 446
92 447
92 448
92 449
92 450
92 451
92 452
92 453
92 454
92 455
92 456
92 457
92 458
92 459
92 460
92 461
92 462
92 463
92 465
92 466
92 467
92 468
92 469
92 470
92 471
92 477
92 478
92 479
92 480
92 481
92 488
92 491
92 498
92 499
92 500
92 503
92 505
92 507
92 510
92 511
92 516
92 518
92 519
92 520
92 522
92 523
92 524
92 525
92 526
92 527
92 528
92 529
92 530
92 531
92 532
92 534
92 538
92 539
92 540
92 543
92 548
92 550
92 552
92 555
92 556
92 557
92 559
92 563
92 564
92 565
92 567
92 568
92 569
92 570
92 571
92 572
92 573
92 574
92 575
92 576
92 577
92 578
92 579
93 94
93 95
93 96
93 97
93 98
93 99
93 100
93 101
93 102
93 103
93 104
93 105
93 106
93 107
93 108
93 109
93 110
93 111
93 113
93 114
93 115
93 116
93 117
93 118
93 119
93 120
93 121
93 122
93 124
93 125
93 126
93 127
93 128
93 129
93 130
93 131
93 132
93 133
93 134
93 137
93 143
93 144
93 145
93 147
93 149
93 153
93 154
93 158
93 159
93 162
93 164
93 167
93 169
93 175
93 176
93 177
93 179
93 186
93 187
93 191
93 192
93 193
93 198
93 204
93 205
93 208
93 210
93 217
93 218
93 221
93 222
93 223
93 224
93 225
93 226
93 232
93 235
93 237
93 240
93 241
93 243
93 245
93 246
93 247
93 248
93 249
93 250
93 251
93 252
93 253
93 254
93 256
93 257
93 258
93 259
93 261
93 263
93 266
93 267
93 271
93 272
93 273
93 274
93 277
93 279
93 280
93 281
93 282
93 283
93 284
93 285
93 286
93 287
93 288
93 289
93 291
93 292
93 293
93 294
93 295
93 298
93 299
93 304
93 308
93 309
93 312
93 313
93 314
93 315
93 316
93 317
93 318
93 319
93 320
93 321
93 323
93 324
93 325
93 326
93 327
93 328
93 329
93 330
93 331
93 332
93 333
93 334
93 335
93 336
93 337
93 338
93 339
93 341
93 342
93 343
93 344
93 345
93 346
93 347
93 348
93 349
93 350
93 351
93 352
93 353
93 354
93 355
93 356
93 357
93 358
93 359
93 361
93 362
93 363
93 364
93 365
93 368
93 372
93 373
93 374
93 375
93 381
93 383
93 387
93 389
93 392
93 393
93 395
93 398
93 400
93 405
93 406
93 411
93 412
93 413
93 414
93 416
93 417
93 418
93 419
93 420
93 421
93 422
93 423
93 424
93 425
93 426
93 427
93 428
93 429
93 430
93 431
93 432
93 434
93 435
93 436
93 437
93 438
93 439
93 440
93 441
93 442
93 443
93 444
93 445
93 447
93 448
93 449
93 450
93 451
93 452
93 453
93 454
93 455
93 456
93 459
93 463
93 464
93 466
93 467
93 469
93 471
93 477
93 478
93 479
93 480
93 481
93 488
93 489
93 490
93 491
93 492
93 493
93 494
93 495
93 496
93 497
93 499
93 500
93 501
93 502
93 503
93 504
93 505
93 506
93 507
93 508
93 509
93 511
93 512
93 513
93 514
93 515
93 516
93 517
93 519
93 521
93 523
93 524
93 528
93 530
93 534
93 538
93 539
93 540
93 543
93 548
93 550
93 552
93 555
93 556
93 557
93 559
93 563
93 564
93 566
93 569
93 570
93 571
93 572
93 573
93 577
94 95
94 96
94 97
94 98
94 99
94 100
94 101
94 102
94 104
94 107
94 109
94 110
94 112
94 113
94 114
94 117
94 118
94 119
94 120
94 121
94 122
94 123
94 125
94 126
94 127
94 128
94 129
94 130
94 131
94 132
94 133
94 134
94 135
94 136
94 137
94 138
94 139
94 140
94 141
94 142
94 144
94 145
94 146
94 147
94 148
94 149
94 153
94 154
94 158
94 159
94 162
94 164
94 165
94 166
94 167
94 168
94 169
94 170
94 171
94 172
94 173
94 174
94 176
94 177
94 178
94 179
94 180
94 186
94 187
94 191
94 192
94 193
94 198
94 204
94 205
94 208
94 210
94 213
94 214
94 215
94 216
94 217
94 218
94 219
94 220
94 222
94 223
94 224
94 225
94 226
94 227
94 228
94 229
94 232
94 235
94 237
94 240
94 241
94 243
94 245
94 247
94 249
94 255
94 256
94 258
94 260
94 261
94 262
94 263
94 264
94 265
94 266
94 267
94 268
94 269
94 270
94 272
94 273
94 274
94 275
94 276
94 277
94 278
94 279
94 282
94 283
94 287
94 288
94 290
94 291
94 292
94 296
94 297
94 298
94 299
94 300
94 301
94 302
94 303
94 304
94 305
94 306
94 307
94 309
94 310
94 311
94 312
94 315
94 316
94 318
94 322
94 323
94 324
94 325
94 326
94 329
94 330
94 332
94 333
94 334
94 335
94 336
94 337
94 338
94 339
94 340
94 342
94 343
94 344
94 345
94 346
94 347
94 348
94 350
94 352
94 354
94 360
94 361
94 362
94 363
94 368
94 372
94 373
94 374
94 375
94 381
94 382
94 383
94 384
94 385
94 386
94 387
94 388
94 389
94 390
94 391
94 393
94 394
94 395
94 398
94 400
94 405
94 406
94 411
94 413
94 415
94 416
94 417
94 421
94 423
94 426
94 427
94 428
94 429
94 430
94 431
94 432
94 433
94 435
94 436
94 437
94 438
94 439
94 440
94 444
94 446
94 447
94 448
94 449
94 451
94 452
94 456
94 457
94 458
94 459
94 460
94 461
94 462
94 463
94 464
94 465
94 467
94 468
94 469
94 470
94 471
94 477
94 478
94 479
94 480
94 481
94 488
94 491
94 498
94 499
94 500
94 503
94 505
94 507
94 510
94 511
94 516
94 518
94 519
94 520
94 521
94 522
94 524
94 525
94 526
94 527
94 528
94 529
94 530
94 531
94 532
94 533
94 534
94 535
94 536
94 537
94 539
94 540
94 541
94 542
94 543
94 544
94 545
94 546
94 547
94 548
94 549
94 550
94 551
94 552
94 553
94 554
94 556
94 557
94 558
94 559
94 560
94 561
94 562
94 563
94 564
94 565
94 566
94 567
94 568
94 570
94 571
94 572
94 573
94 574
94 575
94 576
94 577
94 578
94 579
95 96
95 97
95 98
95 99
95 100
95 101
95 102
95 104
95 107
95 109
95 110
95 112
95 113
95 114
95 117
95 118
95 119
95 120
95 121
95 122
95 123
95 124
95 126
95 127
95 128
95 129
95 130
95 131
95 132
95 133
95 134
95 137
95 143
95 144
95 145
95 147
95 149
95 153
95 154
95 158
95 159
95 162
95 164
95 167
95 169
95 175
95 176
95 177
95 179
95 181
95 182
95 183
95 184
95 185
95 186
95 187
95 188
95 189
95 190
95 192
95 193
95 194
95 195
95 196
95 197
95 198
95 199
95 200
95 201
95 202
95 203
95 205
95 206
95 207
95 208
95 209
95 210
95 211
95 212
95 213
95 214
95 215
95 216
95 217
95 218
95 219
95 220
95 221
95 223
95 224
95 225
95 226
95 227
95 228
95 229
95 230
95 231
95 232
95 233
95 234
95 235
95 236
95 237
95 238
95 239
95 241
95 242
95 243
95 244
95 245
95 247
95 249
95 255
95 256
95 258
95 260
95 261
95 262
95 263
95 264
95 265
95 266
95 267
95 268
95 269
95 270
95 271
95 273
95 274
95 275
95 276
95 277
95 278
95 279
95 280
95 281
95 282
95 283
95 284
95 285
95 286
95 287
95 288
95 289
95 290
95 292
95 293
95 294
95 295
95 298
95 299
95 304
95 308
95 309
95 312
95 313
95 314
95 315
95 316
95 317
95 318
95 319
95 320
95 321
95 322
95 324
95 325
95 326
95 327
95 328
95 329
95 330
95 331
95 332
95 333
95 334
95 335
95 336
95 337
95 338
95 339
95 340
95 341
95 343
95 344
95 345
95 346
95 347
95 348
95 349
95 350
95 351
95 352
95 353
95 354
95 355
95 356
95 357
95 358
95 359
95 360
95 362
95 363
95 364
95 365
95 368
95 372
95 373
95 374
95 375
95 381
95 383
95 387
95 389
95 392
95 393
95 395
95 396
95 397
95 398
95 399
95 400
95 401
95 402
95 403
95 404
95 406
95 407
95 408
95 409
95 410
95 411
95 412
95 413
95 414
95 415
95 417
95 418
95 419
95 420
95 421
95 422
95 423
95 424
95 425
95 426
95 427
95 428
95 429
95 430
95 431
95 432
95 433
95 434
95 436
95 437
95 438
95 439
95 440
95 441
95 442
95 443
95 444
95 445
95 446
95 448
95 449
95 450
95 451
95 452
95 453
95 454
95 455
95 456
95 459
95 463
95 464
95 466
95 467
95 469
95 471
95 472
95 473
95 474
95 475
95 476
95 478
95 479
95 480
95 481
95 482
95 483
95 484
95 485
95 486
95 487
95 488
95 491
95 498
95 499
95 500
95 503
95 505
95 507
95 510
95 511
95 516
95 519
95 521
95 523
95 524
95 528
95 530
95 534
95 538
95 539
95 540
95 543
95 548
95 550
95 552
95 555
95 556
95 557
95 559
95 563
95 564
95 565
95 566
95 567
95 568
95 569
95 571
95 572
95 573
95 574
95 575
95 576
95 577
95 578
95 579
96 97
96 98
96 99
96 100
96 101
96 102
96 103
96 104
96 105
96 106
96 107
96 108
96 109
96 110
96 111
96 112
96 114
96 115
96 116
96 118
96 120
96 123
96 124
96 125
96 126
96 127
96 132
96 134
96 137
96 143
96 144
96 145
96 147
96 149
96 150
96 151
96 152
96 153
96 154
96 155
96 156
96 157
96 159
96 160
96 161
96 162
96 163
96 164
96 165
96 166
96 167
96 168
96 169
96 170
96 171
96 172
96 173
96 174
96 175
96 177
96 178
96 179
96 180
96 181
96 182
96 183
96 184
96 185
96 186
96 187
96 188
96 189
96 190
96 191
96 193
96 194
96 195
96 196
96 197
96 198
96 204
96 205
96 208
96 210
96 213
96 214
96 215
96 216
96 217
96 218
96 219
96 220
96 221
96 222
96 224
96 225
96 226
96 227
96 228
96 229
96 232
96 235
96 237
96 240
96 241
96 243
96 245
96 247
96 249
96 255
96 256
96 258
96 260
96 261
96 262
96 263
96 264
96 265
96 266
96 267
96 268
96 269
96 270
96 271
96 272
96 274
96 275
96 276
96 277
96 278
96 279
96 282
96 283
96 287
96 288
96 290
96 291
96 292
96 296
96 297
96 298
96 299
96 300
96 301
96 302
96 303
96 304
96 305
96 306
96 307
96 308
96 310
96 311
96 312
96 313
96 314
96 315
96 316
96 317
96 318
96 319
96 320
96 321
96 322
96 323
96 325
96 326
96 327
96 328
96 329
96 330
96 331
96 334
96 340
96 341
96 342
96 343
96 347
96 350
96 352
96 354
96 360
96 361
96 362
96 363
96 366
96 367
96 368
96 369
96 370
96 371
96 373
96 374
96 375
96 376
96 377
96 378
96 379
96 380
96 381
96 383
96 387
96 389
96 392
96 393
96 395
96 398
96 400
96 405
96 406
96 411
96 413
96 415
96 416
96 417
96 421
96 423
96 426
96 427
96 428
96 429
96 430
96 431
96 432
96 433
96 434
96 435
96 437
96 438
96 439
96 440
96 444
96 446
96 447
96 448
96 449
96 451
96 452
96 456
96 459
96 463
96 464
96 466
96 467
96 469
96 471
96 472
96 473
96 474
96 475
96 476
96 477
96 479
96 480
96 481
96 482
96 483
96 484
96 485
96 486
96 487
96 488
96 489
96 490
96 491
96 492
96 493
96 494
96 495
96 496
96 497
96 498
96 500
96 501
96 502
96 503
96 505
96 507
96 510
96 511
96 516
96 518
96 519
96 520
96 521
96 522
96 523
96 525
96 526
96 527
96 528
96 529
96 530
96 531
96 532
96 533
96 534
96 535
96 536
96 537
96 538
96 540
96 541
96 542
96 543
96 544
96 545
96 546
96 547
96 548
96 550
96 552
96 555
96 556
96 557
96 559
96 563
96 564
96 565
96 566
96 567
96 568
96 569
96 570
96 572
96 573
96 574
96 575
96 576
96 577
96 578
96 579
97 98
97 99
97 100
97 101
97 102
97 104
97 107
97 109
97 110
97 112
97 113
97 114
97 118
97 120
97 123
97 124
97 125
97 126
97 127
97 132
97 134
97 135
97 136
97 137
97 138
97 139
97 140
97 141
97 142
97 143
97 145
97 146
97 147
97 148
97 149
97 150
97 151
97 152
97 153
97 154
97 155
97 156
97 157
97 158
97 160
97 161
97 162
97 163
97 164
97 167
97 169
97 175
97 176
97 177
97 179
97 181
97 182
97 183
97 184
97 185
97 186
97 187
97 188
97 189
97 190
97 191
97 192
97 194
97 195
97 196
97 197
97 198
97 199
97 200
97 201
97 202
97 203
97 204
97 206
97 207
97 208
97 209
97 210
97 211
97 212
97 213
97 214
97 215
97 216
97 217
97 218
97 219
97 220
97 221
97 222
97 223
97 225
97 226
97 227
97 228
97 229
97 232
97 235
97 237
97 240
97 241
97 243
97 245
97 247
97 249
97 255
97 256
97 258
97 261
97 263
97 266
97 267
97 271
97 272
97 273
97 274
97 277
97 279
97 282
97 283
97 287
97 288
97 290
97 291
97 292
97 298
97 299
97 304
97 308
97 309
97 312
97 313
97 314
97 315
97 316
97 317
97 318
97 319
97 320
97 321
97 322
97 323
97 324
97 326
97 327
97 328
97 329
97 330
97 331
97 332
97 333
97 334
97 335
97 336
97 337
97 338
97 339
97 340
97 341
97 342
97 344
97 345
97 346
97 347
97 348
97 349
97 350
97 351
97 352
97 353
97 354
97 355
97 356
97 357
97 358
97 359
97 360
97 361
97 363
97 364
97 365
97 366
97 367
97 368
97 369
97 370
97 371
97 372
97 374
97 375
97 376
97 377
97 378
97 379
97 380
97 381
97 382
97 383
97 384
97 385
97 386
97 387
97 388
97 389
97 390
97 391
97 392
97 394
97 395
97 396
97 397
97 398
97 399
97 400
97 401
97 402
97 403
97 404
97 405
97 407
97 408
97 409
97 410
97 411
97 412
97 413
97 414
97 415
97 416
97 418
97 419
97 420
97 421
97 422
97 423
97 424
97 425
97 433
97 434
97 435
97 436
97 444
97 446
97 447
97 448
97 449
97 451
97 452
97 456
97 459
97 463
97 464
97 466
97 467
97 469
97 471
97 472
97 473
97 474
97 475
97 476
97 477
97 478
97 480
97 481
97 482
97 483
97 484
97 485
97 486
97 487
97 488
97 491
97 498
97 499
97 500
97 503
97 505
97 507
97 510
97 511
97 516
97 519
97 521
97 523
97 524
97 528
97 530
97 534
97 538
97 539
97 540
97 543
97 548
97 550
97 552
97 555
97 556
97 557
97 559
97 563
97 564
97 566
97 569
97 570
97 571
97 572
97 573
97 577
98 99
98 100
98 101
98 102
98 104
98 107
98 109
98 110
98 112
98 113
98 114
98 117
98 118
98 119
98 120
98 121
98 122
98 123
98 124
98 125
98 127
98 128
98 129
98 130
98 131
98 132
98 133
98 134
98 137
98 143
98 144
98 145
98 147
98 149
98 153
98 154
98 158
98 159
98 162
98 164
98 167
98 169
98 175
98 176
98 177
98 179
98 186
98 187
98 191
98 192
98 193
98 198
98 204
98 205
98 208
98 210
98 213
98 214
98 215
98 216
98 217
98 218
98 219
98 220
98 221
98 222
98 223
98 224
98 226
98 227
98 228
98 229
98 230
98 231
98 232
98 233
98 234
98 235
98 236
98 237
98 238
98 239
98 240
98 242
98 243
98 244
98 245
98 246
98 247
98 248
98 249
98 250
98 251
98 252
98 253
98 254
98 255
98 257
98 258
98 259
98 261
98 263
98 266
98 267
98 271
98 272
98 273
98 274
98 277
98 279
98 282
98 283
98 287
98 288
98 290
98 291
98 292
98 298
98 299
98 304
98 308
98 309
98 312
98 315
98 316
98 318
98 322
98 323
98 324
98 325
98 326
98 329
98 330
98 334
98 340
98 341
98 342
98 343
98 347
98 349
98 350
98 351
98 352
98 353
98 354
98 355
98 356
98 357
98 358
98 359
98 360
98 361
98 362
98 364
98 365
98 366
98 367
98 368
98 369
98 370
98 371
98 372
98 373
98 375
98 376
98 377
98 378
98 379
98 380
98 381
98 383
98 387
98 389
98 392
98 393
98 395
98 398
98 400
98 405
98 406
98 411
98 413
98 415
98 416
98 417
98 421
98 423
98 433
98 434
98 435
98 436
98 441
98 442
98 443
98 444
98 445
98 446
98 447
98 449
98 450
98 451
98 452
98 453
98 454
98 455
98 456
98 457
98 458
98 459
98 460
98 461
98 462
98 463
98 464
98 465
98 466
98 468
98 469
98 470
98 471
98 472
98 473
98 474
98 475
98 476
98 477
98 478
98 479
98 481
98 482
98 483
98 484
98 485
98 486
98 487
98 488
98 489
98 490
98 491
98 492
98 493
98 494
98 495
98 496
98 497
98 498
98 499
98 501
98 502
98 503
98 505
98 507
98 510
98 511
98 516
98 519
98 521
98 523
98 524
98 528
98 530
98 534
98 538
98 539
98 540
98 543
98 548
98 549
98 550
98 551
98 552
98 553
98 554
98 555
98 557
98 558
98 559
98 560
98 561
98 562
98 563
98 564
98 565
98 566
98 567
98 568
98 569
98 570
98 571
98 573
98 574
98 575
98 576
98 577
98 578
98 579
99 100
99 101
99 102
99 103
99 104
99 105
99 106
99 107
99 108
99 109
99 110
99 111
99 112
99 113
99 115
99 116
99 117
99 118
99 119
99 120
99 121
99 122
99 123
99 124
99 125
99 126
99 128
99 129
99 130
99 131
99 132
99 133
99 134
99 135
99 136
99 137
99 138
99 139
99 140
99 141
99 142
99 143
99 144
99 146
99 147
99 148
99 149
99 153
99 154
99 158
99 159
99 162
99 164
99 165
99 166
99 167
99 168
99 169
99 170
99 171
99 172
99 173
99 174
99 175
99 176
99 178
99 179
99 180
99 186
99 187
99 191
99 192
99 193
99 198
99 204
99 205
99 208
99 210
99 213
99 214
99 215
99 216
99 217
99 218
99 219
99 220
99 221
99 222
99 223
99 224
99 225
99 227
99 228
99 229
99 232
99 235
99 237
99 240
99 241
99 243
99 245
99 247
99 249
99 255
99 256
99 258
99 260
99 261
99 262
99 263
99 264
99 265
99 266
99 267
99 268
99 269
99 270
99 271
99 272
99 273
99 275
99 276
99 277
99 278
99 279
99 280
99 281
99 282
99 283
99 284
99 285
99 286
99 287
99 288
99 289
99 290
99 291
99 293
99 294
99 295
99 298
99 299
99 304
99 308
99 309
99 312
99 313
99 314
99 315
99 316
99 317
99 318
99 319
99 320
99 321
99 322
99 323
99 324
99 325
99 327
99 328
99 329
99 330
99 331
99 334
99 340
99 341
99 342
99 343
99 347
99 350
99 352
99 354
99 360
99 361
99 362
99 363
99 366
99 367
99 368
99 369
99 370
99 371
99 372
99 373
99 374
99 376
99 377
99 378
99 379
99 380
99 381
99 383
99 387
99 389
99 392
99 393
99 395
99 398
99 400
99 405
99 406
99 411
99 413
99 415
99 416
99 417
99 421
99 423
99 433
99 434
99 435
99 436
99 441
99 442
99 443
99 444
99 445
99 446
99 447
99 448
99 450
99 451
99 452
99 453
99 454
99 455
99 456
99 459
99 463
99 464
99 466
99 467
99 469
99 471
99 472
99 473
99 474
99 475
99 476
99 477
99 478
99 479
99 480
99 482
99 483
99 484
99 485
99 486
99 487
99 488
99 491
99 498
99 499
99 500
99 503
99 504
99 505
99 506
99 507
99 508
99 509
99 510
99 512
99 513
99 514
99 515
99 516
99 517
99 519
99 521
99 523
99 524
99 528
99 530
99 533
99 534
99 535
99 536
99 537
99 538
99 539
99 541
99 542
99 543
99 544
99 545
99 546
99 547
99 548
99 549
99 550
99 551
99 552
99 553
99 554
99 555
99 556
99 558
99 559
99 560
99 561
99 562
99 563
99 564
99 565
99 566
99 567
99 568
99 569
99 570
99 571
99 572
99 574
99 575
99 576
99 577
99 578
99 579
100 101
100 102
100 104
100 107
100 109
100 110
100 112
100 113
100 114
100 118
100 120
100 123
100 124
100 125
100 126
100 127
100 132
100 134
100 135
100 136
100 137
100 138
100 139
100 140
100 141
100 142
100 143
100 144
100 145
100 146
100 148
100 149
100 153
100 154
100 158
100 159
100 162
100 164
100 165
100 166
100 167
100 168
100 169
100 170
100 171
100 172
100 173
100 174
100 175
100 176
100 177
100 178
100 180
100 186
100 187
100 191
100 192
100 193
100 198
100 199
100 200
100 201
100 202
100 203
100 204
100 205
100 206
100 207
100 209
100 210
100 211
100 212
100 217
100 218
100 221
100 222
100 223
100 224
100 225
100 226
100 230
100 231
100 232
100 233
100 234
100 235
100 236
100 237
100 238
100 239
100 240
100 241
100 242
100 244
100 245
100 246
100 247
100 248
100 249
100 250
100 251
100 252
100 253
100 254
100 255
100 256
100 257
100 259
100 260
100 261
100 262
100 263
100 264
100 265
100 266
100 267
100 268
100 269
100 270
100 271
100 272
100 273
100 274
100 275
100 276
100 278
100 279
100 282
100 283
100 287
100 288
100 290
100 291
100 292
100 298
100 299
100 304
100 308
100 309
100 312
100 313
100 314
100 315
100 316
100 317
100 318
100 319
100 320
100 321
100 322
100 323
100 324
100 325
100 326
100 327
100 328
100 330
100 331
100 334
100 340
100 341
100 342
100 343
100 347
100 350
100 352
100 354
100 360
100 361
100 362
100 363
100 368
100 372
100 373
100 374
100 375
100 381
100 383
100 387
100 389
100 392
100 393
100 395
100 398
100 400
100 405
100 406
100 411
100 412
100 413
100 414
100 415
100 416
100 417
100 418
100 419
100 420
100 422
100 423
100 424
100 425
100 433
100 434
100 435
100 436
100 441
100 442
100 443
100 444
100 445
100 446
100 447
100 448
100 449
100 450
100 452
100 453
100 454
100 455
100 456
100 457
100 458
100 459
100 460
100 461
100 462
100 463
100 464
100 465
100 466
100 467
100 468
100 470
100 471
100 477
100 478
100 479
100 480
100 481
100 488
100 491
100 498
100 499
100 500
100 503
100 504
100 505
100 506
100 507
100 508
100 509
100 510
100 511
100 512
100 513
100 514
100 515
100 517
100 518
100 519
100 520
100 521
100 522
100 523
100 524
100 525
100 526
100 527
100 529
100 530
100 531
100 532
100 533
100 534
100 535
100 536
100 537
100 538
100 539
100 540
100 541
100 542
100 544
100 545
100 546
100 547
100 548
100 550
100 552
100 555
100 556
100 557
100 559
100 563
100 564
100 566
100 569
100 570
100 571
100 572
100 573
100 577
101 102
101 104
101 107
101 109
101 110
101 112
101 113
101 114
101 117
101 118
101 119
101 120
101 121
101 122
101 123
101 124
101 125
101 126
101 127
101 128
101 129
101 130
101 131
101 133
101 134
101 137
101 143
101 144
101 145
101 147
101 149
101 150
101 151
101 152
101 153
101 154
101 155
101 156
101 157
101 158
101 159
101 160
101 161
101 163
101 164
101 167
101 169
101 175
101 176
101 177
101 179
101 186
101 187
101 191
101 192
101 193
101 198
101 199
101 200
101 201
101 202
101 203
101 204
101 205
101 206
101 207
101 208
101 209
101 211
101 212
101 217
101 218
101 221
101 222
101 223
101 224
101 225
101 226
101 232
101 235
101 237
101 240
101 241
101 243
101 245
101 247
101 249
101 255
101 256
101 258
101 261
101 263
101 266
101 267
101 271
101 272
101 273
101 274
101 277
101 279
101 282
101 283
101 287
101 288
101 290
101 291
101 292
101 296
101 297
101 298
101 299
101 300
101 301
101 302
101 303
101 304
101 305
101 306
101 307
101 308
101 309
101 310
101 311
101 313
101 314
101 315
101 316
101 317
101 318
101 319
101 320
101 321
101 322
101 323
101 324
101 325
101 326
101 327
101 328
101 329
101 331
101 332
101 333
101 334
101 335
101 336
101 337
101 338
101 339
101 340
101 341
101 342
101 343
101 344
101 345
101 346
101 348
101 350
101 352
101 354
101 360
101 361
101 362
101 363
101 368
101 372
101 373
101 374
101 375
101 381
101 382
101 383
101 384
101 385
101 386
101 387
101 388
101 389
101 390
101 391
101 392
101 393
101 394
101 398
101 400
101 405
101 406
101 411
101 412
101 413
101 414
101 415
101 416
101 417
101 418
101 419
101 420
101 421
101 422
101 424
101 425
101 433
101 434
101 435
101 436
101 441
101 442
101 443
101 444
101 445
101 446
101 447
101 448
101 449
101 450
101 451
101 453
101 454
101 455
101 456
101 459
101 463
101 464
101 466
101 467
101 469
101 471
101 477
101 478
101 479
101 480
101 481
101 488
101 491
101 498
101 499
101 500
101 503
101 505
101 507
101 510
101 511
101 516
101 518
101 519
101 520
101 521
101 522
101 523
101 524
101 525
101 526
101 527
101 528
101 529
101 531
101 532
101 534
101 538
101 539
101 540
101 543
101 548
101 549
101 550
101 551
101 552
101 553
101 554
101 555
101 556
101 557
101 558
101 560
101 561
101 562
101 563
101 564
101 565
101 566
101 567
101 568
101 569
101 570
101 571
101 572
101 573
101 574
101 575
101 576
101 578
101 579
102 103
102 104
102 105
102 106
102 107
102 108
102 109
102 110
102 111
102 112
102 113
102 114
102 115
102 116
102 117
102 118
102 123
102 127
102 130
102 131
102 135
102 136
102 137
102 138
102 139
102 140
102 141
102 142
102 143
102 144
102 145
102 146
102 147
102 148
102 149
102 150
102 154
102 156
102 158
102 161
102 164
102 165
102 166
102 167
102 168
102 169
102 172
102 176
102 177
102 181
102 182
102 187
102 189
102 192
102 196
102 199
102 200
102 201
102 202
102 203
102 204
102 205
102 206
102 207
102 208
102 209
102 210
102 211
102 212
102 214
102 215
102 218
102 223
102 226
102 228
102 231
102 232
102 233
102 234
102 235
102 236
102 246
102 247
102 248
102 249
102 250
102 251
102 252
102 253
102 254
102 255
102 256
102 257
102 258
102 259
102 261
102 262
102 263
102 267
102 273
102 274
102 276
102 280
102 281
102 282
102 283
102 284
102 285
102 286
102 287
102 288
102 289
102 290
102 291
102 292
102 293
102 294
102 295
102 297
102 298
102 299
102 300
102 304
102 306
102 309
102 311
102 313
102 314
102 315
102 316
102 318
102 320
102 322
102 324
102 326
102 333
102 334
102 336
102 340
102 346
102 349
102 350
102 351
102 352
102 353
102 354
102 358
102 360
102 367
102 368
102 370
102 372
102 375
102 382
102 383
102 384
102 385
102 386
102 387
102 388
102 389
102 390
102 391
102 392
102 393
102 394
102 395
102 396
102 397
102 398
102 399
102 400
102 408
102 409
102 411
102 414
102 415
102 422
102 426
102 427
102 433
102 436
102 438
102 442
102 444
102 446
102 449
102 457
102 458
102 459
102 460
102 461
102 462
102 463
102 464
102 465
102 466
102 467
102 468
102 469
102 470
102 472
102 473
102 474
102 475
102 476
102 477
102 478
102 479
102 480
102 481
102 482
102 483
102 484
102 485
102 486
102 487
102 489
102 490
102 491
102 492
102 493
102 494
102 495
102 496
102 497
102 498
102 499
102 500
102 501
102 502
102 504
102 505
102 506
102 507
102 508
102 509
102 510
102 511
102 512
102 513
102 514
102 515
102 516
102 517
102 518
102 519
102 521
102 524
102 527
102 529
102 533
102 534
102 539
102 540
102 544
102 549
102 550
102 551
102 552
102 553
102 554
102 555
102 556
102 557
102 558
102 559
102 560
102 561
102 562
102 563
102 564
102 566
102 567
102 571
102 573
102 576
103 104
103 105
103 106
103 107
103 108
103 109
103 110
103 111
103 112
103 113
103 114
103 115
103 116
103 118
103 119
103 120
103 121
103 122
103 123
103 124
103 125
103 126
103 127
103 128
103 129
103 130
103 131
103 132
103 133
103 134
103 135
103 137
103 138
103 139
103 140
103 141
103 142
103 143
103 144
103 145
103 146
103 147
103 148
103 149
103 150
103 154
103 156
103 158
103 161
103 164
103 165
103 166
103 167
103 168
103 169
103 172
103 176
103 177
103 182
103 183
103 184
103 185
103 186
103 187
103 188
103 189
103 190
103 191
103 192
103 193
103 194
103 195
103 196
103 197
103 198
103 199
103 200
103 207
103 209
103 214
103 215
103 218
103 223
103 226
103 228
103 230
103 232
103 233
103 234
103 235
103 236
103 237
103 238
103 239
103 240
103 241
103 242
103 243
103 244
103 245
103 247
103 248
103 249
103 250
103 251
103 252
103 253
103 254
103 255
103 256
103 257
103 258
103 259
103 261
103 262
103 263
103 267
103 273
103 274
103 276
103 279
103 280
103 282
103 283
103 284
103 285
103 286
103 287
103 288
103 289
103 290
103 291
103 292
103 293
103 294
103 295
103 296
103 298
103 299
103 300
103 301
103 302
103 303
103 304
103 305
103 306
103 307
103 308
103 309
103 310
103 311
103 312
103 314
103 315
103 316
103 317
103 318
103 319
103 320
103 321
103 322
103 323
103 324
103 325
103 326
103 327
103 328
103 329
103 330
103 331
103 333
103 334
103 336
103 340
103 346
103 350
103 351
103 352
103 353
103 354
103 355
103 356
103 357
103 358
103 359
103 360
103 361
103 362
103 363
103 364
103 365
103 367
103 368
103 370
103 372
103 375
103 381
103 383
103 384
103 385
103 386
103 387
103 396
103 397
103 398
103 399
103 400
103 408
103 409
103 411
103 414
103 415
103 422
103 427
103 428
103 429
103 430
103 431
103 432
103 433
103 434
103 435
103 436
103 437
103 438
103 439
103 440
103 442
103 444
103 446
103 449
103 456
103 458
103 459
103 464
103 471
103 472
103 473
103 478
103 481
103 484
103 488
103 489
103 491
103 492
103 493
103 494
103 495
103 496
103 497
103 498
103 499
103 500
103 501
103 502
103 503
103 504
103 505
103 510
103 511
103 515
103 517
103 518
103 519
103 521
103 524
103 527
103 529
103 534
103 535
103 536
103 537
103 538
103 539
103 540
103 541
103 542
103 543
103 544
103 545
103 546
103 547
103 548
103 549
103 550
103 553
103 557
103 558
103 563
103 564
103 566
103 567
103 571
103 573
103 576
104 105
104 106
104 107
104 108
104 109
104 110
104 111
104 112
104 113
104 114
104 115
104 116
104 117
104 118
104 123
104 127
104 130
104 131
104 134
104 135
104 136
104 138
104 139
104 140
104 141
104 142
104 143
104 144
104 145
104 146
104 147
104 148
104 150
104 151
104 152
104 153
104 154
104 155
104 156
104 157
104 158
104 159
104 160
104 161
104 162
104 163
104 165
104 166
104 167
104 168
104 169
104 170
104 171
104 172
104 173
104 174
104 175
104 176
104 177
104 178
104 179
104 180
104 181
104 182
104 187
104 189
104 192
104 196
104 198
104 199
104 200
104 207
104 209
104 214
104 215
104 218
104 223
104 226
104 228
104 230
104 231
104 233
104 234
104 235
104 236
104 237
104 238
104 239
104 240
104 241
104 242
104 243
104 244
104 245
104 246
104 247
104 248
104 249
104 251
104 255
104 260
104 262
104 263
104 264
104 265
104 266
104 267
104 268
104 269
104 270
104 271
104 272
104 273
104 274
104 275
104 276
104 277
104 278
104 279
104 281
104 282
104 283
104 288
104 290
104 292
104 294
104 296
104 297
104 299
104 300
104 301
104 302
104 303
104 304
104 305
104 306
104 307
104 308
104 309
104 310
104 311
104 312
104 313
104 314
104 315
104 316
104 318
104 320
104 322
104 324
104 326
104 333
104 334
104 336
104 340
104 346
104 349
104 351
104 352
104 353
104 354
104 355
104 356
104 357
104 358
104 359
104 360
104 361
104 362
104 363
104 364
104 365
104 367
104 368
104 370
104 372
104 375
104 381
104 382
104 384
104 385
104 386
104 387
104 388
104 389
104 390
104 391
104 392
104 393
104 394
104 395
104 396
104 397
104 398
104 399
104 400
104 408
104 409
104 412
104 413
104 414
104 415
104 416
104 417
104 418
104 419
104 420
104 421
104 422
104 423
104 424
104 425
104 426
104 427
104 433
104 436
104 438
104 442
104 444
104 446
104 449
104 456
104 458
104 459
104 464
104 471
104 472
104 473
104 478
104 481
104 484
104 488
104 489
104 490
104 492
104 493
104 494
104 495
104 496
104 497
104 498
104 499
104 500
104 501
104 502
104 503
104 504
104 505
104 510
104 511
104 515
104 517
104 518
104 519
104 521
104 524
104 527
104 529
104 533
104 534
104 539
104 540
104 544
104 548
104 549
104 550
104 553
104 557
104 558
104 564
104 565
104 566
104 567
104 568
104 569
104 570
104 571
104 572
104 573
104 574
104 575
104 576
104 577
104 578
104 579
105 106
105 107
105 108
105 109
105 110
105 111
105 112
105 113
105 114
105 115
105 116
105 117
105 118
105 123
105 127
105 130
105 131
105 134
105 135
105 136
105 137
105 139
105 140
105 141
105 142
105 143
105 144
105 145
105 146
105 147
105 148
105 149
105 150
105 154
105 156
105 158
105 161
105 164
105 166
105 167
105 168
105 169
105 170
105 171
105 172
105 173
105 174
105 175
105 176
105 177
105 178
105 179
105 180
105 181
105 183
105 184
105 185
105 186
105 187
105 188
105 189
105 190
105 191
105 192
105 193
105 194
105 195
105 196
105 197
105 198
105 199
105 200
105 207
105 209
105 213
105 215
105 216
105 217
105 218
105 219
105 220
105 221
105 222
105 223
105 224
105 225
105 226
105 227
105 228
105 229
105 230
105 231
105 232
105 234
105 235
105 236
105 237
105 238
105 239
105 240
105 241
105 242
105 243
105 244
105 245
105 246
105 247
105 248
105 249
105 251
105 255
105 261
105 262
105 263
105 267
105 273
105 274
105 276
105 279
105 281
105 282
105 283
105 288
105 290
105 292
105 294
105 297
105 298
105 299
105 300
105 304
105 306
105 309
105 311
105 313
105 314
105 315
105 316
105 318
105 320
105 322
105 324
105 326
105 332
105 334
105 335
105 336
105 337
105 338
105 339
105 340
105 341
105 342
105 343
105 344
105 345
105 346
105 347
105 348
105 349
105 350
105 352
105 353
105 354
105 355
105 356
105 357
105 358
105 359
105 360
105 361
105 362
105 363
105 364
105 365
105 367
105 368
105 370
105 372
105 375
105 381
105 382
105 383
105 385
105 386
105 387
105 388
105 389
105 390
105 391
105 392
105 393
105 394
105 395
105 397
105 398
105 399
105 400
105 401
105 402
105 403
105 404
105 405
105 406
105 407
105 408
105 409
105 410
105 411
105 414
105 415
105 422
105 426
105 427
105 433
105 436
105 438
105 442
105 444
105 446
105 449
105 456
105 458
105 459
105 464
105 471
105 473
105 474
105 475
105 476
105 477
105 478
105 479
105 480
105 481
105 482
105 483
105 484
105 485
105 486
105 487
105 488
105 490
105 491
105 492
105 498
105 499
105 503
105 505
105 506
105 507
105 508
105 509
105 510
105 511
105 512
105 513
105 514
105 515
105 516
105 517
105 519
105 520
105 521
105 522
105 523
105 524
105 525
105 526
105 527
105 528
105 529
105 530
105 531
105 532
105 533
105 534
105 539
105 540
105 544
105 548
105 549
105 550
105 553
105 557
105 558
105 563
105 564
105 566
105 567
105 571
105 573
105 576
106 107
106 108
106 109
106 110
106 111
106 112
106 113
106 114
106 115
106 116
106 117
106 118
106 123
106 127
106 130
106 131
106 134
106 136
106 137
106 138
106 141
106 145
106 146
106 149
106 151
106 152
106 153
106 154
106 155
106 156
106 157
106 158
106 159
106 160
106 161
106 162
106 163
106 164
106 165
106 167
106 168
106 169
106 170
106 171
106 172
106 173
106 174
106 175
106 176
106 177
106 178
106 179
106 180
106 181
106 182
106 187
106 189
106 192
106 196
106 198
106 200
106 201
106 202
106 203
106 204
106 205
106 206
106 207
106 208
106 209
106 210
106 211
106 212
106 214
106 215
106 218
106 223
106 226
106 228
106 230
106 231
106 232
106 233
106 235
106 236
106 237
106 238
106 239
106 240
106 241
106 242
106 243
106 244
106 245
106 246
106 247
106 248
106 249
106 251
106 255
106 260
106 261
106 263
106 264
106 265
106 266
106 267
106 268
106 269
106 270
106 271
106 272
106 273
106 274
106 275
106 276
106 277
106 278
106 279
106 281
106 282
106 283
106 288
106 290
106 292
106 294
106 297
106 298
106 299
106 300
106 304
106 306
106 309
106 311
106 313
106 315
106 316
106 317
106 318
106 319
106 320
106 321
106 322
106 323
106 324
106 325
106 326
106 327
106 328
106 329
106 330
106 331
106 333
106 334
106 336
106 340
106 346
106 349
106 350
106 351
106 352
106 353
106 354
106 358
106 360
106 366
106 368
106 369
106 370
106 371
106 372
106 373
106 374
106 375
106 376
106 377
106 378
106 379
106 380
106 381
106 382
106 383
106 384
106 386
106 387
106 388
106 389
106 390
106 391
106 392
106 393
106 394
106 395
106 396
106 398
106 399
106 400
106 401
106 402
106 403
106 404
106 405
106 406
106 407
106 408
106 409
106 410
106 411
106 414
106 415
106 422
106 426
106 428
106 429
106 430
106 431
106 432
106 433
106 434
106 435
106 436
106 437
106 438
106 439
106 440
106 442
106 444
106 446
106 449
106 456
106 458
106 459
106 464
106 471
106 472
106 473
106 478
106 481
106 484
106 488
106 489
106 490
106 491
106 493
106 494
106 495
106 496
106 497
106 498
106 499
106 500
106 501
106 502
106 503
106 504
106 505
106 510
106 511
106 515
106 517
106 518
106 519
106 521
106 524
106 527
106 529
106 533
106 534
106 539
106 540
106 544
106 548
106 550
106 551
106 552
106 553
106 554
106 555
106 556
106 557
106 558
106 559
106 560
106 561
106 562
106 563
106 564
106 566
106 567
106 571
106 573
106 576
107 108
107 109
107 110
107 111
107 112
107 113
107 114
107 115
107 116
107 117
107 118
107 123
107 127
107 130
107 131
107 134
107 136
107 137
107 138
107 141
107 145
107 146
107 149
107 150
107 154
107 156
107 158
107 161
107 164
107 165
107 166
107 168
107 169
107 170
107 171
107 172
107 173
107 174
107 175
107 176
107 177
107 178
107 179
107 180
107 181
107 182
107 187
107 189
107 192
107 196
107 198
107 199
107 200
107 207
107 209
107 214
107 215
107 218
107 223
107 226
107 228
107 230
107 231
107 232
107 233
107 234
107 236
107 237
107 238
107 239
107 240
107 241
107 242
107 243
107 244
107 245
107 246
107 248
107 249
107 250
107 251
107 252
107 253
107 254
107 255
107 256
107 257
107 258
107 259
107 261
107 262
107 263
107 267
107 273
107 274
107 276
107 279
107 280
107 281
107 283
107 284
107 285
107 286
107 287
107 288
107 289
107 290
107 291
107 292
107 293
107 294
107 295
107 296
107 297
107 298
107 300
107 301
107 302
107 303
107 304
107 305
107 306
107 307
107 308
107 309
107 310
107 311
107 312
107 313
107 314
107 316
107 317
107 318
107 319
107 320
107 321
107 322
107 323
107 324
107 325
107 326
107 327
107 328
107 329
107 330
107 331
107 333
107 334
107 336
107 340
107 346
107 349
107 350
107 351
107 353
107 354
107 355
107 356
107 357
107 358
107 359
107 360
107 361
107 362
107 363
107 364
107 365
107 367
107 368
107 370
107 372
107 375
107 381
107 383
107 384
107 385
107 386
107 387
107 396
107 397
107 399
107 400
107 401
107 402
107 403
107 404
107 405
107 406
107 407
107 408
107 409
107 410
107 411
107 414
107 415
107 422
107 426
107 427
107 433
107 436
107 438
107 442
107 444
107 446
107 449
107 456
107 458
107 459
107 464
107 471
107 472
107 473
107 478
107 481
107 484
107 488
107 490
107 491
107 492
107 498
107 499
107 503
107 504
107 506
107 507
107 508
107 509
107 510
107 511
107 512
107 513
107 514
107 515
107 516
107 517
107 518
107 520
107 521
107 522
107 523
107 524
107 525
107 526
107 527
107 528
107 529
107 530
107 531
107 532
107 533
107 534
107 539
107 540
107 544
107 548
107 549
107 551
107 552
107 553
107 554
107 555
107 556
107 557
107 558
107 559
107 560
107 561
107 562
107 563
107 565
107 566
107 567
107 568
107 569
107 570
107 571
107 572
107 573
107 574
107 575
107 576
107 577
107 578
107 579
108 109
108 110
108 111
108 112
108 113
108 114
108 115
108 116
108 117
108 118
108 123
108 127
108 130
108 131
108 134
108 136
108 137
108 138
108 141
108 145
108 146
108 149
108 150
108 154
108 156
108 158
108 161
108 164
108 165
108 166
108 167
108 169
108 170
108 171
108 172
108 173
108 174
108 175
108 176
108 177
108 178
108 179
108 180
108 181
108 182
108 187
108 189
108 192
108 196
108 198
108 199
108 201
108 202
108 203
108 204
108 205
108 206
108 207
108 208
108 209
108 210
108 211
108 212
108 213
108 214
108 216
108 217
108 218
108 219
108 220
108 221
108 222
108 223
108 224
108 225
108 226
108 227
108 228
108 229
108 230
108 231
108 232
108 233
108 234
108 235
108 237
108 238
108 239
108 240
108 241
108 242
108 243
108 244
108 245
108 246
108 247
108 249
108 250
108 251
108 252
108 253
108 254
108 255
108 256
108 257
108 258
108 259
108 261
108 262
108 263
108 267
108 273
108 274
108 276
108 279
108 281
108 282
108 283
108 288
108 290
108 292
108 294
108 296
108 297
108 298
108 299
108 301
108 302
108 303
108 304
108 305
108 306
108 307
108 308
108 309
108 310
108 311
108 312
108 313
108 314
108 315
108 316
108 318
108 320
108 322
108 324
108 326
108 333
108 334
108 336
108 340
108 346
108 349
108 350
108 351
108 352
108 354
108 355
108 356
108 357
108 358
108 359
108 360
108 361
108 362
108 363
108 364
108 365
108 367
108 368
108 370
108 372
108 375
108 381
108 382
108 383
108 384
108 385
108 387
108 388
108 389
108 390
108 391
108 392
108 393
108 394
108 395
108 396
108 397
108 398
108 400
108 401
108 402
108 403
108 404
108 405
108 406
108 407
108 408
108 409
108 410
108 411
108 414
108 415
108 422
108 426
108 427
108 433
108 436
108 438
108 441
108 443
108 444
108 445
108 446
108 447
108 448
108 449
108 450
108 451
108 452
108 453
108 454
108 455
108 456
108 457
108 459
108 460
108 461
108 462
108 463
108 464
108 465
108 466
108 467
108 468
108 469
108 470
108 471
108 472
108 474
108 475
108 476
108 477
108 478
108 479
108 480
108 481
108 482
108 483
108 484
108 485
108 486
108 487
108 488
108 490
108 491
108 492
108 498
108 499
108 503
108 504
108 505
108 510
108 511
108 515
108 517
108 518
108 519
108 521
108 524
108 527
108 529
108 533
108 534
108 539
108 540
108 544
108 548
108 549
108 550
108 553
108 557
108 558
108 563
108 564
108 566
108 567
108 571
108 573
108 576
109 110
109 111
109 112
109 113
109 114
109 115
109 116
109 117
109 119
109 120
109 121
109 122
109 123
109 124
109 125
109 126
109 127
109 128
109 129
109 130
109 131
109 132
109 133
109 134
109 136
109 137
109 138
109 141
109 145
109 146
109 149
109 150
109 154
109 156
109 158
109 161
109 164
109 165
109 166
109 167
109 168
109 170
109 171
109 172
109 173
109 174
109 175
109 176
109 177
109 178
109 179
109 180
109 181
109 182
109 187
109 189
109 192
109 196
109 198
109 199
109 200
109 207
109 209
109 214
109 215
109 218
109 223
109 226
109 228
109 231
109 232
109 233
109 234
109 235
109 236
109 245
109 246
109 247
109 248
109 249
109 251
109 255
109 260
109 261
109 262
109 264
109 265
109 266
109 267
109 268
109 269
109 270
109 271
109 272
109 273
109 274
109 275
109 276
109 277
109 278
109 279
109 280
109 281
109 282
109 284
109 285
109 286
109 287
109 288
109 289
109 290
109 291
109 292
109 293
109 294
109 295
109 297
109 298
109 299
109 300
109 304
109 306
109 309
109 311
109 313
109 314
109 315
109 317
109 318
109 319
109 320
109 321
109 322
109 323
109 324
109 325
109 326
109 327
109 328
109 329
109 330
109 331
109 332
109 333
109 335
109 336
109 337
109 338
109 339
109 340
109 341
109 342
109 343
109 344
109 345
109 346
109 347
109 348
109 349
109 350
109 351
109 352
109 353
109 355
109 356
109 357
109 358
109 359
109 360
109 361
109 362
109 363
109 364
109 365
109 366
109 367
109 369
109 370
109 371
109 372
109 373
109 374
109 375
109 376
109 377
109 378
109 379
109 380
109 381
109 382
109 383
109 384
109 385
109 386
109 388
109 389
109 390
109 391
109 392
109 393
109 394
109 395
109 396
109 397
109 398
109 399
109 401
109 402
109 403
109 404
109 405
109 406
109 407
109 408
109 409
109 410
109 411
109 414
109 415
109 422
109 426
109 427
109 433
109 436
109 438
109 442
109 444
109 446
109 449
109 456
109 457
109 458
109 460
109 461
109 462
109 463
109 464
109 465
109 466
109 467
109 468
109 469
109 470
109 471
109 472
109 473
109 478
109 481
109 484
109 488
109 490
109 491
109 492
109 498
109 499
109 503
109 504
109 505
109 510
109 511
109 515
109 517
109 518
109 519
109 521
109 524
109 527
109 529
109 533
109 535
109 536
109 537
109 538
109 539
109 540
109 541
109 542
109 543
109 544
109 545
109 546
109 547
109 548
109 549
109 550
109 553
109 557
109 558
109 563
109 564
109 566
109 567
109 571
109 573
109 576
110 111
110 112
110 113
110 114
110 115
110 116
110 117
110 118
110 123
110 127
110 130
110 131
110 134
110 136
110 137
110 138
110 141
110 145
110 146
110 149
110 150
110 151
110 152
110 153
110 155
110 156
110 157
110 158
110 159
110 160
110 161
110 162
110 163
110 164
110 165
110 166
110 167
110 168
110 169
110 172
110 176
110 177
110 181
110 182
110 183
110 184
110 185
110 186
110 188
110 189
110 190
110 191
110 192
110 193
110 194
110 195
110 196
110 197
110 198
110 199
110 200
110 207
110 209
110 213
110 214
110 215
110 216
110 217
110 219
110 220
110 221
110 222
110 223
110 224
110 225
110 226
110 227
110 228
110 229
110 231
110 232
110 233
110 234
110 235
110 236
110 245
110 246
110 247
110 248
110 250
110 251
110 252
110 253
110 254
110 255
110 256
110 257
110 258
110 259
110 260
110 261
110 262
110 263
110 264
110 265
110 266
110 268
110 269
110 270
110 271
110 272
110 273
110 274
110 275
110 276
110 277
110 278
110 279
110 280
110 281
110 282
110 283
110 284
110 285
110 286
110 287
110 289
110 290
110 291
110 292
110 293
110 294
110 295
110 296
110 297
110 298
110 299
110 300
110 301
110 302
110 303
110 305
110 306
110 307
110 308
110 309
110 310
110 311
110 312
110 313
110 314
110 315
110 316
110 317
110 319
110 320
110 321
110 322
110 323
110 324
110 325
110 326
110 327
110 328
110 329
110 330
110 331
110 333
110 334
110 336
110 340
110 346
110 349
110 350
110 351
110 352
110 353
110 354
110 358
110 360
110 367
110 368
110 370
110 372
110 375
110 381
110 383
110 384
110 385
110 386
110 387
110 396
110 397
110 398
110 399
110 400
110 408
110 409
110 411
110 414
110 415
110 422
110 426
110 427
110 433
110 436
110 438
110 441
110 442
110 443
110 445
110 446
110 447
110 448
110 449
110 450
110 451
110 452
110 453
110 454
110 455
110 456
110 457
110 458
110 459
110 460
110 461
110 462
110 463
110 465
110 466
110 467
110 468
110 469
110 470
110 471
110 472
110 473
110 478
110 481
110 484
110 488
110 490
110 491
110 492
110 498
110 499
110 503
110 504
110 505
110 510
110 511
110 515
110 517
110 518
110 519
110 520
110 522
110 523
110 524
110 525
110 526
110 527
110 528
110 529
110 530
110 531
110 532
110 533
110 534
110 539
110 540
110 544
110 548
110 549
110 550
110 553
110 557
110 558
110 563
110 564
110 565
110 567
110 568
110 569
110 570
110 571
110 572
110 573
110 574
110 575
110 576
110 577
110 578
110 579
111 112
111 113
111 114
111 115
111 116
111 117
111 118
111 123
111 127
111 130
111 131
111 134
111 135
111 136
111 137
111 138
111 139
111 140
111 142
111 143
111 144
111 145
111 146
111 147
111 148
111 149
111 150
111 151
111 152
111 153
111 154
111 155
111 157
111 158
111 159
111 160
111 161
111 162
111 163
111 164
111 165
111 166
111 167
111 168
111 169
111 170
111 171
111 173
111 174
111 175
111 176
111 177
111 178
111 179
111 180
111 181
111 182
111 183
111 184
111 185
111 186
111 187
111 188
111 190
111 191
111 192
111 193
111 194
111 195
111 196
111 197
111 198
111 199
111 200
111 207
111 209
111 214
111 215
111 218
111 223
111 226
111 228
111 231
111 232
111 233
111 234
111 235
111 236
111 245
111 246
111 247
111 248
111 249
111 250
111 252
111 253
111 254
111 255
111 256
111 257
111 258
111 259
111 261
111 262
111 263
111 267
111 273
111 274
111 276
111 279
111 281
111 282
111 283
111 288
111 290
111 292
111 294
111 296
111 297
111 298
111 299
111 300
111 301
111 302
111 303
111 304
111 305
111 307
111 308
111 309
111 310
111 311
111 312
111 313
111 314
111 315
111 316
111 317
111 318
111 319
111 321
111 322
111 323
111 324
111 325
111 326
111 327
111 328
111 329
111 330
111 331
111 332
111 333
111 334
111 335
111 337
111 338
111 339
111 340
111 341
111 342
111 343
111 344
111 345
111 346
111 347
111 348
111 349
111 350
111 351
111 352
111 353
111 354
111 355
111 356
111 357
111 359
111 360
111 361
111 362
111 363
111 364
111 365
111 366
111 367
111 368
111 369
111 371
111 372
111 373
111 374
111 375
111 376
111 377
111 378
111 379
111 380
111 381
111 383
111 384
111 385
111 386
111 387
111 396
111 397
111 398
111 399
111 400
111 408
111 409
111 411
111 412
111 413
111 415
111 416
111 417
111 418
111 419
111 420
111 421
111 422
111 423
111 424
111 425
111 426
111 427
111 433
111 436
111 438
111 442
111 444
111 446
111 449
111 456
111 458
111 459
111 464
111 471
111 472
111 473
111 478
111 481
111 484
111 488
111 490
111 491
111 492
111 498
111 499
111 503
111 504
111 505
111 510
111 511
111 515
111 517
111 518
111 519
111 521
111 524
111 527
111 529
111 533
111 534
111 539
111 540
111 544
111 548
111 549
111 550
111 551
111 552
111 554
111 555
111 556
111 557
111 558
111 559
111 560
111 561
111 562
111 563
111 564
111 565
111 566
111 568
111 569
111 570
111 571
111 572
111 573
111 574
111 575
111 576
111 577
111 578
111 579
112 113
112 114
112 115
112 116
112 117
112 118
112 119
112 120
112 121
112 122
112 124
112 125
112 126
112 127
112 128
112 129
112 130
112 131
112 132
112 133
112 134
112 136
112 137
112 138
112 141
112 145
112 146
112 149
112 150
112 154
112 156
112 158
112 161
112 164
112 165
112 166
112 167
112 168
112 169
112 172
112 176
112 177
112 181
112 182
112 187
112 189
112 192
112 196
112 198
112 199
112 200
112 207
112 209
112 214
112 215
112 218
112 223
112 226
112 228
112 231
112 232
112 233
112 234
112 235
112 236
112 245
112 246
112 247
112 248
112 249
112 250
112 251
112 252
112 253
112 254
112 256
112 257
112 258
112 259
112 261
112 262
112 263
112 267
112 273
112 274
112 276
112 279
112 280
112 281
112 282
112 283
112 284
112 285
112 286
112 287
112 288
112 289
112 291
112 292
112 293
112 294
112 295
112 297
112 298
112 299
112 300
112 304
112 306
112 309
112 311
112 313
112 314
112 315
112 316
112 317
112 318
112 319
112 320
112 321
112 323
112 324
112 325
112 326
112 327
112 328
112 329
112 330
112 331
112 332
112 333
112 334
112 335
112 336
112 337
112 338
112 339
112 341
112 342
112 343
112 344
112 345
112 346
112 347
112 348
112 349
112 350
112 351
112 352
112 353
112 354
112 355
112 356
112 357
112 358
112 359
112 361
112 362
112 363
112 364
112 365
112 367
112 368
112 370
112 372
112 375
112 381
112 383
112 384
112 385
112 386
112 387
112 396
112 397
112 398
112 399
112 400
112 408
112 409
112 411
112 412
112 413
112 414
112 416
112 417
112 418
112 419
112 420
112 421
112 422
112 423
112 424
112 425
112 426
112 427
112 428
112 429
112 430
112 431
112 432
112 434
112 435
112 436
112 437
112 438
112 439
112 440
112 441
112 442
112 443
112 444
112 445
112 447
112 448
112 449
112 450
112 451
112 452
112 453
112 454
112 455
112 456
112 458
112 459
112 464
112 471
112 472
112 473
112 478
112 481
112 484
112 488
112 489
112 490
112 491
112 492
112 493
112 494
112 495
112 496
112 497
112 499
112 500
112 501
112 502
112 503
112 504
112 505
112 506
112 507
112 508
112 509
112 511
112 512
112 513
112 514
112 515
112 516
112 517
112 518
112 519
112 521
112 524
112 527
112 529
112 533
112 534
112 539
112 540
112 544
112 548
112 549
112 550
112 553
112 557
112 558
112 563
112 564
112 566
112 567
112 571
112 573
112 576
113 114
113 115
113 116
113 117
113 118
113 123
113 127
113 130
113 131
113 134
113 136
113 137
113 138
113 141
113 145
113 146
113 149
113 150
113 151
113 152
113 153
113 154
113 155
113 156
113 157
113 159
113 160
113 161
113 162
113 163
113 164
113 165
113 166
113 167
113 168
113 169
113 170
113 171
113 172
113 173
113 174
113 175
113 177
113 178
113 179
113 180
113 181
113 182
113 183
113 184
113 185
113 186
113 187
113 188
113 189
113 190
113 191
113 193
113 194
113 195
113 196
113 197
113 198
113 199
113 200
113 207
113 209
113 213
113 214
113 215
113 216
113 217
113 218
113 219
113 220
113 221
113 222
113 224
113 225
113 226
113 227
113 228
113 229
113 231
113 232
113 233
113 234
113 235
113 236
113 245
113 246
113 247
113 248
113 249
113 251
113 255
113 260
113 261
113 262
113 263
113 264
113 265
113 266
113 267
113 268
113 269
113 270
113 271
113 272
113 274
113 275
113 276
113 277
113 278
113 279
113 281
113 282
113 283
113 288
113 290
113 292
113 294
113 296
113 297
113 298
113 299
113 300
113 301
113 302
113 303
113 304
113 305
113 306
113 307
113 308
113 310
113 311
113 312
113 313
113 314
113 315
113 316
113 317
113 318
113 319
113 320
113 321
113 322
113 323
113 325
113 326
113 327
113 328
113 329
113 330
113 331
113 333
113 334
113 336
113 340
113 346
113 349
113 350
113 351
113 352
113 353
113 354
113 358
113 360
113 366
113 367
113 368
113 369
113 370
113 371
113 373
113 374
113 375
113 376
113 377
113 378
113 379
113 380
113 381
113 383
113 384
113 385
113 386
113 387
113 396
113 397
113 398
113 399
113 400
113 408
113 409
113 411
113 414
113 415
113 422
113 426
113 427
113 428
113 429
113 430
113 431
113 432
113 433
113 434
113 435
113 437
113 438
113 439
113 440
113 442
113 444
113 446
113 449
113 456
113 458
113 459
113 464
113 471
113 472
113 473
113 474
113 475
113 476
113 477
113 479
113 480
113 481
113 482
113 483
113 484
113 485
113 486
113 487
113 488
113 489
113 490
113 491
113 492
113 493
113 494
113 495
113 496
113 497
113 498
113 500
113 501
113 502
113 503
113 504
113 505
113 510
113 511
113 515
113 517
113 518
113 519
113 520
113 521
113 522
113 523
113 525
113 526
113 527
113 528
113 529
113 530
113 531
113 532
113 533
113 534
113 535
113 536
113 537
113 538
113 540
113 541
113 542
113 543
113 544
113 545
113 546
113 547
113 548
113 549
113 550
113 553
113 557
113 558
113 563
113 564
113 565
113 566
113 567
113 568
113 569
113 570
113 572
113 573
113 574
113 575
113 576
113 577
113 578
113 579
114 115
114 116
114 117
114 118
114 119
114 120
114 121
114 122
114 123
114 124
114 125
114 126
114 128
114 129
114 130
114 131
114 132
114 133
114 134
114 135
114 136
114 137
114 138
114 139
114 140
114 141
114 142
114 143
114 144
114 146
114 147
114 148
114 149
114 150
114 154
114 156
114 158
114 161
114 164
114 165
114 166
114 167
114 168
114 169
114 170
114 171
114 172
114 173
114 174
114 175
114 176
114 178
114 179
114 180
114 181
114 182
114 187
114 189
114 192
114 196
114 198
114 199
114 200
114 207
114 209
114 213
114 214
114 215
114 216
114 217
114 218
114 219
114 220
114 221
114 222
114 223
114 224
114 225
114 227
114 228
114 229
114 231
114 232
114 233
114 234
114 235
114 236
114 245
114 246
114 247
114 248
114 249
114 251
114 255
114 260
114 261
114 262
114 263
114 264
114 265
114 266
114 267
114 268
114 269
114 270
114 271
114 272
114 273
114 275
114 276
114 277
114 278
114 279
114 280
114 281
114 282
114 283
114 284
114 285
114 286
114 287
114 288
114 289
114 290
114 291
114 293
114 294
114 295
114 297
114 298
114 299
114 300
114 304
114 306
114 309
114 311
114 313
114 314
114 315
114 316
114 317
114 318
114 319
114 320
114 321
114 322
114 323
114 324
114 325
114 327
114 328
114 329
114 330
114 331
114 333
114 334
114 336
114 340
114 346
114 349
114 350
114 351
114 352
114 353
114 354
114 358
114 360
114 366
114 367
114 368
114 369
114 370
114 371
114 372
114 373
114 374
114 376
114 377
114 378
114 379
114 380
114 381
114 383
114 384
114 385
114 386
114 387
114 396
114 397
114 398
114 399
114 400
114 408
114 409
114 411
114 414
114 415
114 422
114 426
114 427
114 433
114 436
114 438
114 441
114 442
114 443
114 444
114 445
114 446
114 447
114 448
114 450
114 451
114 452
114 453
114 454
114 455
114 456
114 458
114 459
114 464
114 471
114 472
114 473
114 474
114 475
114 476
114 477
114 478
114 479
114 480
114 482
114 483
114 484
114 485
114 486
114 487
114 488
114 490
114 491
114 492
114 498
114 499
114 503
114 504
114 505
114 506
114 507
114 508
114 509
114 510
114 512
114 513
114 514
114 515
114 516
114 517
114 518
114 519
114 521
114 524
114 527
114 529
114 533
114 534
114 535
114 536
114 537
114 538
114 539
114 541
114 542
114 543
114 544
114 545
114 546
114 547
114 548
114 549
114 550
114 551
114 552
114 553
114 554
114 555
114 556
114 558
114 559
114 560
114 561
114 562
114 563
114 564
114 565
114 566
114 567
114 568
114 569
114 570
114 571
114 572
114 574
114 575
114 576
114 577
114 578
114 579
115 116
115 117
115 118
115 119
115 120
115 121
115 122
115 123
115 124
115 125
115 126
115 127
115 128
115 129
115 131
115 132
115 133
115 134
115 135
115 136
115 137
115 138
115 139
115 140
115 141
115 142
115 143
115 144
115 145
115 147
115 148
115 149
115 150
115 151
115 152
115 153
115 154
115 155
115 156
115 157
115 158
115 159
115 160
115 162
115 163
115 164
115 165
115 166
115 167
115 168
115 169
115 172
115 176
115 177
115 181
115 182
115 187
115 189
115 192
115 196
115 198
115 199
115 200
115 201
115 202
115 203
115 204
115 205
115 206
115 208
115 209
115 210
115 211
115 212
115 214
115 215
115 218
115 223
115 226
115 228
115 231
115 232
115 233
115 234
115 235
115 236
115 245
115 246
115 247
115 248
115 249
115 251
115 255
115 260
115 261
115 262
115 263
115 264
115 265
115 266
115 267
115 268
115 269
115 270
115 271
115 272
115 273
115 274
115 275
115 277
115 278
115 279
115 281
115 282
115 283
115 288
115 290
115 292
115 294
115 296
115 297
115 298
115 299
115 300
115 301
115 302
115 303
115 304
115 305
115 306
115 307
115 308
115 309
115 310
115 312
115 313
115 314
115 315
115 316
115 318
115 320
115 322
115 324
115 326
115 332
115 333
115 334
115 335
115 336
115 337
115 338
115 339
115 340
115 341
115 342
115 343
115 344
115 345
115 347
115 348
115 349
115 350
115 351
115 352
115 353
115 354
115 358
115 360
115 367
115 368
115 370
115 372
115 375
115 381
115 383
115 384
115 385
115 386
115 387
115 396
115 397
115 398
115 399
115 400
115 401
115 402
115 403
115 404
115 405
115 406
115 407
115 409
115 410
115 411
115 414
115 415
115 422
115 426
115 427
115 428
115 429
115 430
115 431
115 432
115 433
115 434
115 435
115 436
115 437
115 439
115 440
115 442
115 444
115 446
115 449
115 456
115 458
115 459
115 464
115 471
115 472
115 473
115 474
115 475
115 476
115 477
115 478
115 479
115 480
115 481
115 482
115 483
115 485
115 486
115 487
115 488
115 490
115 491
115 492
115 498
115 499
115 503
115 504
115 505
115 506
115 507
115 508
115 509
115 510
115 511
115 512
115 513
115 514
115 516
115 517
115 518
115 519
115 520
115 521
115 522
115 523
115 524
115 525
115 526
115 528
115 529
115 530
115 531
115 532
115 533
115 534
115 539
115 540
115 544
115 548
115 549
115 550
115 553
115 557
115 558
115 563
115 564
115 565
115 566
115 567
115 568
115 569
115 570
115 571
115 572
115 573
115 574
115 575
115 577
115 578
115 579
116 117
116 118
116 119
116 120
116 121
116 122
116 123
116 124
116 125
116 126
116 127
116 128
116 129
116 130
116 132
116 133
116 134
116 136
116 137
116 138
116 141
116 145
116 146
116 149
116 150
116 154
116 156
116 158
116 161
116 164
116 165
116 166
116 167
116 168
116 169
116 172
116 176
116 177
116 181
116 182
116 183
116 184
116 185
116 186
116 187
116 188
116 189
116 190
116 191
116 192
116 193
116 194
116 195
116 197
116 198
116 199
116 200
116 201
116 202
116 203
116 204
116 205
116 206
116 207
116 208
116 210
116 211
116 212
116 213
116 214
116 215
116 216
116 217
116 218
116 219
116 220
116 221
116 222
116 223
116 224
116 225
116 226
116 227
116 229
116 231
116 232
116 233
116 234
116 235
116 236
116 245
116 246
116 247
116 248
116 249
116 251
116 255
116 261
116 262
116 263
116 267
116 273
116 274
116 276
116 279
116 280
116 281
116 282
116 283
116 284
116 285
116 286
116 287
116 288
116 289
116 290
116 291
116 292
116 293
116 295
116 297
116 298
116 299
116 300
116 304
116 306
116 309
116 311
116 313
116 314
116 315
116 316
116 318
116 320
116 322
116 324
116 326
116 333
116 334
116 336
116 340
116 346
116 349
116 350
116 351
116 352
116 353
116 354
116 358
116 360
116 367
116 368
116 370
116 372
116 375
116 381
116 383
116 384
116 385
116 386
116 387
116 396
116 397
116 398
116 399
116 400
116 401
116 402
116 403
116 404
116 405
116 406
116 407
116 408
116 410
116 411
116 412
116 413
116 414
116 415
116 416
116 417
116 418
116 419
116 420
116 421
116 423
116 424
116 425
116 426
116 427
116 433
116 436
116 438
116 442
116 444
116 446
116 449
116 456
116 458
116 459
116 464
116 471
116 472
116 473
116 478
116 481
116 484
116 488
116 490
116 491
116 492
116 498
116 499
116 503
116 504
116 505
116 506
116 507
116 508
116 509
116 510
116 511
116 512
116 513
116 514
116 515
116 516
116 518
116 519
116 520
116 521
116 522
116 523
116 524
116 525
116 526
116 527
116 528
116 530
116 531
116 532
116 533
116 534
116 535
116 536
116 537
116 538
116 539
116 540
116 541
116 542
116 543
116 545
116 546
116 547
116 548
116 549
116 550
116 551
116 552
116 553
116 554
116 555
116 556
116 557
116 559
116 560
116 561
116 562
116 563
116 564
116 566
116 567
116 571
116 573
116 576
117 118
117 119
117 120
117 121
117 122
117 123
117 124
117 125
117 126
117 127
117 128
117 129
117 130
117 131
117 132
117 133
117 134
117 135
117 137
117 138
117 139
117 140
117 141
117 142
117 143
117 144
117 145
117 146
117 147
117 148
117 152
117 153
117 155
117 157
117 160
117 161
117 162
117 169
117 171
117 173
117 175
117 177
117 178
117 182
117 183
117 184
117 185
117 186
117 187
117 188
117 189
117 190
117 191
117 192
117 193
117 194
117 195
117 196
117 197
117 201
117 202
117 204
117 206
117 207
117 209
117 210
117 211
117 217
117 219
117 221
117 222
117 225
117 226
117 228
117 229
117 230
117 232
117 233
117 234
117 235
117 236
117 237
117 238
117 239
117 240
117 241
117 242
117 243
117 244
117 245
117 247
117 248
117 249
117 250
117 251
117 252
117 253
117 254
117 255
117 256
117 257
117 258
117 259
117 263
117 266
117 268
117 269
117 271
117 272
117 274
117 275
117 276
117 278
117 279
117 280
117 282
117 283
117 284
117 285
117 286
117 287
117 288
117 289
117 290
117 291
117 292
117 293
117 294
117 295
117 296
117 298
117 299
117 300
117 301
117 302
117 303
117 304
117 305
117 306
117 307
117 308
117 309
117 310
117 311
117 312
117 314
117 315
117 316
117 317
117 318
117 319
117 320
117 321
117 322
117 323
117 324
117 325
117 326
117 327
117 328
117 329
117 330
117 331
117 334
117 337
117 340
117 341
117 342
117 344
117 345
117 346
117 347
117 350
117 351
117 352
117 353
117 354
117 355
117 356
117 357
117 358
117 359
117 360
117 361
117 362
117 363
117 364
117 365
117 368
117 369
117 374
117 375
117 377
117 378
117 387
117 389
117 390
117 391
117 392
117 395
117 400
117 403
117 405
117 408
117 409
117 413
117 415
117 416
117 419
117 420
117 422
117 423
117 427
117 428
117 429
117 430
117 431
117 432
117 433
117 434
117 435
117 436
117 437
117 438
117 439
117 440
117 443
117 445
117 446
117 447
117 448
117 449
117 452
117 453
117 459
117 462
117 463
117 466
117 467
117 468
117 475
117 476
117 477
117 480
117 481
117 483
117 484
117 485
117 488
117 489
117 491
117 492
117 493
117 494
117 495
117 496
117 497
117 498
117 499
117 500
117 501
117 502
117 507
117 508
117 510
117 511
117 513
117 514
117 515
117 517
117 522
117 523
117 525
117 526
117 527
117 529
117 530
117 531
117 534
117 535
117 536
117 537
117 538
117 539
117 540
117 541
117 542
117 543
117 544
117 545
117 546
117 547
117 552
117 555
117 556
117 557
117 558
117 559
117 560
117 569
117 570
117 572
117 573
117 575
117 576
117 577
117 578
118 119
118 120
118 121
118 122
118 123
118 124
118 125
118 126
118 127
118 128
118 129
118 130
118 131
118 132
118 133
118 136
118 140
118 143
118 145
118 146
118 152
118 153
118 155
118 157
118 160
118 161
118 162
118 164
118 165
118 166
118 167
118 168
118 170
118 171
118 172
118 173
118 174
118 175
118 176
118 177
118 178
118 179
118 180
118 181
118 185
118 186
118 188
118 191
118 195
118 196
118 201
118 202
118 204
118 206
118 207
118 209
118 210
118 211
118 217
118 219
118 221
118 222
118 225
118 226
118 228
118 229
118 231
118 237
118 238
118 240
118 241
118 242
118 246
118 250
118 252
118 255
118 256
118 259
118 260
118 261
118 262
118 264
118 265
118 266
118 267
118 268
118 269
118 270
118 271
118 272
118 273
118 274
118 275
118 276
118 277
118 278
118 279
118 280
118 281
118 282
118 284
118 285
118 286
118 287
118 288
118 289
118 290
118 291
118 292
118 293
118 294
118 295
118 297
118 303
118 305
118 308
118 311
118 312
118 313
118 314
118 315
118 317
118 318
118 319
118 320
118 321
118 322
118 323
118 324
118 325
118 326
118 327
118 328
118 329
118 330
118 331
118 332
118 333
118 335
118 336
118 337
118 338
118 339
118 340
118 341
118 342
118 343
118 344
118 345
118 346
118 347
118 348
118 349
118 350
118 351
118 352
118 353
118 355
118 356
118 357
118 358
118 359
118 360
118 361
118 362
118 363
118 364
118 365
118 366
118 367
118 369
118 370
118 371
118 372
118 373
118 374
118 375
118 376
118 377
118 378
118 379
118 380
118 381
118 382
118 383
118 384
118 385
118 386
118 388
118 389
118 390
118 391
118 392
118 393
118 394
118 395
118 396
118 397
118 398
118 399
118 401
118 402
118 403
118 404
118 405
118 406
118 407
118 408
118 409
118 410
118 413
118 415
118 416
118 419
118 420
118 422
118 423
118 426
118 429
118 430
118 433
118 434
118 435
118 437
118 438
118 439
118 443
118 445
118 446
118 447
118 448
118 449
118 452
118 453
118 456
118 457
118 458
118 460
118 461
118 462
118 463
118 464
118 465
118 466
118 467
118 468
118 469
118 470
118 475
118 476
118 477
118 480
118 481
118 483
118 484
118 485
118 490
118 495
118 496
118 497
118 498
118 500
118 501
118 507
118 508
118 510
118 511
118 513
118 514
118 515
118 517
118 522
118 523
118 525
118 526
118 527
118 529
118 530
118 531
118 533
118 535
118 536
118 537
118 538
118 539
118 540
118 541
118 542
118 543
118 544
118 545
118 546
118 547
118 552
118 555
118 556
118 557
118 558
118 559
118 560
118 569
118 570
118 572
118 573
118 575
118 576
118 577
118 578
119 120
119 121
119 122
119 123
119 124
119 125
119 126
119 127
119 128
119 129
119 130
119 131
119 132
119 133
119 134
119 135
119 136
119 137
119 138
119 139
119 141
119 142
119 143
119 144
119 145
119 146
119 147
119 148
119 149
119 150
119 151
119 153
119 154
119 155
119 156
119 157
119 158
119 159
119 160
119 161
119 162
119 163
119 164
119 165
119 166
119 167
119 168
119 169
119 170
119 172
119 173
119 174
119 175
119 176
119 177
119 178
119 179
119 180
119 181
119 182
119 183
119 184
119 186
119 187
119 188
119 189
119 190
119 191
119 192
119 193
119 194
119 195
119 196
119 197
119 198
119 199
119 200
119 202
119 203
119 204
119 205
119 206
119 207
119 208
119 209
119 210
119 211
119 212
119 217
119 219
119 221
119 222
119 225
119 226
119 228
119 229
119 231
119 237
119 238
119 240
119 241
119 242
119 246
119 250
119 252
119 255
119 256
119 259
119 263
119 266
119 268
119 269
119 271
119 272
119 274
119 275
119 276
119 278
119 279
119 280
119 281
119 282
119 283
119 284
119 285
119 287
119 288
119 289
119 290
119 291
119 292
119 293
119 294
119 295
119 296
119 297
119 298
119 299
119 300
119 301
119 302
119 304
119 305
119 306
119 307
119 308
119 309
119 310
119 311
119 312
119 313
119 316
119 319
119 322
119 323
119 326
119 328
119 330
119 334
119 337
119 340
119 341
119 342
119 344
119 345
119 346
119 347
119 349
119 350
119 351
119 352
119 353
119 354
119 355
119 357
119 358
119 359
119 360
119 361
119 362
119 363
119 364
119 365
119 366
119 367
119 368
119 370
119 371
119 372
119 373
119 374
119 375
119 376
119 377
119 378
119 379
119 380
119 387
119 389
119 390
119 391
119 392
119 395
119 400
119 403
119 405
119 408
119 409
119 413
119 415
119 416
119 419
119 420
119 422
119 423
119 426
119 427
119 428
119 430
119 431
119 432
119 433
119 434
119 435
119 436
119 437
119 438
119 439
119 440
119 441
119 442
119 444
119 445
119 446
119 447
119 448
119 449
119 450
119 451
119 452
119 453
119 454
119 455
119 456
119 457
119 458
119 459
119 460
119 461
119 463
119 464
119 465
119 466
119 467
119 468
119 469
119 470
119 475
119 476
119 477
119 480
119 481
119 483
119 484
119 485
119 488
119 489
119 490
119 491
119 492
119 493
119 494
119 496
119 497
119 498
119 499
119 500
119 501
119 502
119 507
119 508
119 510
119 511
119 513
119 514
119 515
119 517
119 522
119 523
119 525
119 526
119 527
119 529
119 530
119 531
119 533
119 534
119 535
119 538
119 540
119 542
119 544
119 545
119 552
119 555
119 556
119 557
119 558
119 559
119 560
119 569
119 570
119 572
119 573
119 575
119 576
119 577
119 578
120 121
120 122
120 123
120 124
120 125
120 126
120 127
120 128
120 129
120 130
120 131
120 132
120 133
120 136
120 140
120 143
120 145
120 146
120 149
120 150
120 151
120 152
120 154
120 155
120 156
120 157
120 158
120 159
120 160
120 161
120 162
120 163
120 169
120 171
120 173
120 175
120 177
120 178
120 181
120 182
120 183
120 184
120 185
120 187
120 188
120 189
120 190
120 191
120 192
120 193
120 194
120 195
120 196
120 197
120 201
120 202
120 204
120 206
120 207
120 209
120 210
120 211
120 213
120 214
120 215
120 216
120 218
120 219
120 220
120 221
120 222
120 223
120 224
120 225
120 226
120 227
120 228
120 229
120 230
120 231
120 232
120 233
120 234
120 235
120 236
120 238
120 239
120 240
120 241
120 242
120 243
120 244
120 246
120 250
120 252
120 255
120 256
120 259
120 260
120 261
120 262
120 263
120 264
120 265
120 267
120 268
120 269
120 270
120 271
120 272
120 273
120 274
120 275
120 276
120 277
120 278
120 279
120 280
120 281
120 282
120 283
120 284
120 285
120 286
120 288
120 289
120 290
120 291
120 292
120 293
120 294
120 295
120 297
120 303
120 305
120 308
120 311
120 312
120 313
120 316
120 319
120 322
120 323
120 326
120 328
120 330
120 334
120 337
120 340
120 341
120 342
120 344
120 345
120 346
120 347
120 349
120 354
120 356
120 357
120 359
120 360
120 361
120 363
120 364
120 365
120 368
120 369
120 374
120 375
120 377
120 378
120 381
120 382
120 383
120 384
120 385
120 386
120 387
120 388
120 390
120 391
120 392
120 393
120 394
120 395
120 400
120 403
120 405
120 408
120 409
120 411
120 412
120 414
120 415
120 416
120 417
120 418
120 419
120 420
120 421
120 422
120 423
120 424
120 425
120 426
120 429
120 430
120 433
120 434
120 435
120 437
120 438
120 439
120 443
120 445
120 446
120 447
120 448
120 449
120 452
120 453
120 456
120 457
120 458
120 459
120 460
120 461
120 462
120 464
120 465
120 466
120 467
120 468
120 469
120 470
120 475
120 476
120 477
120 480
120 481
120 483
120 484
120 485
120 490
120 495
120 496
120 497
120 498
120 500
120 501
120 503
120 504
120 505
120 506
120 508
120 509
120 510
120 511
120 512
120 513
120 514
120 515
120 516
120 517
120 522
120 523
120 525
120 526
120 527
120 529
120 530
120 531
120 533
120 534
120 535
120 538
120 540
120 542
120 544
120 545
120 548
120 549
120 550
120 551
120 553
120 554
120 555
120 556
120 557
120 558
120 559
120 560
120 561
120 562
120 569
120 570
120 572
120 573
120 575
120 576
120 577
120 578
121 122
121 123
121 124
121 125
121 126
121 127
121 128
121 129
121 130
121 131
121 132
121 133
121 136
121 140
121 143
121 145
121 146
121 149
121 150
121 151
121 152
121 153
121 154
121 156
121 157
121 158
121 159
121 160
121 161
121 162
121 163
121 169
121 171
121 173
121 175
121 177
121 178
121 181
121 182
121 183
121 184
121 185
121 186
121 187
121 189
121 190
121 191
121 192
121 193
121 194
121 195
121 196
121 197
121 198
121 199
121 200
121 201
121 203
121 204
121 205
121 206
121 207
121 208
121 209
121 210
121 211
121 212
121 213
121 214
121 215
121 216
121 217
121 218
121 220
121 221
121 222
121 223
121 224
121 225
121 226
121 227
121 228
121 229
121 230
121 231
121 232
121 233
121 234
121 235
121 236
121 237
121 239
121 240
121 241
121 242
121 243
121 244
121 245
121 246
121 247
121 248
121 249
121 251
121 252
121 253
121 254
121 255
121 256
121 257
121 258
121 259
121 260
121 261
121 262
121 263
121 264
121 265
121 266
121 267
121 269
121 270
121 271
121 272
121 273
121 274
121 275
121 276
121 277
121 278
121 279
121 280
121 281
121 282
121 283
121 284
121 285
121 286
121 287
121 288
121 290
121 291
121 292
121 293
121 294
121 295
121 296
121 297
121 298
121 299
121 300
121 301
121 302
121 303
121 304
121 306
121 307
121 308
121 309
121 310
121 311
121 312
121 313
121 314
121 315
121 316
121 317
121 318
121 320
121 321
121 322
121 323
121 324
121 325
121 326
121 327
121 328
121 329
121 330
121 331
121 334
121 337
121 340
121 341
121 342
121 344
121 345
121 346
121 347
121 349
121 350
121 351
121 352
121 353
121 354
121 355
121 356
121 358
121 359
121 360
121 361
121 362
121 363
121 364
121 365
121 368
121 369
121 374
121 375
121 377
121 378
121 381
121 382
121 383
121 384
121 385
121 386
121 387
121 388
121 389
121 391
121 392
121 393
121 394
121 395
121 400
121 403
121 405
121 408
121 409
121 413
121 415
121 416
121 419
121 420
121 422
121 423
121 426
121 429
121 430
121 433
121 434
121 435
121 437
121 438
121 439
121 443
121 445
121 446
121 447
121 448
121 449
121 452
121 453
121 459
121 462
121 463
121 466
121 467
121 468
121 471
121 472
121 473
121 474
121 476
121 477
121 478
121 479
121 480
121 481
121 482
121 483
121 484
121 485
121 486
121 487
121 488
121 489
121 490
121 491
121 492
121 493
121 494
121 495
121 497
121 498
121 499
121 500
121 501
121 502
121 503
121 504
121 505
121 506
121 507
121 509
121 510
121 511
121 512
121 513
121 514
121 515
121 516
121 517
121 522
121 523
121 525
121 526
121 527
121 529
121 530
121 531
121 533
121 534
121 536
121 537
121 538
121 539
121 540
121 541
121 542
121 543
121 544
121 545
121 546
121 547
121 552
121 555
121 556
121 557
121 558
121 559
121 560
121 569
121 570
121 572
121 573
121 575
121 576
121 577
121 578
122 123
122 124
122 125
122 126
122 127
122 128
122 129
122 130
122 131
122 132
122 133
122 136
122 140
122 143
122 145
122 146
122 149
122 150
122 151
122 152
122 153
122 154
122 155
122 156
122 158
122 159
122 160
122 161
122 162
122 163
122 164
122 165
122 166
122 167
122 168
122 169
122 170
122 171
122 172
122 174
122 175
122 176
122 177
122 178
122 179
122 180
122 181
122 185
122 186
122 188
122 191
122 195
122 196
122 201
122 202
122 204
122 206
122 207
122 209
122 210
122 211
122 217
122 219
122 221
122 222
122 225
122 226
122 228
122 229
122 231
122 237
122 238
122 240
122 241
122 242
122 245
122 246
122 247
122 248
122 249
122 250
122 251
122 253
122 254
122 255
122 256
122 257
122 258
122 259
122 260
122 261
122 262
122 263
122 264
122 265
122 266
122 267
122 268
122 270
122 271
122 272
122 273
122 274
122 275
122 276
122 277
122 278
122 281
122 283
122 286
122 287
122 289
122 290
122 291
122 292
122 293
122 294
122 297
122 303
122 305
122 308
122 311
122 312
122 313
122 316
122 319
122 322
122 323
122 326
122 328
122 330
122 332
122 333
122 334
122 335
122 336
122 338
122 339
122 340
122 341
122 342
122 343
122 344
122 345
122 346
122 347
122 348
122 349
122 350
122 351
122 352
122 353
122 354
122 355
122 356
122 357
122 358
122 360
122 361
122 362
122 363
122 364
122 365
122 368
122 369
122 374
122 375
122 377
122 378
122 381
122 382
122 383
122 384
122 385
122 386
122 387
122 388
122 389
122 390
122 392
122 393
122 394
122 395
122 396
122 397
122 398
122 399
122 400
122 401
122 402
122 404
122 405
122 406
122 407
122 408
122 409
122 410
122 413
122 415
122 416
122 419
122 420
122 422
122 423
122 426
122 427
122 428
122 429
122 431
122 432
122 433
122 434
122 435
122 436
122 437
122 438
122 439
122 440
122 441
122 442
122 443
122 444
122 446
122 447
122 448
122 449
122 450
122 451
122 452
122 453
122 454
122 455
122 459
122 462
122 463
122 466
122 467
122 468
122 471
122 472
122 473
122 474
122 475
122 477
122 478
122 479
122 480
122 481
122 482
122 483
122 484
122 485
122 486
122 487
122 488
122 489
122 490
122 491
122 492
122 493
122 494
122 495
122 496
122 498
122 499
122 500
122 501
122 502
122 507
122 508
122 510
122 511
122 513
122 514
122 515
122 517
122 518
122 519
122 520
122 521
122 523
122 524
122 525
122 526
122 527
122 528
122 529
122 530
122 531
122 532
122 533
122 534
122 535
122 538
122 540
122 542
122 544
122 545
122 552
122 555
122 556
122 557
122 558
122 559
122 560
122 569
122 570
122 572
122 573
122 575
122 576
122 577
122 578
123 124
123 125
123 126
123 127
123 128
123 129
123 130
123 131
123 132
123 133
123 136
123 140
123 143
123 145
123 146
123 152
123 153
123 155
123 157
123 160
123 161
123 162
123 169
123 171
123 173
123 175
123 177
123 178
123 181
123 185
123 186
123 188
123 191
123 195
123 196
123 201
123 202
123 204
123 206
123 207
123 209
123 210
123 211
123 217
123 219
123 221
123 222
123 225
123 226
123 228
123 229
123 231
123 237
123 238
123 240
123 241
123 242
123 245
123 246
123 247
123 248
123 249
123 250
123 251
123 252
123 253
123 254
123 256
123 257
123 258
123 259
123 263
123 266
123 268
123 269
123 271
123 272
123 274
123 275
123 276
123 278
123 279
123 280
123 281
123 282
123 283
123 284
123 285
123 286
123 287
123 288
123 289
123 291
123 292
123 293
123 294
123 295
123 297
123 303
123 305
123 308
123 311
123 312
123 313
123 314
123 315
123 316
123 317
123 318
123 319
123 320
123 321
123 323
123 324
123 325
123 326
123 327
123 328
123 329
123 330
123 331
123 332
123 333
123 334
123 335
123 336
123 337
123 338
123 339
123 341
123 342
123 343
123 344
123 345
123 346
123 347
123 348
123 349
123 350
123 351
123 352
123 353
123 354
123 355
123 356
123 357
123 358
123 359
123 361
123 362
123 363
123 364
123 365
123 368
123 369
123 374
123 375
123 377
123 378
123 387
123 389
123 390
123 391
123 392
123 395
123 400
123 403
123 405
123 408
123 409
123 411
123 412
123 413
123 414
123 416
123 417
123 418
123 419
123 420
123 421
123 422
123 423
123 424
123 425
123 426
123 427
123 428
123 429
123 430
123 431
123 432
123 434
123 435
123 436
123 437
123 438
123 439
123 440
123 441
123 442
123 443
123 444
123 445
123 447
123 448
123 449
123 450
123 451
123 452
123 453
123 454
123 455
123 459
123 462
123 463
123 466
123 467
123 468
123 475
123 476
123 477
123 480
123 481
123 483
123 484
123 485
123 488
123 489
123 490
123 491
123 492
123 493
123 494
123 495
123 496
123 497
123 499
123 500
123 501
123 502
123 503
123 504
123 505
123 506
123 507
123 508
123 509
123 511
123 512
123 513
123 514
123 515
123 516
123 517
123 522
123 523
123 525
123 526
123 527
123 529
123 530
123 531
123 533
123 534
123 535
123 538
123 540
123 542
123 544
123 545
123 552
123 555
123 556
123 557
123 558
123 559
123 560
123 569
123 570
123 572
123 573
123 575
123 576
123 577
123 578
124 125
124 126
124 127
124 128
124 129
124 130
124 131
124 132
124 133
124 134
124 135
124 136
124 137
124 138
124 139
124 140
124 141
124 142
124 144
124 145
124 146
124 147
124 148
124 152
124 153
124 155
124 157
124 160
124 161
124 162
124 164
124 165
124 166
124 167
124 168
124 169
124 170
124 171
124 172
124 173
124 174
124 176
124 177
124 178
124 179
124 180
124 181
124 185
124 186
124 188
124 191
124 195
124 196
124 201
124 202
124 204
124 206
124 207
124 209
124 210
124 211
124 213
124 214
124 215
124 216
124 217
124 218
124 219
124 220
124 222
124 223
124 224
124 225
124 226
124 227
124 228
124 229
124 231
124 237
124 238
124 240
124 241
124 242
124 246
124 250
124 252
124 255
124 256
124 259
124 260
124 261
124 262
124 263
124 264
124 265
124 266
124 267
124 268
124 269
124 270
124 272
124 273
124 274
124 275
124 276
124 277
124 278
124 281
124 283
124 286
124 287
124 289
124 290
124 291
124 292
124 293
124 294
124 296
124 297
124 298
124 299
124 300
124 301
124 302
124 303
124 304
124 305
124 306
124 307
124 309
124 310
124 311
124 312
124 313
124 316
124 319
124 322
124 323
124 326
124 328
124 330
124 332
124 333
124 334
124 335
124 336
124 337
124 338
124 339
124 340
124 342
124 343
124 344
124 345
124 346
124 347
124 348
124 349
124 354
124 356
124 357
124 359
124 360
124 361
124 363
124 364
124 365
124 368
124 369
124 374
124 375
124 377
124 378
124 381
124 382
124 383
124 384
124 385
124 386
124 387
124 388
124 389
124 390
124 391
124 393
124 394
124 395
124 400
124 403
124 405
124 408
124 409
124 413
124 415
124 416
124 419
124 420
124 422
124 423
124 426
124 427
124 428
124 429
124 430
124 431
124 432
124 433
124 435
124 436
124 437
124 438
124 439
124 440
124 443
124 445
124 446
124 447
124 448
124 449
124 452
124 453
124 456
124 457
124 458
124 459
124 460
124 461
124 462
124 463
124 464
124 465
124 467
124 468
124 469
124 470
124 475
124 476
124 477
124 480
124 481
124 483
124 484
124 485
124 490
124 495
124 496
124 497
124 498
124 500
124 501
124 507
124 508
124 510
124 511
124 513
124 514
124 515
124 517
124 518
124 519
124 520
124 521
124 522
124 524
124 525
124 526
124 527
124 528
124 529
124 530
124 531
124 532
124 533
124 534
124 535
124 536
124 537
124 539
124 540
124 541
124 542
124 543
124 544
124 545
124 546
124 547
124 548
124 549
124 550
124 551
124 552
124 553
124 554
124 556
124 557
124 558
124 559
124 560
124 561
124 562
124 563
124 564
124 565
124 566
124 567
124 568
124 570
124 571
124 572
124 573
124 574
124 575
124 576
124 577
124 578
124 579
125 126
125 127
125 128
125 129
125 130
125 131
125 132
125 133
125 136
125 140
125 143
125 145
125 146
125 152
125 153
125 155
125 157
125 160
125 161
125 162
125 169
125 171
125 173
125 175
125 177
125 178
125 181
125 182
125 183
125 184
125 185
125 186
125 187
125 188
125 189
125 190
125 192
125 193
125 194
125 195
125 196
125 197
125 198
125 199
125 200
125 201
125 202
125 203
125 205
125 206
125 207
125 208
125 209
125 210
125 211
125 212
125 213
125 214
125 215
125 216
125 217
125 218
125 219
125 220
125 221
125 223
125 224
125 225
125 226
125 227
125 228
125 229
125 230
125 231
125 232
125 233
125 234
125 235
125 236
125 237
125 238
125 239
125 241
125 242
125 243
125 244
125 246
125 250
125 252
125 255
125 256
125 259
125 260
125 261
125 262
125 263
125 264
125 265
125 266
125 267
125 268
125 269
125 270
125 271
125 273
125 274
125 275
125 276
125 277
125 278
125 279
125 280
125 281
125 282
125 283
125 284
125 285
125 286
125 287
125 288
125 289
125 290
125 292
125 293
125 294
125 295
125 297
125 303
125 305
125 308
125 311
125 312
125 313
125 314
125 315
125 316
125 317
125 318
125 319
125 320
125 321
125 322
125 324
125 325
125 326
125 327
125 328
125 329
125 330
125 331
125 332
125 333
125 334
125 335
125 336
125 337
125 338
125 339
125 340
125 341
125 343
125 344
125 345
125 346
125 347
125 348
125 349
125 350
125 351
125 352
125 353
125 354
125 355
125 356
125 357
125 358
125 359
125 360
125 362
125 363
125 364
125 365
125 368
125 369
125 374
125 375
125 377
125 378
125 387
125 389
125 390
125 391
125 392
125 395
125 396
125 397
125 398
125 399
125 400
125 401
125 402
125 403
125 404
125 406
125 407
125 408
125 409
125 410
125 411
125 412
125 413
125 414
125 415
125 417
125 418
125 419
125 420
125 421
125 422
125 423
125 424
125 425
125 426
125 427
125 428
125 429
125 430
125 431
125 432
125 433
125 434
125 436
125 437
125 438
125 439
125 440
125 441
125 442
125 443
125 444
125 445
125 446
125 448
125 449
125 450
125 451
125 452
125 453
125 454
125 455
125 459
125 462
125 463
125 466
125 467
125 468
125 471
125 472
125 473
125 474
125 475
125 476
125 478
125 479
125 480
125 481
125 482
125 483
125 484
125 485
125 486
125 487
125 490
125 495
125 496
125 497
125 498
125 500
125 501
125 507
125 508
125 510
125 511
125 513
125 514
125 515
125 517
125 522
125 523
125 525
125 526
125 527
125 529
125 530
125 531
125 533
125 534
125 535
125 538
125 540
125 542
125 544
125 545
125 552
125 555
125 556
125 557
125 558
125 559
125 560
125 563
125 564
125 565
125 566
125 567
125 568
125 569
125 571
125 572
125 573
125 574
125 575
125 576
125 577
125 578
125 579
126 127
126 128
126 129
126 130
126 131
126 132
126 133
126 136
126 140
126 143
126 145
126 146
126 152
126 153
126 155
126 157
126 160
126 161
126 162
126 169
126 171
126 173
126 175
126 177
126 178
126 181
126 185
126 186
126 188
126 191
126 195
126 196
126 201
126 202
126 204
126 206
126 207
126 209
126 210
126 211
126 213
126 214
126 215
126 216
126 217
126 218
126 219
126 220
126 221
126 222
126 223
126 224
126 226
126 227
126 228
126 229
126 230
126 231
126 232
126 233
126 234
126 235
126 236
126 237
126 238
126 239
126 240
126 242
126 243
126 244
126 245
126 246
126 247
126 248
126 249
126 250
126 251
126 252
126 253
126 254
126 255
126 257
126 258
126 259
126 263
126 266
126 268
126 269
126 271
126 272
126 274
126 275
126 276
126 278
126 281
126 283
126 286
126 287
126 289
126 290
126 291
126 292
126 293
126 294
126 297
126 303
126 305
126 308
126 311
126 312
126 313
126 316
126 319
126 322
126 323
126 326
126 328
126 330
126 334
126 337
126 340
126 341
126 342
126 344
126 345
126 346
126 347
126 349
126 350
126 351
126 352
126 353
126 354
126 355
126 356
126 357
126 358
126 359
126 360
126 361
126 362
126 364
126 365
126 366
126 367
126 368
126 369
126 370
126 371
126 372
126 373
126 375
126 376
126 377
126 378
126 379
126 380
126 387
126 389
126 390
126 391
126 392
126 395
126 400
126 403
126 405
126 408
126 409
126 413
126 415
126 416
126 419
126 420
126 422
126 423
126 426
126 429
126 430
126 433
126 434
126 435
126 437
126 438
126 439
126 441
126 442
126 443
126 444
126 445
126 446
126 447
126 449
126 450
126 451
126 452
126 453
126 454
126 455
126 456
126 457
126 458
126 459
126 460
126 461
126 462
126 463
126 464
126 465
126 466
126 468
126 469
126 470
126 471
126 472
126 473
126 474
126 475
126 476
126 477
126 478
126 479
126 481
126 482
126 483
126 484
126 485
126 486
126 487
126 488
126 489
126 490
126 491
126 492
126 493
126 494
126 495
126 496
126 497
126 498
126 499
126 501
126 502
126 507
126 508
126 510
126 511
126 513
126 514
126 515
126 517
126 522
126 523
126 525
126 526
126 527
126 529
126 530
126 531
126 533
126 534
126 535
126 538
126 540
126 542
126 544
126 545
126 548
126 549
126 550
126 551
126 552
126 553
126 554
126 555
126 557
126 558
126 559
126 560
126 561
126 562
126 563
126 564
126 565
126 566
126 567
126 568
126 569
126 570
126 571
126 573
126 574
126 575
126 576
126 577
126 578
126 579
127 128
127 129
127 130
127 131
127 132
127 133
127 134
127 135
127 136
127 137
127 138
127 139
127 140
127 141
127 142
127 143
127 144
127 146
127 147
127 148
127 152
127 153
127 155
127 157
127 160
127 161
127 162
127 164
127 165
127 166
127 167
127 168
127 169
127 170
127 171
127 172
127 173
127 174
127 175
127 176
127 178
127 179
127 180
127 181
127 185
127 186
127 188
127 191
127 195
127 196
127 201
127 202
127 204
127 206
127 207
127 209
127 210
127 211
127 213
127 214
127 215
127 216
127 217
127 218
127 219
127 220
127 221
127 222
127 223
127 224
127 225
127 227
127 228
127 229
127 231
127 237
127 238
127 240
127 241
127 242
127 246
127 250
127 252
127 255
127 256
127 259
127 260
127 261
127 262
127 263
127 264
127 265
127 266
127 267
127 268
127 269
127 270
127 271
127 272
127 273
127 275
127 276
127 277
127 278
127 279
127 280
127 281
127 282
127 283
127 284
127 285
127 286
127 287
127 288
127 289
127 290
127 291
127 293
127 294
127 295
127 297
127 303
127 305
127 308
127 311
127 312
127 313
127 314
127 315
127 316
127 317
127 318
127 319
127 320
127 321
127 322
127 323
127 324
127 325
127 327
127 328
127 329
127 330
127 331
127 334
127 337
127 340
127 341
127 342
127 344
127 345
127 346
127 347
127 349
127 354
127 356
127 357
127 359
127 360
127 361
127 363
127 364
127 365
127 366
127 367
127 368
127 369
127 370
127 371
127 372
127 373
127 374
127 376
127 377
127 378
127 379
127 380
127 387
127 389
127 390
127 391
127 392
127 395
127 400
127 403
127 405
127 408
127 409
127 413
127 415
127 416
127 419
127 420
127 422
127 423
127 426
127 429
127 430
127 433
127 434
127 435
127 437
127 438
127 439
127 441
127 442
127 443
127 444
127 445
127 446
127 447
127 448
127 450
127 451
127 452
127 453
127 454
127 455
127 459
127 462
127 463
127 466
127 467
127 468
127 471
127 472
127 473
127 474
127 475
127 476
127 477
127 478
127 479
127 480
127 482
127 483
127 484
127 485
127 486
127 487
127 490
127 495
127 496
127 497
127 498
127 500
127 501
127 503
127 504
127 505
127 506
127 507
127 508
127 509
127 510
127 512
127 513
127 514
127 515
127 516
127 517
127 522
127 523
127 525
127 526
127 527
127 529
127 530
127 531
127 533
127 534
127 535
127 536
127 537
127 538
127 539
127 541
127 542
127 543
127 544
127 545
127 546
127 547
127 548
127 549
127 550
127 551
127 552
127 553
127 554
127 555
127 556
127 558
127 559
127 560
127 561
127 562
127 563
127 564
127 565
127 566
127 567
127 568
127 569
127 570
127 571
127 572
127 574
127 575
127 576
127 577
127 578
127 579
128 129
128 130
128 131
128 132
128 133
128 136
128 140
128 143
128 145
128 146
128 149
128 150
128 151
128 152
128 153
128 154
128 155
128 156
128 157
128 158
128 159
128 161
128 162
128 163
128 169
128 171
128 173
128 175
128 177
128 178
128 181
128 185
128 186
128 188
128 191
128 195
128 196
128 201
128 202
128 204
128 206
128 207
128 209
128 210
128 211
128 217
128 219
128 221
128 222
128 225
128 226
128 228
128 229
128 231
128 237
128 238
128 240
128 241
128 242
128 246
128 250
128 252
128 255
128 256
128 259
128 260
128 261
128 262
128 263
128 264
128 265
128 266
128 267
128 268
128 269
128 270
128 271
128 272
128 273
128 274
128 276
128 277
128 278
128 281
128 283
128 286
128 287
128 289
128 290
128 291
128 292
128 293
128 294
128 297
128 303
128 305
128 308
128 311
128 312
128 313
128 314
128 315
128 316
128 317
128 318
128 319
128 320
128 321
128 322
128 323
128 324
128 325
128 326
128 327
128 329
128 330
128 331
128 332
128 333
128 334
128 335
128 336
128 337
128 338
128 339
128 340
128 341
128 342
128 343
128 345
128 346
128 347
128 348
128 349
128 350
128 351
128 352
128 353
128 354
128 355
128 356
128 357
128 358
128 359
128 360
128 361
128 362
128 363
128 365
128 366
128 367
128 368
128 369
128 370
128 371
128 372
128 373
128 374
128 375
128 376
128 378
128 379
128 380
128 387
128 389
128 390
128 391
128 392
128 395
128 400
128 403
128 405
128 408
128 409
128 411
128 412
128 413
128 414
128 415
128 416
128 417
128 418
128 420
128 421
128 422
128 423
128 424
128 425
128 426
128 429
128 430
128 433
128 434
128 435
128 437
128 438
128 439
128 443
128 445
128 446
128 447
128 448
128 449
128 452
128 453
128 456
128 457
128 458
128 459
128 460
128 461
128 462
128 463
128 464
128 465
128 466
128 467
128 469
128 470
128 471
128 472
128 473
128 474
128 475
128 476
128 477
128 478
128 479
128 480
128 481
128 482
128 484
128 485
128 486
128 487
128 490
128 495
128 496
128 497
128 498
128 500
128 501
128 503
128 504
128 505
128 506
128 507
128 508
128 509
128 510
128 511
128 512
128 514
128 515
128 516
128 517
128 518
128 519
128 520
128 521
128 522
128 523
128 524
128 526
128 527
128 528
128 529
128 530
128 531
128 532
128 533
128 534
128 535
128 536
128 537
128 538
128 539
128 540
128 541
128 543
128 544
128 545
128 546
128 547
128 552
128 555
128 556
128 557
128 558
128 559
128 560
128 569
128 570
128 572
128 573
128 575
128 576
128 577
128 578
129 130
129 131
129 132
129 133
129 136
129 140
129 143
129 145
129 146
129 152
129 153
129 155
129 157
129 160
129 161
129 162
129 164
129 165
129 166
129 167
129 168
129 169
129 170
129 171
129 172
129 173
129 174
129 175
129 176
129 177
129 179
129 180
129 181
129 182
129 183
129 184
129 185
129 186
129 187
129 188
129 189
129 190
129 191
129 192
129 193
129 194
129 196
129 197
129 198
129 199
129 200
129 201
129 202
129 203
129 204
129 205
129 207
129 208
129 209
129 210
129 211
129 212
129 217
129 219
129 221
129 222
129 225
129 226
129 228
129 229
129 230
129 231
129 232
129 233
129 234
129 235
129 236
129 237
129 238
129 239
129 240
129 241
129 243
129 244
129 246
129 250
129 252
129 255
129 256
129 259
129 263
129 266
129 268
129 269
129 271
129 272
129 274
129 275
129 276
129 278
129 279
129 280
129 281
129 282
129 283
129 284
129 285
129 286
129 287
129 288
129 289
129 290
129 291
129 292
129 294
129 295
129 297
129 303
129 305
129 308
129 311
129 312
129 313
129 316
129 319
129 322
129 323
129 326
129 328
129 330
129 332
129 333
129 334
129 335
129 336
129 337
129 338
129 339
129 340
129 341
129 342
129 343
129 344
129 346
129 347
129 348
129 349
129 354
129 356
129 357
129 359
129 360
129 361
129 363
129 364
129 365
129 366
129 367
129 368
129 369
129 370
129 371
129 372
129 373
129 374
129 375
129 376
129 377
129 379
129 380
129 387
129 389
129 390
129 391
129 392
129 395
129 400
129 403
129 405
129 408
129 409
129 411
129 412
129 413
129 414
129 415
129 416
129 417
129 418
129 419
129 421
129 422
129 423
129 424
129 425
129 426
129 427
129 428
129 429
129 430
129 431
129 432
129 433
129 434
129 435
129 436
129 438
129 439
129 440
129 443
129 445
129 446
129 447
129 448
129 449
129 452
129 453
129 459
129 462
129 463
129 466
129 467
129 468
129 475
129 476
129 477
129 480
129 481
129 483
129 484
129 485
129 488
129 489
129 490
129 491
129 492
129 493
129 494
129 495
129 496
129 497
129 498
129 499
129 500
129 502
129 503
129 504
129 505
129 506
129 507
129 508
129 509
129 510
129 511
129 512
129 513
129 515
129 516
129 517
129 518
129 519
129 520
129 521
129 522
129 523
129 524
129 525
129 527
129 528
129 529
129 530
129 531
129 532
129 533
129 534
129 535
129 538
129 540
129 542
129 544
129 545
129 552
129 555
129 556
129 557
129 558
129 559
129 560
129 563
129 564
129 565
129 566
129 567
129 568
129 569
129 570
129 571
129 572
129 573
129 574
129 576
129 577
129 578
129 579
130 131
130 132
130 133
130 134
130 135
130 136
130 137
130 138
130 139
130 140
130 141
130 142
130 143
130 144
130 145
130 147
130 148
130 149
130 150
130 151
130 152
130 153
130 154
130 155
130 156
130 157
130 158
130 159
130 160
130 162
130 163
130 169
130 171
130 173
130 175
130 177
130 178
130 181
130 185
130 186
130 188
130 191
130 195
130 196
130 198
130 199
130 200
130 201
130 202
130 203
130 204
130 205
130 206
130 208
130 209
130 210
130 211
130 212
130 217
130 219
130 221
130 222
130 225
130 226
130 228
130 229
130 231
130 237
130 238
130 240
130 241
130 242
130 246
130 250
130 252
130 255
130 256
130 259
130 260
130 261
130 262
130 263
130 264
130 265
130 266
130 267
130 268
130 269
130 270
130 271
130 272
130 273
130 274
130 275
130 277
130 278
130 281
130 283
130 286
130 287
130 289
130 290
130 291
130 292
130 293
130 294
130 296
130 297
130 298
130 299
130 300
130 301
130 302
130 303
130 304
130 305
130 306
130 307
130 308
130 309
130 310
130 312
130 313
130 316
130 319
130 322
130 323
130 326
130 328
130 330
130 332
130 333
130 334
130 335
130 336
130 337
130 338
130 339
130 340
130 341
130 342
130 343
130 344
130 345
130 347
130 348
130 349
130 354
130 356
130 357
130 359
130 360
130 361
130 363
130 364
130 365
130 368
130 369
130 374
130 375
130 377
130 378
130 387
130 389
130 390
130 391
130 392
130 395
130 396
130 397
130 398
130 399
130 400
130 401
130 402
130 403
130 404
130 405
130 406
130 407
130 409
130 410
130 413
130 415
130 416
130 419
130 420
130 422
130 423
130 426
130 427
130 428
130 429
130 430
130 431
130 432
130 433
130 434
130 435
130 436
130 437
130 439
130 440
130 443
130 445
130 446
130 447
130 448
130 449
130 452
130 453
130 459
130 462
130 463
130 466
130 467
130 468
130 471
130 472
130 473
130 474
130 475
130 476
130 477
130 478
130 479
130 480
130 481
130 482
130 483
130 485
130 486
130 487
130 490
130 495
130 496
130 497
130 498
130 500
130 501
130 503
130 504
130 505
130 506
130 507
130 508
130 509
130 510
130 511
130 512
130 513
130 514
130 516
130 517
130 518
130 519
130 520
130 521
130 522
130 523
130 524
130 525
130 526
130 528
130 529
130 530
130 531
130 532
130 533
130 534
130 535
130 538
130 540
130 542
130 544
130 545
130 552
130 555
130 556
130 557
130 558
130 559
130 560
130 563
130 564
130 565
130 566
130 567
130 568
130 569
130 570
130 571
130 572
130 573
130 574
130 575
130 577
130 578
130 579
131 132
131 133
131 136
131 140
131 143
131 145
131 146
131 152
131 153
131 155
131 157
131 160
131 161
131 162
131 169
131 171
131 173
131 175
131 177
131 178
131 181
131 182
131 183
131 184
131 185
131 186
131 187
131 188
131 189
131 190
131 191
131 192
131 193
131 194
131 195
131 197
131 198
131 199
131 200
131 201
131 202
131 203
131 204
131 205
131 206
131 207
131 208
131 210
131 211
131 212
131 213
131 214
131 215
131 216
131 217
131 218
131 219
131 220
131 221
131 222
131 223
131 224
131 225
131 226
131 227
131 229
131 231
131 237
131 238
131 240
131 241
131 242
131 246
131 250
131 252
131 255
131 256
131 259
131 263
131 266
131 268
131 269
131 271
131 272
131 274
131 275
131 276
131 278
131 279
131 280
131 281
131 282
131 283
131 284
131 285
131 286
131 287
131 288
131 289
131 290
131 291
131 292
131 293
131 295
131 297
131 303
131 305
131 308
131 311
131 312
131 313
131 316
131 319
131 322
131 323
131 326
131 328
131 330
131 334
131 337
131 340
131 341
131 342
131 344
131 345
131 346
131 347
131 349
131 354
131 356
131 357
131 359
131 360
131 361
131 363
131 364
131 365
131 368
131 369
131 374
131 375
131 377
131 378
131 387
131 389
131 390
131 391
131 392
131 395
131 396
131 397
131 398
131 399
131 400
131 401
131 402
131 403
131 404
131 405
131 406
131 407
131 408
131 410
131 411
131 412
131 413
131 414
131 415
131 416
131 417
131 418
131 419
131 420
131 421
131 423
131 424
131 425
131 426
131 429
131 430
131 433
131 434
131 435
131 437
131 438
131 439
131 443
131 445
131 446
131 447
131 448
131 449
131 452
131 453
131 459
131 462
131 463
131 466
131 467
131 468
131 475
131 476
131 477
131 480
131 481
131 483
131 484
131 485
131 490
131 495
131 496
131 497
131 498
131 500
131 501
131 503
131 504
131 505
131 506
131 507
131 508
131 509
131 510
131 511
131 512
131 513
131 514
131 515
131 516
131 518
131 519
131 520
131 521
131 522
131 523
131 524
131 525
131 526
131 527
131 528
131 530
131 531
131 532
131 533
131 534
131 535
131 536
131 537
131 538
131 539
131 540
131 541
131 542
131 543
131 545
131 546
131 547
131 548
131 549
131 550
131 551
131 552
131 553
131 554
131 555
131 556
131 557
131 559
131 560
131 561
131 562
131 569
131 570
131 572
131 573
131 575
131 576
131 577
131 578
132 133
132 136
132 140
132 143
132 145
132 146
132 149
132 150
132 151
132 152
132 153
132 154
132 155
132 156
132 157
132 158
132 159
132 160
132 161
132 163
132 169
132 171
132 173
132 175
132 177
132 178
132 181
132 185
132 186
132 188
132 191
132 195
132 196
132 198
132 199
132 200
132 201
132 202
132 203
132 204
132 205
132 206
132 207
132 208
132 209
132 211
132 212
132 217
132 219
132 221
132 222
132 225
132 226
132 228
132 229
132 231
132 237
132 238
132 240
132 241
132 242
132 246
132 250
132 252
132 255
132 256
132 259
132 263
132 266
132 268
132 269
132 271
132 272
132 274
132 275
132 276
132 278
132 281
132 283
132 286
132 287
132 289
132 290
132 291
132 292
132 293
132 294
132 296
132 297
132 298
132 299
132 300
132 301
132 302
132 303
132 304
132 305
132 306
132 307
132 308
132 309
132 310
132 311
132 313
132 314
132 315
132 316
132 317
132 318
132 319
132 320
132 321
132 322
132 323
132 324
132 325
132 326
132 327
132 328
132 329
132 331
132 332
132 333
132 334
132 335
132 336
132 337
132 338
132 339
132 340
132 341
132 342
132 343
132 344
132 345
132 346
132 348
132 349
132 354
132 356
132 357
132 359
132 360
132 361
132 363
132 364
132 365
132 368
132 369
132 374
132 375
132 377
132 378
132 381
132 382
132 383
132 384
132 385
132 386
132 387
132 388
132 389
132 390
132 391
132 392
132 393
132 394
132 400
132 403
132 405
132 408
132 409
132 411
132 412
132 413
132 414
132 415
132 416
132 417
132 418
132 419
132 420
132 421
132 422
132 424
132 425
132 426
132 429
132 430
132 433
132 434
132 435
132 437
132 438
132 439
132 441
132 442
132 443
132 444
132 445
132 446
132 447
132 448
132 449
132 450
132 451
132 453
132 454
132 455
132 459
132 462
132 463
132 466
132 467
132 468
132 475
132 476
132 477
132 480
132 481
132 483
132 484
132 485
132 490
132 495
132 496
132 497
132 498
132 500
132 501
132 507
132 508
132 510
132 511
132 513
132 514
132 515
132 517
132 518
132 519
132 520
132 521
132 522
132 523
132 524
132 525
132 526
132 527
132 528
132 529
132 531
132 532
132 533
132 534
132 535
132 538
132 540
132 542
132 544
132 545
132 548
132 549
132 550
132 551
132 552
132 553
132 554
132 555
132 556
132 557
132 558
132 560
132 561
132 562
132 563
132 564
132 565
132 566
132 567
132 568
132 569
132 570
132 571
132 572
132 573
132 574
132 575
132 576
132 578
132 579
133 136
133 140
133 143
133 145
133 146
133 152
133 153
133 155
133 157
133 160
133 161
133 162
133 169
133 171
133 173
133 175
133 177
133 178
133 181
133 185
133 186
133 188
133 191
133 195
133 196
133 198
133 199
133 200
133 201
133 202
133 203
133 204
133 205
133 206
133 207
133 208
133 209
133 210
133 212
133 213
133 214
133 215
133 216
133 217
133 218
133 219
133 220
133 221
133 222
133 223
133 224
133 225
133 226
133 227
133 228
133 231
133 237
133 238
133 240
133 241
133 242
133 245
133 246
133 247
133 248
133 249
133 250
133 251
133 252
133 253
133 254
133 255
133 256
133 257
133 258
133 260
133 261
133 262
133 263
133 264
133 265
133 266
133 267
133 268
133 269
133 270
133 271
133 272
133 273
133 274
133 275
133 276
133 277
133 281
133 283
133 286
133 287
133 289
133 290
133 291
133 292
133 293
133 294
133 297
133 303
133 305
133 308
133 311
133 312
133 313
133 316
133 319
133 322
133 323
133 326
133 328
133 330
133 334
133 337
133 340
133 341
133 342
133 344
133 345
133 346
133 347
133 349
133 350
133 351
133 352
133 353
133 354
133 355
133 356
133 357
133 358
133 359
133 360
133 361
133 362
133 363
133 364
133 368
133 369
133 374
133 375
133 377
133 378
133 387
133 389
133 390
133 391
133 392
133 395
133 400
133 403
133 405
133 408
133 409
133 413
133 415
133 416
133 419
133 420
133 422
133 423
133 426
133 427
133 428
133 429
133 430
133 431
133 432
133 433
133 434
133 435
133 436
133 437
133 438
133 440
133 441
133 442
133 443
133 444
133 445
133 446
133 447
133 448
133 449
133 450
133 451
133 452
133 454
133 455
133 459
133 462
133 463
133 466
133 467
133 468
133 471
133 472
133 473
133 474
133 475
133 476
133 477
133 478
133 479
133 480
133 481
133 482
133 483
133 484
133 486
133 487
133 490
133 495
133 496
133 497
133 498
133 500
133 501
133 507
133 508
133 510
133 511
133 513
133 514
133 515
133 517
133 518
133 519
133 520
133 521
133 522
133 523
133 524
133 525
133 526
133 527
133 528
133 529
133 530
133 532
133 533
133 534
133 535
133 536
133 537
133 538
133 539
133 540
133 541
133 542
133 543
133 544
133 546
133 547
133 548
133 549
133 550
133 551
133 552
133 553
133 554
133 555
133 556
133 557
133 558
133 559
133 561
133 562
133 563
133 564
133 565
133 566
133 567
133 568
133 569
133 570
133 571
133 572
133 573
133 574
133 575
133 576
133 577
133 579
134 135
134 136
134 137
134 138
134 139
134 140
134 141
134 142
134 143
134 144
134 145
134 146
134 147
134 148
134 149
134 151
134 152
134 156
134 159
134 161
134 163
134 164
134 165
134 171
134 172
134 174
134 175
134 177
134 179
134 181
134 182
134 184
134 185
134 189
134 190
134 193
134 199
134 200
134 201
134 202
134 203
134 204
134 205
134 206
134 207
134 208
134 209
134 210
134 211
134 212
134 213
134 214
134 221
134 224
134 226
134 230
134 231
134 232
134 233
134 243
134 244
134 246
134 247
134 248
134 249
134 250
134 251
134 252
134 253
134 254
134 255
134 256
134 257
134 258
134 259
134 260
134 261
134 265
134 270
134 271
134 274
134 276
134 277
134 280
134 281
134 282
134 283
134 284
134 285
134 286
134 287
134 288
134 289
134 290
134 291
134 292
134 293
134 294
134 295
134 296
134 297
134 298
134 302
134 303
134 306
134 308
134 311
134 313
134 317
134 320
134 325
134 326
134 329
134 332
134 333
134 335
134 336
134 338
134 341
134 343
134 346
134 349
134 350
134 351
134 355
134 356
134 358
134 362
134 366
134 369
134 370
134 371
134 373
134 375
134 380
134 382
134 383
134 384
134 385
134 386
134 387
134 388
134 389
134 390
134 391
134 392
134 393
134 394
134 395
134 396
134 402
134 404
134 406
134 408
134 410
134 411
134 414
134 417
134 421
134 425
134 426
134 429
134 431
134 434
134 438
134 440
134 441
134 443
134 449
134 451
134 455
134 457
134 458
134 459
134 460
134 461
134 462
134 463
134 464
134 465
134 466
134 467
134 468
134 469
134 470
134 472
134 473
134 474
134 475
134 476
134 477
134 478
134 479
134 480
134 481
134 482
134 483
134 484
134 485
134 486
134 487
134 489
134 490
134 491
134 492
134 493
134 494
134 495
134 496
134 497
134 498
134 499
134 500
134 501
134 502
134 504
134 505
134 506
134 507
134 508
134 509
134 510
134 511
134 512
134 513
134 514
134 515
134 516
134 517
134 518
134 520
134 523
134 527
134 528
134 532
134 533
134 536
134 538
134 540
134 543
134 547
134 549
134 550
134 551
134 552
134 553
134 554
134 555
134 556
134 557
134 558
134 559
134 560
134 561
134 562
134 563
134 567
134 568
134 569
134 573
134 576
135 136
135 137
135 138
135 139
135 140
135 141
135 142
135 143
135 144
135 145
135 146
135 147
135 148
135 149
135 151
135 152
135 156
135 159
135 161
135 163
135 164
135 165
135 171
135 172
135 174
135 175
135 177
135 179
135 181
135 182
135 184
135 185
135 189
135 190
135 193
135 198
135 201
135 203
135 205
135 207
135 208
135 214
135 215
135 216
135 217
135 218
135 219
135 220
135 221
135 222
135 223
135 224
135 225
135 226
135 227
135 228
135 229
135 231
135 232
135 233
135 234
135 235
135 236
135 237
135 238
135 239
135 240
135 241
135 242
135 243
135 244
135 245
135 246
135 251
135 253
135 258
135 261
135 262
135 263
135 264
135 265
135 266
135 267
135 268
135 269
135 270
135 271
135 272
135 273
135 274
135 275
135 276
135 277
135 278
135 279
135 281
135 282
135 283
135 284
135 285
135 286
135 287
135 288
135 289
135 290
135 291
135 292
135 293
135 294
135 295
135 297
135 298
135 299
135 300
135 301
135 302
135 303
135 304
135 305
135 306
135 307
135 308
135 309
135 310
135 311
135 312
135 313
135 317
135 320
135 325
135 326
135 329
135 333
135 334
135 335
135 336
135 337
135 338
135 339
135 340
135 341
135 342
135 343
135 344
135 345
135 346
135 347
135 348
135 349
135 350
135 351
135 355
135 356
135 358
135 362
135 367
135 368
135 369
135 370
135 371
135 372
135 373
135 374
135 375
135 376
135 377
135 378
135 379
135 380
135 381
135 383
135 384
135 385
135 386
135 387
135 388
135 389
135 390
135 391
135 392
135 393
135 394
135 395
135 396
135 402
135 404
135 406
135 408
135 410
135 411
135 414
135 417
135 421
135 425
135 426
135 429
135 431
135 434
135 438
135 440
135 442
135 443
135 444
135 445
135 446
135 447
135 448
135 449
135 450
135 451
135 452
135 453
135 454
135 455
135 456
135 458
135 459
135 460
135 461
135 462
135 463
135 464
135 465
135 466
135 467
135 468
135 469
135 470
135 471
135 472
135 474
135 479
135 481
135 484
135 487
135 488
135 490
135 491
135 492
135 493
135 494
135 495
135 496
135 497
135 498
135 499
135 500
135 501
135 502
135 503
135 504
135 511
135 515
135 516
135 518
135 520
135 523
135 527
135 528
135 532
135 533
135 536
135 538
135 540
135 543
135 547
135 548
135 551
135 553
135 555
135 557
135 562
135 563
135 567
135 568
135 569
135 573
135 576
136 137
136 138
136 139
136 140
136 141
136 142
136 143
136 144
136 145
136 146
136 147
136 148
136 149
136 151
136 152
136 156
136 159
136 161
136 163
136 164
136 165
136 171
136 172
136 174
136 175
136 177
136 179
136 182
136 183
136 184
136 185
136 186
136 187
136 188
136 189
136 190
136 191
136 192
136 193
136 194
136 195
136 196
136 197
136 198
136 201
136 203
136 205
136 207
136 208
136 213
136 214
136 221
136 224
136 226
136 230
136 232
136 233
136 234
136 235
136 236
136 237
136 238
136 239
136 240
136 241
136 242
136 243
136 244
136 245
136 247
136 248
136 249
136 250
136 251
136 252
136 253
136 254
136 255
136 256
136 257
136 258
136 259
136 260
136 261
136 265
136 270
136 271
136 274
136 276
136 277
136 279
136 280
136 282
136 283
136 284
136 285
136 286
136 287
136 288
136 289
136 290
136 291
136 292
136 293
136 294
136 295
136 296
136 298
136 299
136 300
136 301
136 302
136 303
136 304
136 305
136 306
136 307
136 308
136 309
136 310
136 311
136 312
136 314
136 315
136 316
136 317
136 318
136 319
136 320
136 321
136 322
136 323
136 324
136 325
136 326
136 327
136 328
136 329
136 330
136 331
136 332
136 333
136 335
136 336
136 338
136 341
136 343
136 346
136 350
136 351
136 352
136 353
136 354
136 355
136 356
136 357
136 358
136 359
136 360
136 361
136 362
136 363
136 364
136 365
136 366
136 369
136 370
136 371
136 373
136 375
136 380
136 381
136 382
136 383
136 384
136 392
136 393
136 396
136 402
136 404
136 406
136 408
136 410
136 411
136 414
136 417
136 421
136 425
136 427
136 428
136 429
136 430
136 431
136 432
136 433
136 434
136 435
136 436
136 437
136 438
136 439
136 440
136 441
136 443
136 449
136 451
136 455
136 456
136 457
136 461
136 462
136 466
136 469
136 471
136 472
136 474
136 479
136 481
136 484
136 487
136 488
136 489
136 491
136 492
136 493
136 494
136 495
136 496
136 497
136 498
136 499
136 500
136 501
136 502
136 503
136 504
136 511
136 515
136 516
136 518
136 520
136 523
136 527
136 528
136 532
136 534
136 535
136 536
136 537
136 538
136 539
136 540
136 541
136 542
136 543
136 544
136 545
136 546
136 547
136 548
136 551
136 553
136 555
136 557
136 562
136 563
136 567
136 568
136 569
136 573
136 576
137 138
137 139
137 140
137 141
137 142
137 143
137 144
137 145
137 146
137 147
137 148
137 150
137 151
137 152
137 153
137 154
137 155
137 156
137 157
137 158
137 159
137 160
137 161
137 162
137 163
137 165
137 166
137 167
137 168
137 169
137 170
137 171
137 172
137 173
137 174
137 175
137 176
137 177
137 178
137 179
137 180
137 181
137 182
137 184
137 185
137 189
137 190
137 193
137 198
137 201
137 203
137 205
137 207
137 208
137 213
137 214
137 221
137 224
137 226
137 230
137 231
137 233
137 234
137 235
137 236
137 237
137 238
137 239
137 240
137 241
137 242
137 243
137 244
137 245
137 246
137 251
137 253
137 258
137 260
137 262
137 263
137 264
137 265
137 266
137 267
137 268
137 269
137 270
137 271
137 272
137 273
137 274
137 275
137 276
137 277
137 278
137 279
137 280
137 281
137 285
137 286
137 292
137 295
137 296
137 297
137 299
137 300
137 301
137 302
137 303
137 304
137 305
137 306
137 307
137 308
137 309
137 310
137 311
137 312
137 313
137 317
137 320
137 325
137 326
137 329
137 332
137 333
137 335
137 336
137 338
137 341
137 343
137 346
137 349
137 351
137 352
137 353
137 354
137 355
137 356
137 357
137 358
137 359
137 360
137 361
137 362
137 363
137 364
137 365
137 366
137 369
137 370
137 371
137 373
137 375
137 380
137 381
137 382
137 384
137 385
137 386
137 387
137 388
137 389
137 390
137 391
137 392
137 393
137 394
137 395
137 396
137 402
137 404
137 406
137 408
137 410
137 412
137 413
137 414
137 415
137 416
137 417
137 418
137 419
137 420
137 421
137 422
137 423
137 424
137 425
137 426
137 429
137 431
137 434
137 438
137 440
137 441
137 443
137 449
137 451
137 455
137 456
137 457
137 461
137 462
137 466
137 469
137 471
137 472
137 474
137 479
137 481
137 484
137 487
137 488
137 489
137 490
137 492
137 493
137 494
137 495
137 496
137 497
137 498
137 499
137 500
137 501
137 502
137 503
137 504
137 511
137 515
137 516
137 518
137 520
137 523
137 527
137 528
137 532
137 533
137 536
137 538
137 540
137 543
137 547
137 548
137 551
137 553
137 555
137 557
137 562
137 564
137 565
137 566
137 567
137 568
137 569
137 570
137 571
137 572
137 573
137 574
137 575
137 576
137 577
137 578
137 579
138 139
138 140
138 141
138 142
138 143
138 144
138 145
138 146
138 147
138 148
138 149
138 151
138 152
138 156
138 159
138 161
138 163
138 164
138 166
138 167
138 168
138 169
138 170
138 171
138 172
138 173
138 174
138 175
138 176
138 177
138 178
138 179
138 180
138 181
138 183
138 184
138 185
138 186
138 187
138 188
138 189
138 190
138 191
138 192
138 193
138 194
138 195
138 196
138 197
138 198
138 201
138 203
138 205
138 207
138 208
138 213
138 215
138 216
138 217
138 218
138 219
138 220
138 221
138 222
138 223
138 224
138 225
138 226
138 227
138 228
138 229
138 230
138 231
138 232
138 234
138 235
138 236
138 237
138 238
138 239
138 240
138 241
138 242
138 243
138 244
138 245
138 246
138 251
138 253
138 258
138 260
138 261
138 265
138 270
138 271
138 274
138 276
138 277
138 279
138 280
138 281
138 285
138 286
138 292
138 295
138 296
138 297
138 298
138 302
138 303
138 306
138 308
138 311
138 313
138 317
138 320
138 325
138 326
138 329
138 332
138 334
138 335
138 336
138 337
138 338
138 339
138 340
138 341
138 342
138 343
138 344
138 345
138 346
138 347
138 348
138 349
138 350
138 352
138 353
138 354
138 355
138 356
138 357
138 358
138 359
138 360
138 361
138 362
138 363
138 364
138 365
138 366
138 369
138 370
138 371
138 373
138 375
138 380
138 381
138 382
138 383
138 385
138 386
138 387
138 388
138 389
138 390
138 391
138 392
138 393
138 394
138 395
138 397
138 398
138 399
138 400
138 401
138 402
138 403
138 404
138 405
138 406
138 407
138 408
138 409
138 410
138 411
138 414
138 417
138 421
138 425
138 426
138 429
138 431
138 434
138 438
138 440
138 441
138 443
138 449
138 451
138 455
138 456
138 457
138 461
138 462
138 466
138 469
138 471
138 473
138 474
138 475
138 476
138 477
138 478
138 479
138 480
138 481
138 482
138 483
138 484
138 485
138 486
138 487
138 488
138 489
138 490
138 491
138 494
138 495
138 503
138 505
138 506
138 507
138 508
138 509
138 510
138 511
138 512
138 513
138 514
138 515
138 516
138 517
138 519
138 520
138 521
138 522
138 523
138 524
138 525
138 526
138 527
138 528
138 529
138 530
138 531
138 532
138 533
138 536
138 538
138 540
138 543
138 547
138 548
138 551
138 553
138 555
138 557
138 562
138 563
138 567
138 568
138 569
138 573
138 576
139 140
139 141
139 142
139 143
139 144
139 145
139 146
139 147
139 148
139 149
139 150
139 152
139 153
139 154
139 155
139 156
139 157
139 158
139 159
139 160
139 161
139 162
139 163
139 164
139 165
139 171
139 172
139 174
139 175
139 177
139 179
139 181
139 182
139 183
139 185
139 186
139 187
139 188
139 189
139 190
139 191
139 192
139 193
139 194
139 195
139 196
139 197
139 198
139 201
139 203
139 205
139 207
139 208
139 213
139 214
139 221
139 224
139 226
139 230
139 231
139 232
139 233
139 243
139 244
139 245
139 246
139 251
139 253
139 258
139 260
139 261
139 262
139 263
139 264
139 266
139 267
139 268
139 269
139 270
139 271
139 272
139 273
139 274
139 275
139 276
139 277
139 278
139 279
139 280
139 281
139 282
139 283
139 284
139 286
139 287
139 288
139 289
139 290
139 291
139 292
139 293
139 294
139 295
139 296
139 297
139 298
139 299
139 300
139 301
139 303
139 304
139 305
139 306
139 307
139 308
139 309
139 310
139 311
139 312
139 313
139 314
139 315
139 316
139 318
139 319
139 320
139 321
139 322
139 323
139 324
139 325
139 326
139 327
139 328
139 329
139 330
139 331
139 332
139 333
139 334
139 336
139 337
139 338
139 339
139 340
139 341
139 342
139 343
139 344
139 345
139 346
139 347
139 348
139 349
139 350
139 351
139 352
139 353
139 354
139 356
139 357
139 358
139 359
139 360
139 361
139 362
139 363
139 364
139 365
139 366
139 369
139 370
139 371
139 373
139 375
139 380
139 381
139 382
139 383
139 384
139 392
139 393
139 396
139 397
139 398
139 399
139 400
139 401
139 403
139 404
139 405
139 406
139 407
139 408
139 409
139 410
139 411
139 414
139 417
139 421
139 425
139 426
139 429
139 431
139 434
139 438
139 440
139 441
139 443
139 449
139 451
139 455
139 456
139 457
139 458
139 459
139 460
139 462
139 463
139 464
139 465
139 466
139 467
139 468
139 469
139 470
139 471
139 472
139 473
139 475
139 476
139 477
139 478
139 479
139 480
139 481
139 482
139 483
139 484
139 485
139 486
139 487
139 488
139 489
139 490
139 491
139 492
139 493
139 495
139 496
139 497
139 498
139 499
139 500
139 501
139 502
139 503
139 504
139 511
139 515
139 516
139 518
139 519
139 521
139 522
139 523
139 524
139 525
139 526
139 527
139 528
139 529
139 530
139 531
139 532
139 533
139 536
139 538
139 540
139 543
139 547
139 548
139 549
139 550
139 552
139 553
139 554
139 555
139 556
139 557
139 558
139 559
139 560
139 561
139 562
139 563
139 567
139 568
139 569
139 573
139 576
140 141
140 142
140 143
140 144
140 145
140 146
140 147
140 148
140 149
140 150
140 151
140 153
140 154
140 155
140 156
140 157
140 158
140 159
140 160
140 161
140 162
140 163
140 164
140 165
140 166
140 167
140 168
140 169
140 170
140 172
140 173
140 174
140 175
140 176
140 177
140 178
140 179
140 180
140 181
140 182
140 183
140 184
140 186
140 187
140 188
140 189
140 190
140 191
140 192
140 193
140 194
140 195
140 196
140 197
140 198
140 199
140 200
140 202
140 203
140 204
140 205
140 206
140 207
140 208
140 209
140 210
140 211
140 212
140 213
140 214
140 221
140 224
140 226
140 230
140 231
140 232
140 233
140 243
140 244
140 245
140 246
140 251
140 253
140 258
140 260
140 261
140 265
140 270
140 271
140 274
140 276
140 277
140 279
140 280
140 281
140 282
140 283
140 284
140 285
140 287
140 288
140 289
140 290
140 291
140 292
140 293
140 294
140 295
140 296
140 297
140 298
140 299
140 300
140 301
140 302
140 304
140 305
140 306
140 307
140 308
140 309
140 310
140 311
140 312
140 313
140 317
140 320
140 325
140 326
140 329
140 332
140 333
140 335
140 336
140 338
140 341
140 343
140 346
140 349
140 350
140 351
140 352
140 353
140 354
140 355
140 357
140 358
140 359
140 360
140 361
140 362
140 363
140 364
140 365
140 366
140 367
140 368
140 370
140 371
140 372
140 373
140 374
140 375
140 376
140 377
140 378
140 379
140 380
140 381
140 382
140 383
140 384
140 392
140 393
140 396
140 402
140 404
140 406
140 408
140 410
140 411
140 414
140 417
140 421
140 425
140 426
140 427
140 428
140 430
140 431
140 432
140 433
140 434
140 435
140 436
140 437
140 438
140 439
140 440
140 441
140 442
140 444
140 445
140 446
140 447
140 448
140 449
140 450
140 451
140 452
140 453
140 454
140 455
140 456
140 457
140 458
140 459
140 460
140 461
140 463
140 464
140 465
140 466
140 467
140 468
140 469
140 470
140 471
140 472
140 474
140 479
140 481
140 484
140 487
140 488
140 489
140 490
140 491
140 492
140 493
140 494
140 496
140 497
140 498
140 499
140 500
140 501
140 502
140 503
140 504
140 511
140 515
140 516
140 518
140 520
140 523
140 527
140 528
140 532
140 533
140 536
140 538
140 540
140 543
140 547
140 548
140 551
140 553
140 555
140 557
140 562
140 563
140 567
140 568
140 569
140 573
140 576
141 142
141 143
141 144
141 145
141 146
141 147
141 148
141 149
141 150
141 151
141 152
141 153
141 154
141 155
141 157
141 158
141 159
141 160
141 161
141 162
141 163
141 164
141 165
141 166
141 167
141 168
141 169
141 170
141 171
141 173
141 174
141 175
141 176
141 177
141 178
141 179
141 180
141 181
141 182
141 183
141 184
141 185
141 186
141 187
141 188
141 190
141 191
141 192
141 193
141 194
141 195
141 196
141 197
141 198
141 201
141 203
141 205
141 207
141 208
141 213
141 214
141 221
141 224
141 226
141 230
141 231
141 232
141 233
141 243
141 244
141 245
141 246
141 247
141 248
141 249
141 250
141 252
141 253
141 254
141 255
141 256
141 257
141 258
141 259
141 260
141 261
141 265
141 270
141 271
141 274
141 276
141 277
141 279
141 280
141 281
141 285
141 286
141 292
141 295
141 296
141 297
141 298
141 299
141 300
141 301
141 302
141 303
141 304
141 305
141 307
141 308
141 309
141 310
141 311
141 312
141 313
141 314
141 315
141 316
141 317
141 318
141 319
141 321
141 322
141 323
141 324
141 325
141 326
141 327
141 328
141 329
141 330
141 331
141 332
141 333
141 334
141 335
141 337
141 338
141 339
141 340
141 341
141 342
141 343
141 344
141 345
141 346
141 347
141 348
141 349
141 350
141 351
141 352
141 353
141 354
141 355
141 356
141 357
141 359
141 360
141 361
141 362
141 363
141 364
141 365
141 366
141 367
141 368
141 369
141 371
141 372
141 373
141 374
141 375
141 376
141 377
141 378
141 379
141 380
141 381
141 382
141 383
141 384
141 392
141 393
141 396
141 402
141 404
141 406
141 408
141 410
141 411
141 412
141 413
141 415
141 416
141 417
141 418
141 419
141 420
141 421
141 422
141 423
141 424
141 425
141 426
141 429
141 431
141 434
141 438
141 440
141 441
141 443
141 449
141 451
141 455
141 456
141 457
141 461
141 462
141 466
141 469
141 471
141 472
141 474
141 479
141 481
141 484
141 487
141 488
141 489
141 490
141 491
141 494
141 495
141 503
141 504
141 511
141 515
141 516
141 518
141 520
141 523
141 527
141 528
141 532
141 533
141 536
141 538
141 540
141 543
141 547
141 548
141 549
141 550
141 551
141 552
141 554
141 555
141 556
141 557
141 558
141 559
141 560
141 561
141 562
141 563
141 564
141 565
141 566
141 568
141 569
141 570
141 571
141 572
141 573
141 574
141 575
141 576
141 577
141 578
141 579
142 143
142 144
142 145
142 146
142 147
142 148
142 149
142 151
142 152
142 156
142 159
142 161
142 163
142 164
142 165
142 166
142 167
142 168
142 169
142 170
142 171
142 172
142 173
142 175
142 176
142 177
142 178
142 179
142 180
142 181
142 182
142 183
142 184
142 185
142 186
142 187
142 188
142 189
142 191
142 192
142 193
142 194
142 195
142 196
142 197
142 198
142 199
142 200
142 201
142 202
142 204
142 205
142 206
142 207
142 208
142 209
142 210
142 211
142 212
142 213
142 214
142 221
142 224
142 226
142 230
142 231
142 232
142 233
142 243
142 244
142 245
142 246
142 247
142 248
142 249
142 250
142 251
142 252
142 254
142 255
142 256
142 257
142 258
142 259
142 260
142 261
142 262
142 263
142 264
142 265
142 266
142 267
142 268
142 269
142 271
142 272
142 273
142 274
142 275
142 276
142 277
142 278
142 279
142 280
142 281
142 285
142 286
142 292
142 295
142 296
142 297
142 298
142 302
142 303
142 306
142 308
142 311
142 313
142 317
142 320
142 325
142 326
142 329
142 332
142 333
142 334
142 335
142 336
142 337
142 339
142 340
142 341
142 342
142 343
142 344
142 345
142 346
142 347
142 348
142 349
142 350
142 351
142 355
142 356
142 358
142 362
142 366
142 367
142 368
142 369
142 370
142 372
142 373
142 374
142 375
142 376
142 377
142 378
142 379
142 380
142 381
142 382
142 383
142 384
142 392
142 393
142 396
142 397
142 398
142 399
142 400
142 401
142 402
142 403
142 405
142 406
142 407
142 408
142 409
142 410
142 411
142 414
142 417
142 421
142 425
142 426
142 427
142 428
142 429
142 430
142 432
142 433
142 434
142 435
142 436
142 437
142 438
142 439
142 440
142 441
142 443
142 449
142 451
142 455
142 456
142 457
142 461
142 462
142 466
142 469
142 471
142 472
142 474
142 479
142 481
142 484
142 487
142 488
142 489
142 490
142 491
142 494
142 495
142 503
142 504
142 511
142 515
142 516
142 518
142 520
142 523
142 527
142 528
142 532
142 533
142 534
142 535
142 537
142 538
142 539
142 540
142 541
142 542
142 543
142 544
142 545
142 546
142 547
142 548
142 551
142 553
142 555
142 557
142 562
142 563
142 564
142 565
142 566
142 567
142 569
142 570
142 571
142 572
142 573
142 574
142 575
142 576
142 577
142 578
142 579
143 144
143 145
143 146
143 147
143 148
143 149
143 151
143 152
143 156
143 159
143 161
143 163
143 164
143 165
143 166
143 167
143 168
143 169
143 170
143 171
143 172
143 173
143 174
143 176
143 177
143 178
143 179
143 180
143 181
143 182
143 184
143 185
143 189
143 190
143 193
143 198
143 201
143 203
143 205
143 207
143 208
143 213
143 214
143 215
143 216
143 217
143 218
143 219
143 220
143 222
143 223
143 224
143 225
143 226
143 227
143 228
143 229
143 230
143 231
143 232
143 233
143 243
143 244
143 245
143 246
143 251
143 253
143 258
143 260
143 261
143 262
143 263
143 264
143 265
143 266
143 267
143 268
143 269
143 270
143 272
143 273
143 274
143 275
143 276
143 277
143 278
143 279
143 280
143 281
143 285
143 286
143 292
143 295
143 296
143 297
143 298
143 299
143 300
143 301
143 302
143 303
143 304
143 305
143 306
143 307
143 309
143 310
143 311
143 312
143 313
143 317
143 320
143 325
143 326
143 329
143 332
143 333
143 334
143 335
143 336
143 337
143 338
143 339
143 340
143 342
143 343
143 344
143 345
143 346
143 347
143 348
143 349
143 350
143 351
143 355
143 356
143 358
143 362
143 366
143 369
143 370
143 371
143 373
143 375
143 380
143 381
143 382
143 383
143 384
143 385
143 386
143 387
143 388
143 389
143 390
143 391
143 393
143 394
143 395
143 396
143 402
143 404
143 406
143 408
143 410
143 411
143 414
143 417
143 421
143 425
143 426
143 427
143 428
143 429
143 430
143 431
143 432
143 433
143 435
143 436
143 437
143 438
143 439
143 440
143 441
143 443
143 449
143 451
143 455
143 456
143 457
143 458
143 459
143 460
143 461
143 462
143 463
143 464
143 465
143 467
143 468
143 469
143 470
143 471
143 472
143 474
143 479
143 481
143 484
143 487
143 488
143 489
143 490
143 491
143 494
143 495
143 503
143 504
143 511
143 515
143 516
143 518
143 519
143 520
143 521
143 522
143 524
143 525
143 526
143 527
143 528
143 529
143 530
143 531
143 532
143 533
143 534
143 535
143 536
143 537
143 539
143 540
143 541
143 542
143 543
143 544
143 545
143 546
143 547
143 548
143 549
143 550
143 551
143 552
143 553
143 554
143 556
143 557
143 558
143 559
143 560
143 561
143 562
143 563
143 564
143 565
143 566
143 567
143 568
143 570
143 571
143 572
143 573
143 574
143 575
143 576
143 577
143 578
143 579
144 145
144 146
144 147
144 148
144 149
144 150
144 151
144 152
144 153
144 154
144 155
144 156
144 157
144 158
144 160
144 161
144 162
144 163
144 164
144 165
144 171
144 172
144 174
144 175
144 177
144 179
144 181
144 182
144 183
144 184
144 185
144 186
144 187
144 188
144 189
144 190
144 191
144 192
144 194
144 195
144 196
144 197
144 198
144 199
144 200
144 201
144 202
144 203
144 204
144 206
144 207
144 208
144 209
144 210
144 211
144 212
144 213
144 214
144 215
144 216
144 217
144 218
144 219
144 220
144 221
144 222
144 223
144 225
144 226
144 227
144 228
144 229
144 230
144 231
144 232
144 233
144 243
144 244
144 245
144 246
144 251
144 253
144 258
144 260
144 261
144 265
144 270
144 271
144 274
144 276
144 277
144 279
144 280
144 281
144 285
144 286
144 292
144 295
144 296
144 297
144 298
144 302
144 303
144 306
144 308
144 311
144 313
144 314
144 315
144 316
144 317
144 318
144 319
144 320
144 321
144 322
144 323
144 324
144 326
144 327
144 328
144 329
144 330
144 331
144 332
144 333
144 334
144 335
144 336
144 337
144 338
144 339
144 340
144 341
144 342
144 344
144 345
144 346
144 347
144 348
144 349
144 350
144 351
144 352
144 353
144 354
144 355
144 356
144 357
144 358
144 359
144 360
144 361
144 363
144 364
144 365
144 366
144 367
144 368
144 369
144 370
144 371
144 372
144 374
144 375
144 376
144 377
144 378
144 379
144 380
144 381
144 382
144 383
144 384
144 385
144 386
144 387
144 388
144 389
144 390
144 391
144 392
144 394
144 395
144 396
144 397
144 398
144 399
144 400
144 401
144 402
144 403
144 404
144 405
144 407
144 408
144 409
144 410
144 411
144 412
144 413
144 414
144 415
144 416
144 418
144 419
144 420
144 421
144 422
144 423
144 424
144 425
144 426
144 429
144 431
144 434
144 438
144 440
144 441
144 443
144 449
144 451
144 455
144 456
144 457
144 461
144 462
144 466
144 469
144 471
144 472
144 473
144 474
144 475
144 476
144 477
144 478
144 480
144 481
144 482
144 483
144 484
144 485
144 486
144 487
144 488
144 489
144 490
144 491
144 494
144 495
144 503
144 504
144 511
144 515
144 516
144 518
144 520
144 523
144 527
144 528
144 532
144 533
144 536
144 538
144 540
144 543
144 547
144 548
144 551
144 553
144 555
144 557
144 562
144 563
144 567
144 568
144 569
144 573
144 576
145 146
145 147
145 148
145 149
145 151
145 152
145 156
145 159
145 161
145 163
145 164
145 165
145 166
145 167
145 168
145 169
145 170
145 171
145 172
145 173
145 174
145 175
145 176
145 178
145 179
145 180
145 181
145 182
145 184
145 185
145 189
145 190
145 193
145 198
145 201
145 203
145 205
145 207
145 208
145 213
145 214
145 215
145 216
145 217
145 218
145 219
145 220
145 221
145 222
145 223
145 224
145 225
145 227
145 228
145 229
145 230
145 231
145 232
145 233
145 243
145 244
145 245
145 246
145 251
145 253
145 258
145 260
145 261
145 262
145 263
145 264
145 265
145 266
145 267
145 268
145 269
145 270
145 271
145 272
145 273
145 275
145 276
145 277
145 278
145 279
145 280
145 281
145 282
145 283
145 284
145 285
145 286
145 287
145 288
145 289
145 290
145 291
145 293
145 294
145 295
145 296
145 297
145 298
145 302
145 303
145 306
145 308
145 311
145 313
145 314
145 315
145 316
145 317
145 318
145 319
145 320
145 321
145 322
145 323
145 324
145 325
145 327
145 328
145 329
145 330
145 331
145 332
145 333
145 335
145 336
145 338
145 341
145 343
145 346
145 349
145 350
145 351
145 355
145 356
145 358
145 362
145 366
145 367
145 368
145 369
145 370
145 371
145 372
145 373
145 374
145 376
145 377
145 378
145 379
145 380
145 381
145 382
145 383
145 384
145 392
145 393
145 396
145 402
145 404
145 406
145 408
145 410
145 411
145 414
145 417
145 421
145 425
145 426
145 429
145 431
145 434
145 438
145 440
145 441
145 442
145 443
145 444
145 445
145 446
145 447
145 448
145 450
145 451
145 452
145 453
145 454
145 455
145 456
145 457
145 461
145 462
145 466
145 469
145 471
145 472
145 473
145 474
145 475
145 476
145 477
145 478
145 479
145 480
145 482
145 483
145 484
145 485
145 486
145 487
145 488
145 489
145 490
145 491
145 494
145 495
145 503
145 504
145 505
145 506
145 507
145 508
145 509
145 510
145 512
145 513
145 514
145 515
145 516
145 517
145 518
145 520
145 523
145 527
145 528
145 532
145 533
145 534
145 535
145 536
145 537
145 538
145 539
145 541
145 542
145 543
145 544
145 545
145 546
145 547
145 548
145 549
145 550
145 551
145 552
145 553
145 554
145 555
145 556
145 558
145 559
145 560
145 561
145 562
145 563
145 564
145 565
145 566
145 567
145 568
145 569
145 570
145 571
145 572
145 574
145 575
145 576
145 577
145 578
145 579
146 147
146 148
146 149
146 150
146 151
146 152
146 153
146 154
146 155
146 156
146 157
146 158
146 159
146 160
146 162
146 163
146 164
146 165
146 171
146 172
146 174
146 175
146 177
146 179
146 181
146 182
146 184
146 185
146 189
146 190
146 193
146 198
146 199
146 200
146 201
146 202
146 203
146 204
146 205
146 206
146 208
146 209
146 210
146 211
146 212
146 213
146 214
146 221
146 224
146 226
146 230
146 231
146 232
146 233
146 243
146 244
146 245
146 246
146 251
146 253
146 258
146 260
146 261
146 262
146 263
146 264
146 265
146 266
146 267
146 268
146 269
146 270
146 271
146 272
146 273
146 274
146 275
146 277
146 278
146 279
146 280
146 281
146 285
146 286
146 292
146 295
146 296
146 297
146 298
146 299
146 300
146 301
146 302
146 303
146 304
146 305
146 306
146 307
146 308
146 309
146 310
146 312
146 313
146 317
146 320
146 325
146 326
146 329
146 332
146 333
146 334
146 335
146 336
146 337
146 338
146 339
146 340
146 341
146 342
146 343
146 344
146 345
146 347
146 348
146 349
146 350
146 351
146 355
146 356
146 358
146 362
146 366
146 369
146 370
146 371
146 373
146 375
146 380
146 381
146 382
146 383
146 384
146 392
146 393
146 396
146 397
146 398
146 399
146 400
146 401
146 402
146 403
146 404
146 405
146 406
146 407
146 409
146 410
146 411
146 414
146 417
146 421
146 425
146 426
146 427
146 428
146 429
146 430
146 431
146 432
146 433
146 434
146 435
146 436
146 437
146 439
146 440
146 441
146 443
146 449
146 451
146 455
146 456
146 457
146 461
146 462
146 466
146 469
146 471
146 472
146 473
146 474
146 475
146 476
146 477
146 478
146 479
146 480
146 481
146 482
146 483
146 485
146 486
146 487
146 488
146 489
146 490
146 491
146 494
146 495
146 503
146 504
146 505
146 506
146 507
146 508
146 509
146 510
146 511
146 512
146 513
146 514
146 516
146 517
146 518
146 519
146 520
146 521
146 522
146 523
146 524
146 525
146 526
146 528
146 529
146 530
146 531
146 532
146 533
146 536
146 538
146 540
146 543
146 547
146 548
146 551
146 553
146 555
146 557
146 562
146 563
146 564
146 565
146 566
146 567
146 568
146 569
146 570
146 571
146 572
146 573
146 574
146 575
146 577
146 578
146 579
147 148
147 149
147 151
147 152
147 156
147 159
147 161
147 163
147 164
147 165
147 166
147 167
147 168
147 169
147 170
147 171
147 172
147 173
147 174
147 175
147 176
147 177
147 178
147 180
147 181
147 182
147 184
147 185
147 189
147 190
147 193
147 198
147 199
147 200
147 201
147 202
147 203
147 204
147 205
147 206
147 207
147 209
147 210
147 211
147 212
147 213
147 214
147 221
147 224
147 226
147 230
147 231
147 232
147 233
147 234
147 235
147 236
147 237
147 238
147 239
147 240
147 241
147 242
147 244
147 245
147 246
147 247
147 248
147 249
147 250
147 251
147 252
147 253
147 254
147 255
147 256
147 257
147 259
147 260
147 261
147 262
147 263
147 264
147 265
147 266
147 267
147 268
147 269
147 270
147 271
147 272
147 273
147 274
147 275
147 276
147 278
147 279
147 280
147 281
147 285
147 286
147 292
147 295
147 296
147 297
147 298
147 302
147 303
147 306
147 308
147 311
147 313
147 314
147 315
147 316
147 317
147 318
147 319
147 320
147 321
147 322
147 323
147 324
147 325
147 326
147 327
147 328
147 330
147 331
147 332
147 333
147 335
147 336
147 338
147 341
147 343
147 346
147 349
147 350
147 351
147 355
147 356
147 358
147 362
147 366
147 369
147 370
147 371
147 373
147 375
147 380
147 381
147 382
147 383
147 384
147 392
147 393
147 396
147 402
147 404
147 406
147 408
147 410
147 411
147 412
147 413
147 414
147 415
147 416
147 417
147 418
147 419
147 420
147 422
147 423
147 424
147 425
147 426
147 429
147 431
147 434
147 438
147 440
147 441
147 442
147 443
147 444
147 445
147 446
147 447
147 448
147 449
147 450
147 452
147 453
147 454
147 455
147 456
147 457
147 458
147 459
147 460
147 461
147 462
147 463
147 464
147 465
147 466
147 467
147 468
147 470
147 471
147 472
147 474
147 479
147 481
147 484
147 487
147 488
147 489
147 490
147 491
147 494
147 495
147 503
147 504
147 505
147 506
147 507
147 508
147 509
147 510
147 511
147 512
147 513
147 514
147 515
147 517
147 518
147 519
147 520
147 521
147 522
147 523
147 524
147 525
147 526
147 527
147 529
147 530
147 531
147 532
147 533
147 534
147 535
147 536
147 537
147 538
147 539
147 540
147 541
147 542
147 544
147 545
147 546
147 547
147 548
147 551
147 553
147 555
147 557
147 562
147 563
147 567
147 568
147 569
147 573
147 576
148 149
148 150
148 151
148 152
148 153
148 154
148 155
148 156
148 157
148 158
148 159
148 160
148 161
148 162
148 164
148 165
148 171
148 172
148 174
148 175
148 177
148 179
148 181
148 182
148 184
148 185
148 189
148 190
148 193
148 198
148 201
148 203
148 205
148 207
148 208
148 213
148 214
148 221
148 224
148 226
148 230
148 231
148 232
148 233
148 234
148 235
148 236
148 237
148 238
148 239
148 240
148 241
148 242
148 243
148 245
148 246
148 251
148 253
148 258
148 260
148 261
148 265
148 270
148 271
148 274
148 276
148 277
148 279
148 280
148 281
148 282
148 283
148 284
148 285
148 286
148 287
148 288
148 289
148 290
148 291
148 292
148 293
148 294
148 296
148 297
148 298
148 302
148 303
148 306
148 308
148 311
148 313
148 317
148 320
148 325
148 326
148 329
148 332
148 333
148 335
148 336
148 338
148 341
148 343
148 346
148 349
148 350
148 351
148 355
148 356
148 358
148 362
148 366
148 367
148 368
148 369
148 370
148 371
148 372
148 373
148 374
148 375
148 376
148 377
148 378
148 379
148 381
148 382
148 383
148 384
148 392
148 393
148 396
148 397
148 398
148 399
148 400
148 401
148 402
148 403
148 404
148 405
148 406
148 407
148 408
148 409
148 411
148 412
148 413
148 414
148 415
148 416
148 417
148 418
148 419
148 420
148 421
148 422
148 423
148 424
148 426
148 427
148 428
148 429
148 430
148 431
148 432
148 433
148 434
148 435
148 436
148 437
148 438
148 439
148 441
148 442
148 443
148 444
148 445
148 446
148 447
148 448
148 449
148 450
148 451
148 452
148 453
148 454
148 456
148 457
148 461
148 462
148 466
148 469
148 471
148 472
148 473
148 474
148 475
148 476
148 477
148 478
148 479
148 480
148 481
148 482
148 483
148 484
148 485
148 486
148 488
148 489
148 490
148 491
148 494
148 495
148 503
148 504
148 511
148 515
148 516
148 518
148 519
148 520
148 521
148 522
148 523
148 524
148 525
148 526
148 527
148 528
148 529
148 530
148 531
148 533
148 534
148 535
148 536
148 537
148 538
148 539
148 540
148 541
148 542
148 543
148 544
148 545
148 546
148 548
148 549
148 550
148 551
148 552
148 553
148 554
148 555
148 556
148 557
148 558
148 559
148 560
148 561
148 563
148 567
148 568
148 569
148 573
148 576
149 150
149 151
149 152
149 153
149 154
149 155
149 156
149 157
149 158
149 159
149 160
149 161
149 162
149 163
149 165
149 166
149 167
149 168
149 169
149 170
149 171
149 172
149 173
149 174
149 175
149 176
149 177
149 178
149 179
149 180
149 184
149 185
149 186
149 187
149 188
149 189
149 192
149 193
149 199
149 201
149 202
149 205
149 207
149 210
149 217
149 218
149 219
149 223
149 224
149 230
149 231
149 233
149 234
149 235
149 236
149 237
149 238
149 239
149 240
149 241
149 242
149 243
149 244
149 249
149 250
149 251
149 252
149 260
149 262
149 263
149 264
149 265
149 266
149 267
149 268
149 269
149 270
149 271
149 272
149 273
149 274
149 275
149 276
149 277
149 278
149 285
149 286
149 287
149 288
149 289
149 295
149 296
149 297
149 299
149 300
149 301
149 302
149 303
149 304
149 305
149 306
149 307
149 308
149 309
149 310
149 311
149 312
149 314
149 317
149 318
149 319
149 320
149 324
149 325
149 328
149 330
149 335
149 336
149 337
149 343
149 344
149 346
149 347
149 349
149 351
149 352
149 353
149 354
149 355
149 356
149 357
149 358
149 359
149 360
149 361
149 362
149 363
149 364
149 365
149 367
149 369
149 370
149 372
149 373
149 377
149 380
149 381
149 382
149 384
149 385
149 386
149 387
149 388
149 389
149 390
149 391
149 392
149 393
149 394
149 395
149 397
149 402
149 403
149 406
149 408
149 410
149 412
149 413
149 414
149 415
149 416
149 417
149 418
149 419
149 420
149 421
149 422
149 423
149 424
149 425
149 427
149 429
149 430
149 436
149 438
149 440
149 443
149 444
149 445
149 452
149 455
149 461
149 462
149 463
149 464
149 468
149 474
149 475
149 476
149 478
149 479
149 483
149 484
149 487
149 488
149 489
149 490
149 492
149 493
149 494
149 495
149 496
149 497
149 498
149 499
149 500
149 501
149 502
149 507
149 508
149 513
149 515
149 520
149 521
149 522
149 524
149 525
149 527
149 530
149 532
149 535
149 539
149 542
149 547
149 549
149 551
149 552
149 553
149 559
149 562
149 564
149 565
149 566
149 567
149 568
149 569
149 570
149 571
149 572
149 573
149 574
149 575
149 576
149 577
149 578
149 579
150 151
150 152
150 153
150 154
150 155
150 156
150 157
150 158
150 159
150 160
150 161
150 162
150 163
150 164
150 165
150 167
150 168
150 169
150 170
150 171
150 172
150 173
150 174
150 175
150 176
150 177
150 178
150 179
150 180
150 184
150 185
150 186
150 187
150 188
150 189
150 192
150 193
150 198
150 200
150 201
150 202
150 203
150 204
150 205
150 206
150 207
150 208
150 209
150 210
150 211
150 212
150 217
150 218
150 219
150 223
150 224
150 230
150 231
150 232
150 233
150 235
150 236
150 237
150 238
150 239
150 240
150 241
150 242
150 243
150 244
150 249
150 250
150 251
150 252
150 260
150 261
150 263
150 264
150 265
150 266
150 267
150 268
150 269
150 270
150 271
150 272
150 273
150 274
150 275
150 276
150 277
150 278
150 285
150 286
150 287
150 288
150 289
150 295
150 298
150 302
150 303
150 304
150 305
150 306
150 309
150 311
150 312
150 313
150 315
150 316
150 317
150 318
150 319
150 320
150 321
150 322
150 323
150 324
150 325
150 326
150 327
150 328
150 329
150 330
150 331
150 335
150 336
150 337
150 343
150 344
150 346
150 347
150 350
150 355
150 356
150 357
150 358
150 359
150 362
150 364
150 366
150 368
150 369
150 370
150 371
150 372
150 373
150 374
150 375
150 376
150 377
150 378
150 379
150 380
150 381
150 382
150 383
150 384
150 386
150 387
150 388
150 389
150 390
150 391
150 392
150 393
150 394
150 395
150 396
150 398
150 399
150 400
150 401
150 402
150 403
150 404
150 405
150 406
150 407
150 408
150 409
150 410
150 411
150 413
150 414
150 417
150 419
150 423
150 425
150 426
150 428
150 429
150 430
150 431
150 432
150 433
150 434
150 435
150 436
150 437
150 438
150 439
150 440
150 443
150 444
150 445
150 452
150 455
150 461
150 462
150 463
150 464
150 468
150 474
150 475
150 476
150 478
150 479
150 483
150 484
150 487
150 488
150 489
150 490
150 491
150 493
150 494
150 495
150 496
150 497
150 498
150 499
150 500
150 501
150 502
150 507
150 508
150 513
150 515
150 520
150 521
150 522
150 524
150 525
150 527
150 530
150 532
150 535
150 539
150 542
150 547
150 548
150 550
150 551
150 552
150 553
150 554
150 555
150 556
150 557
150 558
150 559
150 560
150 561
150 562
150 563
150 566
150 567
150 571
150 576
150 577
151 152
151 153
151 154
151 155
151 156
151 157
151 158
151 159
151 160
151 161
151 162
151 163
151 164
151 166
151 171
151 172
151 173
151 176
151 181
151 182
151 183
151 185
151 186
151 187
151 188
151 189
151 190
151 191
151 192
151 193
151 194
151 195
151 196
151 197
151 199
151 201
151 202
151 205
151 207
151 210
151 217
151 218
151 219
151 223
151 224
151 232
151 234
151 237
151 238
151 244
151 249
151 250
151 251
151 252
151 260
151 261
151 262
151 263
151 264
151 266
151 267
151 268
151 269
151 270
151 271
151 272
151 273
151 274
151 275
151 276
151 277
151 278
151 279
151 280
151 281
151 282
151 283
151 284
151 286
151 287
151 288
151 289
151 290
151 291
151 292
151 293
151 294
151 295
151 296
151 297
151 298
151 299
151 300
151 301
151 303
151 304
151 305
151 306
151 307
151 308
151 309
151 310
151 311
151 312
151 313
151 314
151 315
151 316
151 318
151 319
151 320
151 321
151 322
151 323
151 324
151 325
151 326
151 327
151 328
151 329
151 330
151 331
151 332
151 333
151 334
151 336
151 337
151 338
151 339
151 340
151 341
151 342
151 343
151 344
151 345
151 346
151 347
151 348
151 349
151 350
151 351
151 352
151 353
151 354
151 356
151 357
151 358
151 359
151 360
151 361
151 362
151 363
151 364
151 365
151 367
151 369
151 370
151 372
151 373
151 377
151 380
151 383
151 385
151 389
151 390
151 391
151 393
151 395
151 396
151 397
151 398
151 399
151 400
151 401
151 403
151 404
151 405
151 406
151 407
151 408
151 409
151 410
151 411
151 413
151 414
151 417
151 419
151 423
151 425
151 427
151 429
151 430
151 436
151 438
151 440
151 443
151 444
151 445
151 452
151 455
151 456
151 457
151 458
151 459
151 460
151 462
151 463
151 464
151 465
151 466
151 467
151 468
151 469
151 470
151 471
151 472
151 473
151 475
151 476
151 477
151 478
151 479
151 480
151 481
151 482
151 483
151 484
151 485
151 486
151 487
151 488
151 489
151 490
151 491
151 492
151 493
151 495
151 496
151 497
151 498
151 499
151 500
151 501
151 502
151 507
151 508
151 513
151 515
151 518
151 519
151 521
151 522
151 523
151 524
151 525
151 526
151 527
151 528
151 529
151 530
151 531
151 532
151 535
151 539
151 542
151 547
151 548
151 549
151 550
151 552
151 553
151 554
151 555
151 556
151 557
151 558
151 559
151 560
151 561
151 562
151 563
151 566
151 567
151 571
151 576
151 577
152 153
152 154
152 155
152 156
152 157
152 158
152 159
152 160
152 161
152 162
152 163
152 164
152 165
152 166
152 167
152 168
152 169
152 170
152 172
152 173
152 174
152 175
152 176
152 177
152 178
152 179
152 180
152 181
152 182
152 183
152 184
152 186
152 187
152 188
152 189
152 190
152 191
152 192
152 193
152 194
152 195
152 196
152 197
152 198
152 199
152 200
152 202
152 203
152 204
152 205
152 206
152 207
152 208
152 209
152 210
152 211
152 212
152 217
152 218
152 219
152 223
152 224
152 232
152 234
152 237
152 238
152 244
152 249
152 250
152 251
152 252
152 261
152 262
152 265
152 266
152 267
152 268
152 269
152 273
152 275
152 276
152 279
152 280
152 281
152 282
152 283
152 284
152 285
152 287
152 288
152 289
152 290
152 291
152 292
152 293
152 294
152 295
152 296
152 297
152 298
152 299
152 300
152 301
152 302
152 304
152 305
152 306
152 307
152 308
152 309
152 310
152 311
152 312
152 314
152 317
152 318
152 319
152 320
152 324
152 325
152 328
152 330
152 335
152 336
152 337
152 343
152 344
152 346
152 347
152 349
152 350
152 351
152 352
152 353
152 354
152 355
152 357
152 358
152 359
152 360
152 361
152 362
152 363
152 364
152 365
152 366
152 367
152 368
152 370
152 371
152 372
152 373
152 374
152 375
152 376
152 377
152 378
152 379
152 380
152 383
152 385
152 389
152 390
152 391
152 393
152 395
152 397
152 402
152 403
152 406
152 408
152 410
152 411
152 413
152 414
152 417
152 419
152 423
152 425
152 426
152 427
152 428
152 430
152 431
152 432
152 433
152 434
152 435
152 436
152 437
152 438
152 439
152 440
152 441
152 442
152 444
152 445
152 446
152 447
152 448
152 449
152 450
152 451
152 452
152 453
152 454
152 455
152 456
152 457
152 458
152 459
152 460
152 461
152 463
152 464
152 465
152 466
152 467
152 468
152 469
152 470
152 474
152 475
152 476
152 478
152 479
152 483
152 484
152 487
152 488
152 489
152 490
152 491
152 492
152 493
152 494
152 496
152 497
152 498
152 499
152 500
152 501
152 502
152 507
152 508
152 513
152 515
152 520
152 521
152 522
152 524
152 525
152 527
152 530
152 532
152 535
152 539
152 542
152 547
152 549
152 551
152 552
152 553
152 559
152 562
152 563
152 566
152 567
152 571
152 576
152 577
153 154
153 155
153 156
153 157
153 158
153 159
153 160
153 161
153 162
153 163
153 164
153 166
153 171
153 172
153 173
153 176
153 181
153 182
153 183
153 184
153 185
153 187
153 188
153 189
153 190
153 191
153 192
153 193
153 194
153 195
153 196
153 197
153 199
153 201
153 202
153 205
153 207
153 210
153 213
153 214
153 215
153 216
153 218
153 219
153 220
153 221
153 222
153 223
153 224
153 225
153 226
153 227
153 228
153 229
153 230
153 231
153 232
153 233
153 234
153 235
153 236
153 238
153 239
153 240
153 241
153 242
153 243
153 244
153 249
153 250
153 251
153 252
153 260
153 261
153 262
153 263
153 264
153 265
153 267
153 268
153 269
153 270
153 271
153 272
153 273
153 274
153 275
153 276
153 277
153 278
153 279
153 280
153 281
153 282
153 283
153 284
153 285
153 286
153 288
153 289
153 290
153 291
153 292
153 293
153 294
153 295
153 298
153 302
153 303
153 304
153 305
153 306
153 309
153 311
153 312
153 314
153 317
153 318
153 319
153 320
153 324
153 325
153 328
153 330
153 335
153 336
153 337
153 343
153 344
153 346
153 347
153 350
153 355
153 356
153 357
153 358
153 359
153 362
153 364
153 367
153 369
153 370
153 372
153 373
153 377
153 380
153 381
153 382
153 383
153 384
153 385
153 386
153 387
153 388
153 390
153 391
153 392
153 393
153 394
153 395
153 397
153 402
153 403
153 406
153 408
153 410
153 411
153 412
153 414
153 415
153 416
153 417
153 418
153 419
153 420
153 421
153 422
153 423
153 424
153 425
153 427
153 429
153 430
153 436
153 438
153 440
153 443
153 444
153 445
153 452
153 455
153 456
153 457
153 458
153 459
153 460
153 461
153 462
153 464
153 465
153 466
153 467
153 468
153 469
153 470
153 474
153 475
153 476
153 478
153 479
153 483
153 484
153 487
153 491
153 492
153 494
153 495
153 496
153 497
153 499
153 503
153 504
153 505
153 506
153 508
153 509
153 510
153 511
153 512
153 513
153 514
153 515
153 516
153 517
153 520
153 521
153 522
153 524
153 525
153 527
153 530
153 532
153 535
153 539
153 542
153 547
153 548
153 549
153 550
153 551
153 553
153 554
153 555
153 556
153 557
153 558
153 559
153 560
153 561
153 562
153 563
153 566
153 567
153 571
153 576
153 577
154 155
154 156
154 157
154 158
154 159
154 160
154 161
154 162
154 163
154 164
154 166
154 171
154 172
154 173
154 176
154 181
154 182
154 183
154 184
154 185
154 186
154 188
154 189
154 190
154 191
154 192
154 193
154 194
154 195
154 196
154 197
154 199
154 201
154 202
154 205
154 207
154 210
154 213
154 214
154 215
154 216
154 217
154 219
154 220
154 221
154 222
154 223
154 224
154 225
154 226
154 227
154 228
154 229
154 232
154 234
154 237
154 238
154 244
154 245
154 246
154 247
154 248
154 250
154 251
154 252
154 253
154 254
154 255
154 256
154 257
154 258
154 259
154 260
154 261
154 262
154 263
154 264
154 265
154 266
154 268
154 269
154 270
154 271
154 272
154 273
154 274
154 275
154 276
154 277
154 278
154 279
154 280
154 281
154 282
154 283
154 284
154 285
154 286
154 287
154 289
154 290
154 291
154 292
154 293
154 294
154 295
154 296
154 297
154 298
154 299
154 300
154 301
154 302
154 303
154 305
154 306
154 307
154 308
154 309
154 310
154 311
154 312
154 313
154 314
154 315
154 316
154 317
154 319
154 320
154 321
154 322
154 323
154 324
154 325
154 326
154 327
154 328
154 329
154 330
154 331
154 335
154 336
154 337
154 343
154 344
154 346
154 347
154 350
154 355
154 356
154 357
154 358
154 359
154 362
154 364
154 367
154 369
154 370
154 372
154 373
154 377
154 380
154 383
154 385
154 389
154 390
154 391
154 393
154 395
154 397
154 402
154 403
154 406
154 408
154 410
154 411
154 413
154 414
154 417
154 419
154 423
154 425
154 427
154 429
154 430
154 436
154 438
154 440
154 441
154 442
154 443
154 445
154 446
154 447
154 448
154 449
154 450
154 451
154 452
154 453
154 454
154 455
154 456
154 457
154 458
154 459
154 460
154 461
154 462
154 463
154 465
154 466
154 467
154 468
154 469
154 470
154 474
154 475
154 476
154 478
154 479
154 483
154 484
154 487
154 491
154 492
154 494
154 495
154 496
154 497
154 499
154 507
154 508
154 513
154 515
154 518
154 519
154 520
154 522
154 523
154 524
154 525
154 526
154 527
154 528
154 529
154 530
154 531
154 532
154 535
154 539
154 542
154 547
154 549
154 551
154 552
154 553
154 559
154 562
154 563
154 564
154 565
154 567
154 568
154 569
154 570
154 571
154 572
154 573
154 574
154 575
154 576
154 577
154 578
154 579
155 156
155 157
155 158
155 159
155 160
155 161
155 162
155 163
155 164
155 166
155 171
155 172
155 173
155 176
155 181
155 182
155 183
155 184
155 185
155 186
155 187
155 189
155 190
155 191
155 192
155 193
155 194
155 195
155 196
155 197
155 198
155 199
155 200
155 201
155 203
155 204
155 205
155 206
155 207
155 208
155 209
155 210
155 211
155 212
155 213
155 214
155 215
155 216
155 217
155 218
155 220
155 221
155 222
155 223
155 224
155 225
155 226
155 227
155 228
155 229
155 230
155 231
155 232
155 233
155 234
155 235
155 236
155 237
155 239
155 240
155 241
155 242
155 243
155 244
155 245
155 246
155 247
155 248
155 249
155 251
155 252
155 253
155 254
155 255
155 256
155 257
155 258
155 259
155 260
155 261
155 262
155 263
155 264
155 265
155 266
155 267
155 269
155 270
155 271
155 272
155 273
155 274
155 275
155 276
155 277
155 278
155 279
155 280
155 281
155 282
155 283
155 284
155 285
155 286
155 287
155 288
155 290
155 291
155 292
155 293
155 294
155 295
155 296
155 297
155 298
155 299
155 300
155 301
155 302
155 303
155 304
155 306
155 307
155 308
155 309
155 310
155 311
155 312
155 313
155 314
155 315
155 316
155 317
155 318
155 320
155 321
155 322
155 323
155 324
155 325
155 326
155 327
155 328
155 329
155 330
155 331
155 335
155 336
155 337
155 343
155 344
155 346
155 347
155 349
155 350
155 351
155 352
155 353
155 354
155 355
155 356
155 358
155 359
155 360
155 361
155 362
155 363
155 364
155 365
155 367
155 369
155 370
155 372
155 373
155 377
155 380
155 381
155 382
155 383
155 384
155 385
155 386
155 387
155 388
155 389
155 391
155 392
155 393
155 394
155 395
155 397
155 402
155 403
155 406
155 408
155 410
155 411
155 413
155 414
155 417
155 419
155 423
155 425
155 427
155 429
155 430
155 436
155 438
155 440
155 443
155 444
155 445
155 452
155 455
155 461
155 462
155 463
155 464
155 468
155 471
155 472
155 473
155 474
155 476
155 477
155 478
155 479
155 480
155 481
155 482
155 483
155 484
155 485
155 486
155 487
155 488
155 489
155 490
155 491
155 492
155 493
155 494
155 495
155 497
155 498
155 499
155 500
155 501
155 502
155 503
155 504
155 505
155 506
155 507
155 509
155 510
155 511
155 512
155 513
155 514
155 515
155 516
155 517
155 520
155 521
155 522
155 524
155 525
155 527
155 530
155 532
155 533
155 534
155 536
155 537
155 538
155 539
155 540
155 541
155 542
155 543
155 544
155 545
155 546
155 547
155 549
155 551
155 552
155 553
155 559
155 562
155 563
155 566
155 567
155 571
155 576
155 577
156 157
156 158
156 159
156 160
156 161
156 162
156 163
156 164
156 165
156 166
156 167
156 168
156 169
156 170
156 171
156 173
156 174
156 175
156 176
156 177
156 178
156 179
156 180
156 181
156 182
156 183
156 184
156 185
156 186
156 187
156 188
156 190
156 191
156 192
156 193
156 194
156 195
156 196
156 197
156 199
156 201
156 202
156 205
156 207
156 210
156 217
156 218
156 219
156 223
156 224
156 232
156 234
156 237
156 238
156 244
156 245
156 246
156 247
156 248
156 249
156 250
156 252
156 253
156 254
156 255
156 256
156 257
156 258
156 259
156 261
156 262
156 265
156 266
156 267
156 268
156 269
156 273
156 275
156 276
156 285
156 286
156 287
156 288
156 289
156 295
156 296
156 297
156 298
156 299
156 300
156 301
156 302
156 303
156 304
156 305
156 307
156 308
156 309
156 310
156 311
156 312
156 313
156 314
156 315
156 316
156 317
156 318
156 319
156 321
156 322
156 323
156 324
156 325
156 326
156 327
156 328
156 329
156 330
156 331
156 332
156 333
156 334
156 335
156 337
156 338
156 339
156 340
156 341
156 342
156 343
156 344
156 345
156 346
156 347
156 348
156 349
156 350
156 351
156 352
156 353
156 354
156 355
156 356
156 357
156 359
156 360
156 361
156 362
156 363
156 364
156 365
156 366
156 367
156 368
156 369
156 371
156 372
156 373
156 374
156 375
156 376
156 377
156 378
156 379
156 380
156 383
156 385
156 389
156 390
156 391
156 393
156 395
156 397
156 402
156 403
156 406
156 408
156 410
156 411
156 412
156 413
156 415
156 416
156 417
156 418
156 419
156 420
156 421
156 422
156 423
156 424
156 425
156 427
156 429
156 430
156 436
156 438
156 440
156 443
156 444
156 445
156 452
156 455
156 461
156 462
156 463
156 464
156 468
156 474
156 475
156 476
156 478
156 479
156 483
156 484
156 487
156 491
156 492
156 494
156 495
156 496
156 497
156 499
156 507
156 508
156 513
156 515
156 520
156 521
156 522
156 524
156 525
156 527
156 530
156 532
156 535
156 539
156 542
156 547
156 548
156 549
156 550
156 551
156 552
156 554
156 555
156 556
156 557
156 558
156 559
156 560
156 561
156 562
156 563
156 564
156 565
156 566
156 568
156 569
156 570
156 571
156 572
156 573
156 574
156 575
156 576
156 577
156 578
156 579
157 158
157 159
157 160
157 161
157 162
157 163
157 164
157 165
157 166
157 167
157 168
157 169
157 170
157 171
157 172
157 174
157 175
157 176
157 177
157 178
157 179
157 180
157 184
157 185
157 186
157 187
157 188
157 189
157 192
157 193
157 199
157 201
157 202
157 205
157 207
157 210
157 217
157 218
157 219
157 223
157 224
157 232
157 234
157 237
157 238
157 244
157 245
157 246
157 247
157 248
157 249
157 250
157 251
157 253
157 254
157 255
157 256
157 257
157 258
157 259
157 260
157 261
157 262
157 263
157 264
157 265
157 266
157 267
157 268
157 270
157 271
157 272
157 273
157 274
157 275
157 276
157 277
157 278
157 285
157 286
157 287
157 288
157 289
157 295
157 298
157 302
157 303
157 304
157 305
157 306
157 309
157 311
157 312
157 314
157 317
157 318
157 319
157 320
157 324
157 325
157 328
157 330
157 332
157 333
157 334
157 335
157 336
157 338
157 339
157 340
157 341
157 342
157 343
157 344
157 345
157 346
157 347
157 348
157 349
157 350
157 351
157 352
157 353
157 354
157 355
157 356
157 357
157 358
157 360
157 361
157 362
157 363
157 364
157 365
157 367
157 369
157 370
157 372
157 373
157 377
157 380
157 381
157 382
157 383
157 384
157 385
157 386
157 387
157 388
157 389
157 390
157 392
157 393
157 394
157 395
157 396
157 397
157 398
157 399
157 400
157 401
157 402
157 404
157 405
157 406
157 407
157 408
157 409
157 410
157 411
157 413
157 414
157 417
157 419
157 423
157 425
157 426
157 427
157 428
157 429
157 431
157 432
157 433
157 434
157 435
157 436
157 437
157 438
157 439
157 440
157 441
157 442
157 443
157 444
157 446
157 447
157 448
157 449
157 450
157 451
157 452
157 453
157 454
157 455
157 461
157 462
157 463
157 464
157 468
157 471
157 472
157 473
157 474
157 475
157 477
157 478
157 479
157 480
157 481
157 482
157 483
157 484
157 485
157 486
157 487
157 488
157 489
157 490
157 491
157 492
157 493
157 494
157 495
157 496
157 498
157 499
157 500
157 501
157 502
157 507
157 508
157 513
157 515
157 518
157 519
157 520
157 521
157 523
157 524
157 525
157 526
157 527
157 528
157 529
157 530
157 531
157 532
157 535
157 539
157 542
157 547
157 549
157 551
157 552
157 553
157 559
157 562
157 563
157 566
157 567
157 571
157 576
157 577
158 159
158 160
158 161
158 162
158 163
158 164
158 165
158 166
158 167
158 168
158 169
158 170
158 171
158 172
158 173
158 174
158 175
158 177
158 178
158 179
158 180
158 181
158 182
158 183
158 184
158 185
158 186
158 187
158 188
158 189
158 190
158 191
158 193
158 194
158 195
158 196
158 197
158 199
158 201
158 202
158 205
158 207
158 210
158 213
158 214
158 215
158 216
158 217
158 218
158 219
158 220
158 221
158 222
158 224
158 225
158 226
158 227
158 228
158 229
158 232
158 234
158 237
158 238
158 244
158 249
158 250
158 251
158 252
158 260
158 261
158 262
158 263
158 264
158 265
158 266
158 267
158 268
158 269
158 270
158 271
158 272
158 274
158 275
158 276
158 277
158 278
158 285
158 286
158 287
158 288
158 289
158 295
158 296
158 297
158 298
158 299
158 300
158 301
158 302
158 303
158 304
158 305
158 306
158 307
158 308
158 310
158 311
158 312
158 313
158 314
158 315
158 316
158 317
158 318
158 319
158 320
158 321
158 322
158 323
158 325
158 326
158 327
158 328
158 329
158 330
158 331
158 335
158 336
158 337
158 343
158 344
158 346
158 347
158 350
158 355
158 356
158 357
158 358
158 359
158 362
158 364
158 366
158 367
158 368
158 369
158 370
158 371
158 373
158 374
158 375
158 376
158 377
158 378
158 379
158 380
158 383
158 385
158 389
158 390
158 391
158 393
158 395
158 397
158 402
158 403
158 406
158 408
158 410
158 411
158 413
158 414
158 417
158 419
158 423
158 425
158 426
158 427
158 428
158 429
158 430
158 431
158 432
158 433
158 434
158 435
158 437
158 438
158 439
158 440
158 443
158 444
158 445
158 452
158 455
158 461
158 462
158 463
158 464
158 468
158 471
158 472
158 473
158 474
158 475
158 476
158 477
158 479
158 480
158 481
158 482
158 483
158 484
158 485
158 486
158 487
158 488
158 489
158 490
158 491
158 492
158 493
158 494
158 495
158 496
158 497
158 498
158 500
158 501
158 502
158 507
158 508
158 513
158 515
158 518
158 519
158 520
158 521
158 522
158 523
158 525
158 526
158 527
158 528
158 529
158 530
158 531
158 532
158 533
158 534
158 535
158 536
158 537
158 538
158 540
158 541
158 542
158 543
158 544
158 545
158 546
158 547
158 549
158 551
158 552
158 553
158 559
158 562
158 563
158 564
158 565
158 566
158 567
158 568
158 569
158 570
158 572
158 573
158 574
158 575
158 576
158 577
158 578
158 579
159 160
159 161
159 162
159 163
159 164
159 166
159 171
159 172
159 173
159 176
159 181
159 182
159 183
159 184
159 185
159 186
159 187
159 188
159 189
159 190
159 191
159 192
159 194
159 195
159 196
159 197
159 198
159 199
159 200
159 201
159 202
159 203
159 204
159 206
159 207
159 208
159 209
159 210
159 211
159 212
159 213
159 214
159 215
159 216
159 217
159 218
159 219
159 220
159 221
159 222
159 223
159 225
159 226
159 227
159 228
159 229
159 232
159 234
159 237
159 238
159 244
159 249
159 250
159 251
159 252
159 261
159 262
159 265
159 266
159 267
159 268
159 269
159 273
159 275
159 276
159 285
159 286
159 287
159 288
159 289
159 295
159 298
159 302
159 303
159 304
159 305
159 306
159 309
159 311
159 312
159 313
159 314
159 315
159 316
159 317
159 318
159 319
159 320
159 321
159 322
159 323
159 324
159 326
159 327
159 328
159 329
159 330
159 331
159 332
159 333
159 334
159 335
159 336
159 337
159 338
159 339
159 340
159 341
159 342
159 344
159 345
159 346
159 347
159 348
159 349
159 350
159 351
159 352
159 353
159 354
159 355
159 356
159 357
159 358
159 359
159 360
159 361
159 363
159 364
159 365
159 366
159 367
159 368
159 369
159 370
159 371
159 372
159 374
159 375
159 376
159 377
159 378
159 379
159 380
159 381
159 382
159 383
159 384
159 385
159 386
159 387
159 388
159 389
159 390
159 391
159 392
159 394
159 395
159 396
159 397
159 398
159 399
159 400
159 401
159 402
159 403
159 404
159 405
159 407
159 408
159 409
159 410
159 411
159 412
159 413
159 414
159 415
159 416
159 418
159 419
159 420
159 421
159 422
159 423
159 424
159 425
159 427
159 429
159 430
159 436
159 438
159 440
159 443
159 444
159 445
159 452
159 455
159 461
159 462
159 463
159 464
159 468
159 471
159 472
159 473
159 474
159 475
159 476
159 477
159 478
159 480
159 481
159 482
159 483
159 484
159 485
159 486
159 487
159 491
159 492
159 494
159 495
159 496
159 497
159 499
159 507
159 508
159 513
159 515
159 520
159 521
159 522
159 524
159 525
159 527
159 530
159 532
159 535
159 539
159 542
159 547
159 549
159 551
159 552
159 553
159 559
159 562
159 563
159 566
159 567
159 571
159 576
159 577
160 161
160 162
160 163
160 164
160 166
160 171
160 172
160 173
160 176
160 184
160 185
160 186
160 187
160 188
160 189
160 192
160 193
160 199
160 201
160 202
160 205
160 207
160 210
160 217
160 218
160 219
160 223
160 224
160 232
160 234
160 237
160 238
160 244
160 249
160 250
160 251
160 252
160 260
160 261
160 262
160 263
160 264
160 265
160 266
160 267
160 268
160 269
160 270
160 271
160 272
160 273
160 274
160 276
160 277
160 278
160 285
160 286
160 287
160 288
160 289
160 295
160 298
160 302
160 303
160 304
160 305
160 306
160 309
160 311
160 312
160 313
160 314
160 315
160 316
160 317
160 318
160 319
160 320
160 321
160 322
160 323
160 324
160 325
160 326
160 327
160 329
160 330
160 331
160 332
160 333
160 334
160 335
160 336
160 337
160 338
160 339
160 340
160 341
160 342
160 343
160 345
160 346
160 347
160 348
160 349
160 350
160 351
160 352
160 353
160 354
160 355
160 356
160 357
160 358
160 359
160 360
160 361
160 362
160 363
160 365
160 366
160 367
160 368
160 369
160 370
160 371
160 372
160 373
160 374
160 375
160 376
160 378
160 379
160 380
160 383
160 385
160 389
160 390
160 391
160 393
160 395
160 397
160 402
160 403
160 406
160 408
160 410
160 411
160 412
160 413
160 414
160 415
160 416
160 417
160 418
160 420
160 421
160 422
160 423
160 424
160 425
160 427
160 429
160 430
160 436
160 438
160 440
160 443
160 444
160 445
160 452
160 455
160 456
160 457
160 458
160 459
160 460
160 461
160 462
160 463
160 464
160 465
160 466
160 467
160 469
160 470
160 471
160 472
160 473
160 474
160 475
160 476
160 477
160 478
160 479
160 480
160 481
160 482
160 484
160 485
160 486
160 487
160 491
160 492
160 494
160 495
160 496
160 497
160 499
160 503
160 504
160 505
160 506
160 507
160 508
160 509
160 510
160 511
160 512
160 514
160 515
160 516
160 517
160 518
160 519
160 520
160 521
160 522
160 523
160 524
160 526
160 527
160 528
160 529
160 530
160 531
160 532
160 533
160 534
160 535
160 536
160 537
160 538
160 539
160 540
160 541
160 543
160 544
160 545
160 546
160 547
160 549
160 551
160 552
160 553
160 559
160 562
160 563
160 566
160 567
160 571
160 576
160 577
161 162
161 163
161 164
161 166
161 171
161 172
161 173
161 176
161 184
161 185
161 186
161 187
161 188
161 189
161 192
161 193
161 198
161 199
161 200
161 201
161 202
161 203
161 204
161 205
161 206
161 208
161 209
161 210
161 211
161 212
161 217
161 218
161 219
161 223
161 224
161 232
161 234
161 237
161 238
161 244
161 249
161 250
161 251
161 252
161 260
161 261
161 262
161 263
161 264
161 265
161 266
161 267
161 268
161 269
161 270
161 271
161 272
161 273
161 274
161 275
161 277
161 278
161 285
161 286
161 287
161 288
161 289
161 295
161 296
161 297
161 298
161 299
161 300
161 301
161 302
161 303
161 304
161 305
161 306
161 307
161 308
161 309
161 310
161 312
161 314
161 317
161 318
161 319
161 320
161 324
161 325
161 328
161 330
161 332
161 333
161 334
161 335
161 336
161 337
161 338
161 339
161 340
161 341
161 342
161 343
161 344
161 345
161 347
161 348
161 350
161 355
161 356
161 357
161 358
161 359
161 362
161 364
161 367
161 369
161 370
161 372
161 373
161 377
161 380
161 383
161 385
161 389
161 390
161 391
161 393
161 395
161 396
161 397
161 398
161 399
161 400
161 401
161 402
161 403
161 404
161 405
161 406
161 407
161 409
161 410
161 411
161 413
161 414
161 417
161 419
161 423
161 425
161 426
161 427
161 428
161 429
161 430
161 431
161 432
161 433
161 434
161 435
161 436
161 437
161 439
161 440
161 443
161 444
161 445
161 452
161 455
161 461
161 462
161 463
161 464
161 468
161 471
161 472
161 473
161 474
161 475
161 476
161 477
161 478
161 479
161 480
161 481
161 482
161 483
161 485
161 486
161 487
161 491
161 492
161 494
161 495
161 496
161 497
161 499
161 503
161 504
161 505
161 506
161 507
161 508
161 509
161 510
161 511
161 512
161 513
161 514
161 516
161 517
161 518
161 519
161 520
161 521
161 522
161 523
161 524
161 525
161 526
161 528
161 529
161 530
161 531
161 532
161 535
161 539
161 542
161 547
161 549
161 551
161 552
161 553
161 559
161 562
161 563
161 564
161 565
161 566
161 567
161 568
161 569
161 570
161 571
161 572
161 573
161 574
161 575
161 577
161 578
161 579
162 163
162 164
162 166
162 171
162 172
162 173
162 176
162 184
162 185
162 186
162 187
162 188
162 189
162 192
162 193
162 198
162 199
162 200
162 201
162 202
162 203
162 204
162 205
162 206
162 207
162 208
162 209
162 211
162 212
162 217
162 218
162 219
162 223
162 224
162 232
162 234
162 237
162 238
162 244
162 249
162 250
162 251
162 252
162 261
162 262
162 265
162 266
162 267
162 268
162 269
162 273
162 275
162 276
162 285
162 286
162 287
162 288
162 289
162 295
162 296
162 297
162 298
162 299
162 300
162 301
162 302
162 303
162 304
162 305
162 306
162 307
162 308
162 309
162 310
162 311
162 313
162 314
162 315
162 316
162 317
162 318
162 319
162 320
162 321
162 322
162 323
162 324
162 325
162 326
162 327
162 328
162 329
162 331
162 332
162 333
162 334
162 335
162 336
162 337
162 338
162 339
162 340
162 341
162 342
162 343
162 344
162 345
162 346
162 348
162 350
162 355
162 356
162 357
162 358
162 359
162 362
162 364
162 367
162 369
162 370
162 372
162 373
162 377
162 380
162 381
162 382
162 383
162 384
162 385
162 386
162 387
162 388
162 389
162 390
162 391
162 392
162 393
162 394
162 397
162 402
162 403
162 406
162 408
162 410
162 411
162 412
162 413
162 414
162 415
162 416
162 417
162 418
162 419
162 420
162 421
162 422
162 424
162 425
162 427
162 429
162 430
162 436
162 438
162 440
162 441
162 442
162 443
162 444
162 445
162 446
162 447
162 448
162 449
162 450
162 451
162 453
162 454
162 455
162 461
162 462
162 463
162 464
162 468
162 474
162 475
162 476
162 478
162 479
162 483
162 484
162 487
162 491
162 492
162 494
162 495
162 496
162 497
162 499
162 507
162 508
162 513
162 515
162 518
162 519
162 520
162 521
162 522
162 523
162 524
162 525
162 526
162 527
162 528
162 529
162 531
162 532
162 535
162 539
162 542
162 547
162 548
162 549
162 550
162 551
162 552
162 553
162 554
162 555
162 556
162 557
162 558
162 560
162 561
162 562
162 563
162 564
162 565
162 566
162 567
162 568
162 569
162 570
162 571
162 572
162 573
162 574
162 575
162 576
162 578
162 579
163 164
163 166
163 171
163 172
163 173
163 176
163 184
163 185
163 186
163 187
163 188
163 189
163 192
163 193
163 199
163 201
163 202
163 205
163 207
163 210
163 217
163 218
163 219
163 223
163 224
163 230
163 231
163 232
163 233
163 234
163 235
163 236
163 237
163 238
163 239
163 240
163 241
163 242
163 243
163 249
163 250
163 251
163 252
163 261
163 262
163 265
163 266
163 267
163 268
163 269
163 273
163 275
163 276
163 279
163 280
163 281
163 282
163 283
163 284
163 285
163 286
163 287
163 288
163 289
163 290
163 291
163 292
163 293
163 294
163 298
163 302
163 303
163 304
163 305
163 306
163 309
163 311
163 312
163 314
163 317
163 318
163 319
163 320
163 324
163 325
163 328
163 330
163 335
163 336
163 337
163 343
163 344
163 346
163 347
163 350
163 355
163 356
163 357
163 358
163 359
163 362
163 364
163 366
163 367
163 368
163 369
163 370
163 371
163 372
163 373
163 374
163 375
163 376
163 377
163 378
163 379
163 383
163 385
163 389
163 390
163 391
163 393
163 395
163 396
163 397
163 398
163 399
163 400
163 401
163 402
163 403
163 404
163 405
163 406
163 407
163 408
163 409
163 411
163 412
163 413
163 414
163 415
163 416
163 417
163 418
163 419
163 420
163 421
163 422
163 423
163 424
163 426
163 427
163 428
163 429
163 430
163 431
163 432
163 433
163 434
163 435
163 436
163 437
163 438
163 439
163 441
163 442
163 443
163 444
163 445
163 446
163 447
163 448
163 449
163 450
163 451
163 452
163 453
163 454
163 461
163 462
163 463
163 464
163 468
163 471
163 472
163 473
163 474
163 475
163 476
163 477
163 478
163 479
163 480
163 481
163 482
163 483
163 484
163 485
163 486
163 491
163 492
163 494
163 495
163 496
163 497
163 499
163 507
163 508
163 513
163 515
163 518
163 519
163 520
163 521
163 522
163 523
163 524
163 525
163 526
163 527
163 528
163 529
163 530
163 531
163 533
163 534
163 535
163 536
163 537
163 538
163 539
163 540
163 541
163 542
163 543
163 544
163 545
163 546
163 548
163 549
163 550
163 551
163 552
163 553
163 554
163 555
163 556
163 557
163 558
163 559
163 560
163 561
163 563
163 566
163 567
163 571
163 576
163 577
164 165
164 166
164 167
164 168
164 169
164 170
164 171
164 172
164 173
164 174
164 175
164 176
164 177
164 178
164 179
164 180
164 182
164 183
164 185
164 189
164 190
164 192
164 195
164 197
164 199
164 200
164 201
164 203
164 206
164 208
164 212
164 214
164 215
164 216
164 221
164 223
164 226
164 230
164 231
164 233
164 234
164 235
164 236
164 237
164 238
164 239
164 240
164 241
164 242
164 243
164 244
164 247
164 248
164 251
164 252
164 253
164 258
164 260
164 262
164 263
164 264
164 265
164 266
164 267
164 268
164 269
164 270
164 271
164 272
164 273
164 274
164 275
164 276
164 277
164 278
164 282
164 283
164 284
164 286
164 292
164 293
164 296
164 297
164 299
164 300
164 301
164 302
164 303
164 304
164 305
164 306
164 307
164 308
164 309
164 310
164 311
164 312
164 314
164 315
164 316
164 320
164 324
164 326
164 329
164 331
164 333
164 334
164 336
164 337
164 338
164 341
164 345
164 348
164 349
164 351
164 352
164 353
164 354
164 355
164 356
164 357
164 358
164 359
164 360
164 361
164 362
164 363
164 364
164 365
164 367
164 368
164 369
164 370
164 371
164 372
164 375
164 378
164 379
164 381
164 382
164 384
164 385
164 386
164 387
164 388
164 389
164 390
164 391
164 392
164 393
164 394
164 395
164 396
164 397
164 398
164 399
164 400
164 401
164 403
164 404
164 412
164 413
164 414
164 415
164 416
164 417
164 418
164 419
164 420
164 421
164 422
164 423
164 424
164 425
164 427
164 428
164 429
164 430
164 431
164 434
164 436
164 437
164 442
164 443
164 445
164 449
164 451
164 454
164 458
164 459
164 460
164 462
164 466
164 469
164 470
164 472
164 473
164 476
164 478
164 481
164 486
164 488
164 489
164 490
164 492
164 493
164 494
164 495
164 496
164 497
164 498
164 499
164 500
164 501
164 502
164 504
164 505
164 506
164 511
164 514
164 516
164 518
164 519
164 522
164 523
164 524
164 526
164 528
164 534
164 536
164 538
164 539
164 540
164 543
164 546
164 549
164 550
164 553
164 555
164 557
164 561
164 564
164 565
164 566
164 567
164 568
164 569
164 570
164 571
164 572
164 573
164 574
164 575
164 576
164 577
164 578
164 579
165 166
165 167
165 168
165 169
165 170
165 171
165 172
165 173
165 174
165 175
165 176
165 177
165 178
165 179
165 180
165 181
165 183
165 184
165 185
165 186
165 187
165 188
165 189
165 190
165 191
165 192
165 193
165 194
165 195
165 196
165 197
165 199
165 200
165 201
165 203
165 206
165 208
165 212
165 213
165 215
165 216
165 217
165 218
165 219
165 220
165 221
165 222
165 223
165 224
165 225
165 226
165 227
165 228
165 229
165 230
165 231
165 232
165 234
165 235
165 236
165 237
165 238
165 239
165 240
165 241
165 242
165 243
165 244
165 247
165 248
165 251
165 252
165 253
165 258
165 261
165 262
165 263
165 264
165 269
165 270
165 271
165 273
165 274
165 277
165 282
165 283
165 284
165 286
165 292
165 293
165 298
165 299
165 300
165 301
165 303
165 306
165 308
165 309
165 314
165 315
165 316
165 320
165 324
165 326
165 329
165 331
165 332
165 334
165 335
165 336
165 337
165 338
165 339
165 340
165 341
165 342
165 343
165 344
165 345
165 346
165 347
165 348
165 349
165 350
165 352
165 353
165 354
165 355
165 356
165 357
165 358
165 359
165 360
165 361
165 362
165 363
165 364
165 365
165 367
165 368
165 369
165 370
165 371
165 372
165 375
165 378
165 379
165 381
165 382
165 383
165 385
165 386
165 387
165 388
165 389
165 390
165 391
165 392
165 393
165 394
165 395
165 397
165 398
165 399
165 400
165 401
165 402
165 403
165 404
165 405
165 406
165 407
165 408
165 409
165 410
165 411
165 412
165 414
165 420
165 421
165 424
165 427
165 428
165 429
165 430
165 431
165 434
165 436
165 437
165 442
165 443
165 445
165 449
165 451
165 454
165 458
165 459
165 460
165 462
165 466
165 469
165 470
165 471
165 473
165 474
165 475
165 476
165 477
165 478
165 479
165 480
165 481
165 482
165 483
165 484
165 485
165 486
165 487
165 491
165 492
165 493
165 495
165 497
165 499
165 501
165 502
165 503
165 505
165 506
165 507
165 508
165 509
165 510
165 511
165 512
165 513
165 514
165 515
165 516
165 517
165 519
165 520
165 521
165 522
165 523
165 524
165 525
165 526
165 527
165 528
165 529
165 530
165 531
165 532
165 534
165 536
165 538
165 539
165 540
165 543
165 546
165 549
165 550
165 553
165 555
165 557
165 561
165 563
165 564
165 565
165 567
165 568
165 569
165 571
165 573
165 575
165 579
166 167
166 168
166 169
166 170
166 171
166 172
166 173
166 174
166 175
166 176
166 177
166 178
166 179
166 180
166 182
166 183
166 185
166 189
166 190
166 192
166 195
166 197
166 198
166 200
166 201
166 202
166 203
166 204
166 205
166 206
166 207
166 208
166 209
166 210
166 211
166 212
166 214
166 215
166 216
166 221
166 223
166 226
166 230
166 231
166 232
166 233
166 235
166 236
166 237
166 238
166 239
166 240
166 241
166 242
166 243
166 244
166 247
166 248
166 251
166 252
166 253
166 258
166 260
166 261
166 263
166 264
166 265
166 266
166 267
166 268
166 269
166 270
166 271
166 272
166 273
166 274
166 275
166 276
166 277
166 278
166 282
166 283
166 284
166 286
166 292
166 293
166 298
166 299
166 300
166 301
166 303
166 306
166 308
166 309
166 313
166 315
166 316
166 317
166 318
166 319
166 320
166 321
166 322
166 323
166 324
166 325
166 326
166 327
166 328
166 329
166 330
166 331
166 333
166 334
166 336
166 337
166 338
166 341
166 345
166 348
166 350
166 351
166 352
166 353
166 354
166 356
166 358
166 359
166 366
166 368
166 369
166 370
166 371
166 372
166 373
166 374
166 375
166 376
166 377
166 378
166 379
166 380
166 381
166 382
166 383
166 384
166 386
166 387
166 388
166 389
166 390
166 391
166 392
166 393
166 394
166 395
166 396
166 398
166 399
166 400
166 401
166 402
166 403
166 404
166 405
166 406
166 407
166 408
166 409
166 410
166 411
166 412
166 414
166 420
166 421
166 424
166 426
166 428
166 429
166 430
166 431
166 432
166 433
166 434
166 435
166 436
166 437
166 438
166 439
166 440
166 442
166 443
166 445
166 449
166 451
166 454
166 458
166 459
166 460
166 462
166 466
166 469
166 470
166 472
166 473
166 476
166 478
166 481
166 486
166 488
166 489
166 490
166 491
166 493
166 494
166 495
166 496
166 497
166 498
166 499
166 500
166 501
166 502
166 504
166 505
166 506
166 511
166 514
166 516
166 518
166 519
166 522
166 523
166 524
166 526
166 528
166 534
166 536
166 538
166 539
166 540
166 543
166 546
166 548
166 550
166 551
166 552
166 553
166 554
166 555
166 556
166 557
166 558
166 559
166 560
166 561
166 562
166 563
166 564
166 565
166 567
166 568
166 569
166 571
166 573
166 575
166 579
167 168
167 169
167 170
167 171
167 172
167 173
167 174
167 175
167 176
167 177
167 178
167 179
167 180
167 182
167 183
167 185
167 189
167 190
167 192
167 195
167 197
167 199
167 200
167 201
167 203
167 206
167 208
167 212
167 214
167 215
167 216
167 221
167 223
167 226
167 230
167 231
167 232
167 233
167 234
167 236
167 237
167 238
167 239
167 240
167 241
167 242
167 243
167 244
167 245
167 246
167 248
167 249
167 250
167 251
167 252
167 253
167 254
167 255
167 256
167 257
167 258
167 259
167 261
167 262
167 263
167 264
167 269
167 270
167 271
167 273
167 274
167 277
167 279
167 280
167 281
167 283
167 284
167 285
167 286
167 287
167 288
167 289
167 290
167 291
167 292
167 293
167 294
167 295
167 296
167 297
167 298
167 300
167 301
167 302
167 303
167 304
167 305
167 306
167 307
167 308
167 309
167 310
167 311
167 312
167 313
167 314
167 316
167 317
167 318
167 319
167 320
167 321
167 322
167 323
167 324
167 325
167 326
167 327
167 328
167 329
167 330
167 331
167 333
167 334
167 336
167 337
167 338
167 341
167 345
167 348
167 349
167 350
167 351
167 353
167 354
167 355
167 356
167 357
167 358
167 359
167 360
167 361
167 362
167 363
167 364
167 365
167 367
167 368
167 369
167 370
167 371
167 372
167 375
167 378
167 379
167 383
167 384
167 385
167 386
167 387
167 388
167 391
167 392
167 396
167 397
167 399
167 400
167 401
167 402
167 403
167 404
167 405
167 406
167 407
167 408
167 409
167 410
167 411
167 412
167 414
167 420
167 421
167 424
167 427
167 428
167 429
167 430
167 431
167 434
167 436
167 437
167 442
167 443
167 445
167 449
167 451
167 454
167 458
167 459
167 460
167 462
167 466
167 469
167 470
167 472
167 473
167 476
167 478
167 481
167 486
167 491
167 492
167 493
167 495
167 497
167 499
167 501
167 502
167 503
167 504
167 506
167 507
167 508
167 509
167 510
167 511
167 512
167 513
167 514
167 515
167 516
167 517
167 518
167 520
167 521
167 522
167 523
167 524
167 525
167 526
167 527
167 528
167 529
167 530
167 531
167 532
167 534
167 536
167 538
167 539
167 540
167 543
167 546
167 548
167 549
167 551
167 552
167 553
167 554
167 555
167 556
167 557
167 558
167 559
167 560
167 561
167 562
167 563
167 565
167 566
167 567
167 568
167 569
167 570
167 571
167 572
167 573
167 574
167 575
167 576
167 577
167 578
167 579
168 169
168 170
168 171
168 172
168 173
168 174
168 175
168 176
168 177
168 178
168 179
168 180
168 182
168 183
168 185
168 189
168 190
168 192
168 195
168 197
168 198
168 199
168 201
168 202
168 203
168 204
168 205
168 206
168 207
168 208
168 209
168 210
168 211
168 212
168 213
168 214
168 216
168 217
168 218
168 219
168 220
168 221
168 222
168 223
168 224
168 225
168 226
168 227
168 228
168 229
168 230
168 231
168 232
168 233
168 234
168 235
168 237
168 238
168 239
168 240
168 241
168 242
168 243
168 244
168 245
168 246
168 247
168 249
168 250
168 251
168 252
168 253
168 254
168 255
168 256
168 257
168 258
168 259
168 261
168 262
168 263
168 264
168 269
168 270
168 271
168 273
168 274
168 277
168 282
168 283
168 284
168 286
168 292
168 293
168 296
168 297
168 298
168 299
168 301
168 302
168 303
168 304
168 305
168 306
168 307
168 308
168 309
168 310
168 311
168 312
168 314
168 315
168 316
168 320
168 324
168 326
168 329
168 331
168 333
168 334
168 336
168 337
168 338
168 341
168 345
168 348
168 349
168 350
168 351
168 352
168 354
168 355
168 356
168 357
168 358
168 359
168 360
168 361
168 362
168 363
168 364
168 365
168 367
168 368
168 369
168 370
168 371
168 372
168 375
168 378
168 379
168 381
168 382
168 383
168 384
168 385
168 387
168 388
168 389
168 390
168 391
168 392
168 393
168 394
168 395
168 396
168 397
168 398
168 400
168 401
168 402
168 403
168 404
168 405
168 406
168 407
168 408
168 409
168 410
168 411
168 412
168 414
168 420
168 421
168 424
168 427
168 428
168 429
168 430
168 431
168 434
168 436
168 437
168 441
168 443
168 444
168 445
168 446
168 447
168 448
168 449
168 450
168 451
168 452
168 453
168 454
168 455
168 456
168 457
168 459
168 460
168 461
168 462
168 463
168 464
168 465
168 466
168 467
168 468
168 469
168 470
168 471
168 472
168 474
168 475
168 476
168 477
168 478
168 479
168 480
168 481
168 482
168 483
168 484
168 485
168 486
168 487
168 491
168 492
168 493
168 495
168 497
168 499
168 501
168 502
168 504
168 505
168 506
168 511
168 514
168 516
168 518
168 519
168 522
168 523
168 524
168 526
168 528
168 534
168 536
168 538
168 539
168 540
168 543
168 546
168 549
168 550
168 553
168 555
168 557
168 561
168 563
168 564
168 565
168 567
168 568
168 569
168 571
168 573
168 575
168 579
169 170
169 171
169 172
169 173
169 174
169 175
169 176
169 177
169 178
169 179
169 180
169 182
169 183
169 185
169 189
169 190
169 192
169 195
169 197
169 199
169 200
169 201
169 203
169 206
169 208
169 212
169 214
169 215
169 216
169 221
169 223
169 226
169 232
169 233
169 234
169 235
169 236
169 242
169 243
169 247
169 248
169 251
169 252
169 253
169 258
169 260
169 261
169 262
169 264
169 265
169 266
169 267
169 268
169 269
169 270
169 271
169 272
169 273
169 274
169 275
169 276
169 277
169 278
169 279
169 280
169 281
169 282
169 284
169 285
169 286
169 287
169 288
169 289
169 290
169 291
169 292
169 293
169 294
169 295
169 298
169 299
169 300
169 301
169 303
169 306
169 308
169 309
169 313
169 314
169 315
169 317
169 318
169 319
169 320
169 321
169 322
169 323
169 324
169 325
169 326
169 327
169 328
169 329
169 330
169 331
169 332
169 333
169 335
169 336
169 337
169 338
169 339
169 340
169 341
169 342
169 343
169 344
169 345
169 346
169 347
169 348
169 349
169 350
169 351
169 352
169 353
169 355
169 356
169 357
169 358
169 359
169 360
169 361
169 362
169 363
169 364
169 365
169 366
169 367
169 369
169 370
169 371
169 372
169 373
169 374
169 375
169 376
169 377
169 378
169 379
169 380
169 381
169 382
169 383
169 384
169 385
169 386
169 388
169 389
169 390
169 391
169 392
169 393
169 394
169 395
169 396
169 397
169 398
169 399
169 401
169 402
169 403
169 404
169 405
169 406
169 407
169 408
169 409
169 410
169 411
169 412
169 414
169 420
169 421
169 424
169 427
169 428
169 429
169 430
169 431
169 434
169 436
169 437
169 442
169 443
169 445
169 449
169 451
169 454
169 456
169 457
169 458
169 460
169 461
169 462
169 463
169 464
169 465
169 466
169 467
169 468
169 469
169 470
169 472
169 473
169 476
169 478
169 481
169 486
169 491
169 492
169 493
169 495
169 497
169 499
169 501
169 502
169 504
169 505
169 506
169 511
169 514
169 516
169 518
169 519
169 522
169 523
169 524
169 526
169 528
169 533
169 535
169 536
169 537
169 538
169 539
169 540
169 541
169 542
169 543
169 544
169 545
169 546
169 547
169 549
169 550
169 553
169 555
169 557
169 561
169 563
169 564
169 565
169 567
169 568
169 569
169 571
169 573
169 575
169 579
170 171
170 172
170 173
170 174
170 175
170 176
170 177
170 178
170 179
170 180
170 181
170 182
170 184
170 185
170 186
170 187
170 188
170 189
170 190
170 191
170 192
170 193
170 194
170 195
170 196
170 197
170 199
170 200
170 201
170 203
170 206
170 208
170 212
170 213
170 214
170 215
170 217
170 218
170 219
170 220
170 221
170 222
170 223
170 224
170 225
170 226
170 227
170 228
170 229
170 232
170 233
170 234
170 235
170 236
170 242
170 243
170 247
170 248
170 251
170 252
170 253
170 258
170 260
170 261
170 262
170 263
170 265
170 266
170 267
170 268
170 269
170 270
170 271
170 272
170 273
170 274
170 275
170 276
170 277
170 278
170 279
170 280
170 281
170 282
170 283
170 285
170 286
170 287
170 288
170 289
170 290
170 291
170 292
170 293
170 294
170 295
170 296
170 297
170 298
170 299
170 300
170 302
170 303
170 304
170 305
170 306
170 307
170 308
170 309
170 310
170 311
170 312
170 314
170 315
170 316
170 320
170 324
170 326
170 329
170 331
170 333
170 334
170 336
170 337
170 338
170 341
170 345
170 348
170 350
170 351
170 352
170 353
170 354
170 356
170 358
170 359
170 367
170 368
170 369
170 370
170 371
170 372
170 375
170 378
170 379
170 381
170 382
170 383
170 384
170 385
170 386
170 387
170 389
170 390
170 391
170 392
170 393
170 394
170 395
170 396
170 397
170 398
170 399
170 400
170 402
170 403
170 404
170 405
170 406
170 407
170 408
170 409
170 410
170 411
170 413
170 414
170 415
170 416
170 417
170 418
170 419
170 420
170 421
170 422
170 423
170 424
170 425
170 426
170 427
170 429
170 430
170 431
170 432
170 433
170 434
170 435
170 436
170 437
170 438
170 439
170 440
170 442
170 443
170 445
170 449
170 451
170 454
170 456
170 457
170 458
170 459
170 461
170 462
170 463
170 464
170 465
170 466
170 467
170 468
170 469
170 470
170 472
170 473
170 476
170 478
170 481
170 486
170 488
170 489
170 490
170 491
170 492
170 494
170 495
170 496
170 497
170 498
170 499
170 500
170 501
170 502
170 503
170 504
170 505
170 507
170 508
170 509
170 510
170 511
170 512
170 513
170 514
170 515
170 516
170 517
170 518
170 519
170 522
170 523
170 524
170 526
170 528
170 534
170 536
170 538
170 539
170 540
170 543
170 546
170 549
170 550
170 553
170 555
170 557
170 561
170 563
170 564
170 566
170 567
170 568
170 569
170 570
170 571
170 572
170 573
170 574
170 575
170 576
170 577
170 578
170 579
171 172
171 173
171 174
171 175
171 176
171 177
171 178
171 179
171 180
171 181
171 182
171 183
171 184
171 186
171 187
171 188
171 189
171 190
171 191
171 192
171 193
171 194
171 195
171 196
171 197
171 198
171 199
171 200
171 202
171 203
171 204
171 205
171 206
171 207
171 208
171 209
171 210
171 211
171 212
171 214
171 215
171 216
171 221
171 223
171 226
171 232
171 233
171 234
171 235
171 236
171 242
171 243
171 247
171 248
171 251
171 252
171 253
171 258
171 261
171 262
171 263
171 264
171 269
171 270
171 271
171 273
171 274
171 277
171 279
171 280
171 281
171 282
171 283
171 284
171 285
171 287
171 288
171 289
171 290
171 291
171 292
171 293
171 294
171 295
171 296
171 297
171 298
171 299
171 300
171 301
171 302
171 304
171 305
171 306
171 307
171 308
171 309
171 310
171 311
171 312
171 314
171 315
171 316
171 320
171 324
171 326
171 329
171 331
171 333
171 334
171 336
171 337
171 338
171 341
171 345
171 348
171 349
171 350
171 351
171 352
171 353
171 354
171 355
171 357
171 358
171 359
171 360
171 361
171 362
171 363
171 364
171 365
171 366
171 367
171 368
171 370
171 371
171 372
171 373
171 374
171 375
171 376
171 377
171 378
171 379
171 380
171 383
171 384
171 385
171 386
171 387
171 388
171 391
171 392
171 396
171 397
171 398
171 399
171 400
171 401
171 403
171 404
171 411
171 412
171 414
171 420
171 421
171 424
171 426
171 427
171 428
171 430
171 431
171 432
171 433
171 434
171 435
171 436
171 437
171 438
171 439
171 440
171 441
171 442
171 444
171 445
171 446
171 447
171 448
171 449
171 450
171 451
171 452
171 453
171 454
171 455
171 456
171 457
171 458
171 459
171 460
171 461
171 463
171 464
171 465
171 466
171 467
171 468
171 469
171 470
171 472
171 473
171 476
171 478
171 481
171 486
171 488
171 489
171 490
171 491
171 492
171 493
171 494
171 496
171 497
171 498
171 499
171 500
171 501
171 502
171 504
171 505
171 506
171 511
171 514
171 516
171 518
171 519
171 522
171 523
171 524
171 526
171 528
171 534
171 536
171 538
171 539
171 540
171 543
171 546
171 549
171 550
171 553
171 555
171 557
171 561
171 563
171 564
171 565
171 567
171 568
171 569
171 571
171 573
171 575
171 579
172 173
172 174
172 175
172 176
172 177
172 178
172 179
172 180
172 181
172 182
172 183
172 184
172 185
172 186
172 187
172 188
172 190
172 191
172 192
172 193
172 194
172 195
172 196
172 197
172 199
172 200
172 201
172 203
172 206
172 208
172 212
172 214
172 215
172 216
172 221
172 223
172 226
172 232
172 233
172 234
172 235
172 236
172 242
172 243
172 245
172 246
172 247
172 248
172 249
172 250
172 252
172 253
172 254
172 255
172 256
172 257
172 258
172 259
172 261
172 262
172 263
172 264
172 269
172 270
172 271
172 273
172 274
172 277
172 282
172 283
172 284
172 286
172 292
172 293
172 296
172 297
172 298
172 299
172 300
172 301
172 302
172 303
172 304
172 305
172 307
172 308
172 309
172 310
172 311
172 312
172 313
172 314
172 315
172 316
172 317
172 318
172 319
172 321
172 322
172 323
172 324
172 325
172 326
172 327
172 328
172 329
172 330
172 331
172 332
172 333
172 334
172 335
172 337
172 338
172 339
172 340
172 341
172 342
172 343
172 344
172 345
172 346
172 347
172 348
172 349
172 350
172 351
172 352
172 353
172 354
172 355
172 356
172 357
172 359
172 360
172 361
172 362
172 363
172 364
172 365
172 366
172 367
172 368
172 369
172 371
172 372
172 373
172 374
172 375
172 376
172 377
172 378
172 379
172 380
172 383
172 384
172 385
172 386
172 387
172 388
172 391
172 392
172 396
172 397
172 398
172 399
172 400
172 401
172 403
172 404
172 411
172 412
172 413
172 415
172 416
172 417
172 418
172 419
172 420
172 421
172 422
172 423
172 424
172 425
172 427
172 428
172 429
172 430
172 431
172 434
172 436
172 437
172 442
172 443
172 445
172 449
172 451
172 454
172 458
172 459
172 460
172 462
172 466
172 469
172 470
172 472
172 473
172 476
172 478
172 481
172 486
172 491
172 492
172 493
172 495
172 497
172 499
172 501
172 502
172 504
172 505
172 506
172 511
172 514
172 516
172 518
172 519
172 522
172 523
172 524
172 526
172 528
172 534
172 536
172 538
172 539
172 540
172 543
172 546
172 548
172 549
172 550
172 551
172 552
172 554
172 555
172 556
172 557
172 558
172 559
172 560
172 561
172 562
172 563
172 564
172 565
172 566
172 568
172 569
172 570
172 571
172 572
172 573
172 574
172 575
172 576
172 577
172 578
172 579
173 174
173 175
173 176
173 177
173 178
173 179
173 180
173 182
173 183
173 185
173 189
173 190
173 192
173 195
173 197
173 199
173 200
173 201
173 203
173 206
173 208
173 212
173 214
173 215
173 216
173 221
173 223
173 226
173 232
173 233
173 234
173 235
173 236
173 242
173 243
173 245
173 246
173 247
173 248
173 249
173 250
173 251
173 253
173 254
173 255
173 256
173 257
173 258
173 259
173 260
173 261
173 262
173 263
173 264
173 265
173 266
173 267
173 268
173 270
173 271
173 272
173 273
173 274
173 275
173 276
173 277
173 278
173 282
173 283
173 284
173 286
173 292
173 293
173 298
173 299
173 300
173 301
173 303
173 306
173 308
173 309
173 314
173 315
173 316
173 320
173 324
173 326
173 329
173 331
173 332
173 333
173 334
173 335
173 336
173 338
173 339
173 340
173 341
173 342
173 343
173 344
173 345
173 346
173 347
173 348
173 349
173 350
173 351
173 352
173 353
173 354
173 355
173 356
173 357
173 358
173 360
173 361
173 362
173 363
173 364
173 365
173 367
173 368
173 369
173 370
173 371
173 372
173 375
173 378
173 379
173 381
173 382
173 383
173 384
173 385
173 386
173 387
173 388
173 389
173 390
173 392
173 393
173 394
173 395
173 396
173 397
173 398
173 399
173 400
173 401
173 402
173 404
173 405
173 406
173 407
173 408
173 409
173 410
173 411
173 412
173 414
173 420
173 421
173 424
173 426
173 427
173 428
173 429
173 431
173 432
173 433
173 434
173 435
173 436
173 437
173 438
173 439
173 440
173 441
173 442
173 443
173 444
173 446
173 447
173 448
173 449
173 450
173 451
173 452
173 453
173 454
173 455
173 458
173 459
173 460
173 462
173 466
173 469
173 470
173 471
173 472
173 473
173 474
173 475
173 477
173 478
173 479
173 480
173 481
173 482
173 483
173 484
173 485
173 486
173 487
173 488
173 489
173 490
173 491
173 492
173 493
173 494
173 495
173 496
173 498
173 499
173 500
173 501
173 502
173 504
173 505
173 506
173 511
173 514
173 516
173 518
173 519
173 520
173 521
173 523
173 524
173 525
173 526
173 527
173 528
173 529
173 530
173 531
173 532
173 534
173 536
173 538
173 539
173 540
173 543
173 546
173 549
173 550
173 553
173 555
173 557
173 561
173 563
173 564
173 565
173 567
173 568
173 569
173 571
173 573
173 575
173 579
174 175
174 176
174 177
174 178
174 179
174 180
174 181
174 182
174 183
174 184
174 185
174 186
174 187
174 188
174 189
174 191
174 192
174 193
174 194
174 195
174 196
174 197
174 198
174 199
174 200
174 201
174 202
174 204
174 205
174 206
174 207
174 208
174 209
174 210
174 211
174 212
174 214
174 215
174 216
174 221
174 223
174 226
174 232
174 233
174 234
174 235
174 236
174 242
174 243
174 245
174 246
174 247
174 248
174 249
174 250
174 251
174 252
174 254
174 255
174 256
174 257
174 258
174 259
174 260
174 261
174 262
174 263
174 264
174 265
174 266
174 267
174 268
174 269
174 271
174 272
174 273
174 274
174 275
174 276
174 277
174 278
174 282
174 283
174 284
174 286
174 292
174 293
174 298
174 299
174 300
174 301
174 303
174 306
174 308
174 309
174 314
174 315
174 316
174 320
174 324
174 326
174 329
174 331
174 332
174 333
174 334
174 335
174 336
174 337
174 339
174 340
174 341
174 342
174 343
174 344
174 345
174 346
174 347
174 348
174 350
174 351
174 352
174 353
174 354
174 356
174 358
174 359
174 366
174 367
174 368
174 369
174 370
174 372
174 373
174 374
174 375
174 376
174 377
174 378
174 379
174 380
174 383
174 384
174 385
174 386
174 387
174 388
174 391
174 392
174 396
174 397
174 398
174 399
174 400
174 401
174 402
174 403
174 405
174 406
174 407
174 408
174 409
174 410
174 411
174 412
174 414
174 420
174 421
174 424
174 426
174 427
174 428
174 429
174 430
174 432
174 433
174 434
174 435
174 436
174 437
174 438
174 439
174 440
174 442
174 443
174 445
174 449
174 451
174 454
174 458
174 459
174 460
174 462
174 466
174 469
174 470
174 472
174 473
174 476
174 478
174 481
174 486
174 491
174 492
174 493
174 495
174 497
174 499
174 501
174 502
174 504
174 505
174 506
174 511
174 514
174 516
174 518
174 519
174 522
174 523
174 524
174 526
174 528
174 533
174 534
174 535
174 537
174 538
174 539
174 540
174 541
174 542
174 543
174 544
174 545
174 546
174 547
174 549
174 550
174 553
174 555
174 557
174 561
174 563
174 564
174 565
174 566
174 567
174 569
174 570
174 571
174 572
174 573
174 574
174 575
174 576
174 577
174 578
174 579
175 176
175 177
175 178
175 179
175 180
175 182
175 183
175 185
175 189
175 190
175 192
175 195
175 197
175 199
175 200
175 201
175 203
175 206
175 208
175 212
175 213
175 214
175 215
175 216
175 217
175 218
175 219
175 220
175 222
175 223
175 224
175 225
175 226
175 227
175 228
175 229
175 232
175 233
175 234
175 235
175 236
175 242
175 243
175 247
175 248
175 251
175 252
175 253
175 258
175 260
175 261
175 262
175 263
175 264
175 265
175 266
175 267
175 268
175 269
175 270
175 272
175 273
175 274
175 275
175 276
175 277
175 278
175 282
175 283
175 284
175 286
175 292
175 293
175 296
175 297
175 298
175 299
175 300
175 301
175 302
175 303
175 304
175 305
175 306
175 307
175 309
175 310
175 311
175 312
175 314
175 315
175 316
175 320
175 324
175 326
175 329
175 331
175 332
175 333
175 334
175 335
175 336
175 337
175 338
175 339
175 340
175 342
175 343
175 344
175 345
175 346
175 347
175 348
175 350
175 351
175 352
175 353
175 354
175 356
175 358
175 359
175 367
175 368
175 369
175 370
175 371
175 372
175 375
175 378
175 379
175 381
175 382
175 383
175 384
175 385
175 386
175 387
175 388
175 389
175 390
175 391
175 393
175 394
175 395
175 396
175 397
175 398
175 399
175 400
175 401
175 403
175 404
175 411
175 412
175 414
175 420
175 421
175 424
175 426
175 427
175 428
175 429
175 430
175 431
175 432
175 433
175 435
175 436
175 437
175 438
175 439
175 440
175 442
175 443
175 445
175 449
175 451
175 454
175 456
175 457
175 458
175 459
175 460
175 461
175 462
175 463
175 464
175 465
175 467
175 468
175 469
175 470
175 472
175 473
175 476
175 478
175 481
175 486
175 491
175 492
175 493
175 495
175 497
175 499
175 501
175 502
175 504
175 505
175 506
175 511
175 514
175 516
175 518
175 519
175 520
175 521
175 522
175 524
175 525
175 526
175 527
175 528
175 529
175 530
175 531
175 532
175 533
175 534
175 535
175 536
175 537
175 539
175 540
175 541
175 542
175 543
175 544
175 545
175 546
175 547
175 548
175 549
175 550
175 551
175 552
175 553
175 554
175 556
175 557
175 558
175 559
175 560
175 561
175 562
175 563
175 564
175 565
175 566
175 567
175 568
175 570
175 571
175 572
175 573
175 574
175 575
175 576
175 577
175 578
175 579
176 177
176 178
176 179
176 180
176 181
176 182
176 183
176 184
176 185
176 186
176 187
176 188
176 189
176 190
176 191
176 193
176 194
176 195
176 196
176 197
176 199
176 200
176 201
176 203
176 206
176 208
176 212
176 213
176 214
176 215
176 216
176 217
176 218
176 219
176 220
176 221
176 222
176 224
176 225
176 226
176 227
176 228
176 229
176 232
176 233
176 234
176 235
176 236
176 242
176 243
176 247
176 248
176 251
176 252
176 253
176 258
176 260
176 261
176 262
176 263
176 264
176 265
176 266
176 267
176 268
176 269
176 270
176 271
176 272
176 274
176 275
176 276
176 277
176 278
176 282
176 283
176 284
176 286
176 292
176 293
176 296
176 297
176 298
176 299
176 300
176 301
176 302
176 303
176 304
176 305
176 306
176 307
176 308
176 310
176 311
176 312
176 313
176 314
176 315
176 316
176 317
176 318
176 319
176 320
176 321
176 322
176 323
176 325
176 326
176 327
176 328
176 329
176 330
176 331
176 333
176 334
176 336
176 337
176 338
176 341
176 345
176 348
176 350
176 351
176 352
176 353
176 354
176 356
176 358
176 359
176 366
176 367
176 368
176 369
176 370
176 371
176 373
176 374
176 375
176 376
176 377
176 378
176 379
176 380
176 383
176 384
176 385
176 386
176 387
176 388
176 391
176 392
176 396
176 397
176 398
176 399
176 400
176 401
176 403
176 404
176 411
176 412
176 414
176 420
176 421
176 424
176 426
176 427
176 428
176 429
176 430
176 431
176 432
176 433
176 434
176 435
176 437
176 438
176 439
176 440
176 442
176 443
176 445
176 449
176 451
176 454
176 458
176 459
176 460
176 462
176 466
176 469
176 470
176 471
176 472
176 473
176 474
176 475
176 476
176 477
176 479
176 480
176 481
176 482
176 483
176 484
176 485
176 486
176 487
176 488
176 489
176 490
176 491
176 492
176 493
176 494
176 495
176 496
176 497
176 498
176 500
176 501
176 502
176 504
176 505
176 506
176 511
176 514
176 516
176 518
176 519
176 520
176 521
176 522
176 523
176 525
176 526
176 527
176 528
176 529
176 530
176 531
176 532
176 533
176 534
176 535
176 536
176 537
176 538
176 540
176 541
176 542
176 543
176 544
176 545
176 546
176 547
176 549
176 550
176 553
176 555
176 557
176 561
176 563
176 564
176 565
176 566
176 567
176 568
176 569
176 570
176 572
176 573
176 574
176 575
176 576
176 577
176 578
176 579
177 178
177 179
177 180
177 182
177 183
177 185
177 189
177 190
177 192
177 195
177 197
177 199
177 200
177 201
177 203
177 206
177 208
177 212
177 213
177 214
177 215
177 216
177 217
177 218
177 219
177 220
177 221
177 222
177 223
177 224
177 225
177 227
177 228
177 229
177 232
177 233
177 234
177 235
177 236
177 242
177 243
177 247
177 248
177 251
177 252
177 253
177 258
177 260
177 261
177 262
177 263
177 264
177 265
177 266
177 267
177 268
177 269
177 270
177 271
177 272
177 273
177 275
177 276
177 277
177 278
177 279
177 280
177 281
177 282
177 283
177 284
177 285
177 286
177 287
177 288
177 289
177 290
177 291
177 293
177 294
177 295
177 298
177 299
177 300
177 301
177 303
177 306
177 308
177 309
177 313
177 314
177 315
177 316
177 317
177 318
177 319
177 320
177 321
177 322
177 323
177 324
177 325
177 327
177 328
177 329
177 330
177 331
177 333
177 334
177 336
177 337
177 338
177 341
177 345
177 348
177 350
177 351
177 352
177 353
177 354
177 356
177 358
177 359
177 366
177 367
177 368
177 369
177 370
177 371
177 372
177 373
177 374
177 376
177 377
177 378
177 379
177 380
177 383
177 384
177 385
177 386
177 387
177 388
177 391
177 392
177 396
177 397
177 398
177 399
177 400
177 401
177 403
177 404
177 411
177 412
177 414
177 420
177 421
177 424
177 427
177 428
177 429
177 430
177 431
177 434
177 436
177 437
177 441
177 442
177 443
177 444
177 445
177 446
177 447
177 448
177 450
177 451
177 452
177 453
177 454
177 455
177 458
177 459
177 460
177 462
177 466
177 469
177 470
177 471
177 472
177 473
177 474
177 475
177 476
177 477
177 478
177 479
177 480
177 482
177 483
177 484
177 485
177 486
177 487
177 491
177 492
177 493
177 495
177 497
177 499
177 501
177 502
177 503
177 504
177 505
177 506
177 507
177 508
177 509
177 510
177 512
177 513
177 514
177 515
177 516
177 517
177 518
177 519
177 522
177 523
177 524
177 526
177 528
177 533
177 534
177 535
177 536
177 537
177 538
177 539
177 541
177 542
177 543
177 544
177 545
177 546
177 547
177 548
177 549
177 550
177 551
177 552
177 553
177 554
177 555
177 556
177 558
177 559
177 560
177 561
177 562
177 563
177 564
177 565
177 566
177 567
177 568
177 569
177 570
177 571
177 572
177 574
177 575
177 576
177 577
177 578
177 579
178 179
178 180
178 181
178 182
178 183
178 184
178 185
178 186
178 187
178 188
178 189
178 190
178 191
178 192
178 193
178 194
178 196
178 197
178 198
178 199
178 200
178 201
178 202
178 203
178 204
178 205
178 207
178 208
178 209
178 210
178 211
178 212
178 214
178 215
178 216
178 221
178 223
178 226
178 230
178 231
178 232
178 233
178 234
178 235
178 236
178 237
178 238
178 239
178 240
178 241
178 243
178 244
178 247
178 248
178 251
178 252
178 253
178 258
178 261
178 262
178 263
178 264
178 269
178 270
178 271
178 273
178 274
178 277
178 279
178 280
178 281
178 282
178 283
178 284
178 285
178 286
178 287
178 288
178 289
178 290
178 291
178 292
178 294
178 295
178 298
178 299
178 300
178 301
178 303
178 306
178 308
178 309
178 314
178 315
178 316
178 320
178 324
178 326
178 329
178 331
178 332
178 333
178 334
178 335
178 336
178 337
178 338
178 339
178 340
178 341
178 342
178 343
178 344
178 346
178 347
178 348
178 350
178 351
178 352
178 353
178 354
178 356
178 358
178 359
178 366
178 367
178 368
178 369
178 370
178 371
178 372
178 373
178 374
178 375
178 376
178 377
178 379
178 380
178 383
178 384
178 385
178 386
178 387
178 388
178 391
178 392
178 396
178 397
178 398
178 399
178 400
178 401
178 403
178 404
178 411
178 412
178 413
178 414
178 415
178 416
178 417
178 418
178 419
178 421
178 422
178 423
178 424
178 425
178 426
178 427
178 428
178 429
178 430
178 431
178 432
178 433
178 434
178 435
178 436
178 438
178 439
178 440
178 442
178 443
178 445
178 449
178 451
178 454
178 458
178 459
178 460
178 462
178 466
178 469
178 470
178 472
178 473
178 476
178 478
178 481
178 486
178 488
178 489
178 490
178 491
178 492
178 493
178 494
178 495
178 496
178 497
178 498
178 499
178 500
178 502
178 503
178 504
178 505
178 506
178 507
178 508
178 509
178 510
178 511
178 512
178 513
178 515
178 516
178 517
178 518
178 519
178 520
178 521
178 522
178 523
178 524
178 525
178 527
178 528
178 529
178 530
178 531
178 532
178 534
178 536
178 538
178 539
178 540
178 543
178 546
178 549
178 550
178 553
178 555
178 557
178 561
178 563
178 564
178 565
178 566
178 567
178 568
178 569
178 570
178 571
178 572
178 573
178 574
178 576
178 577
178 578
178 579
179 180
179 182
179 183
179 185
179 189
179 190
179 192
179 195
179 197
179 198
179 199
179 200
179 201
179 202
179 203
179 204
179 205
179 206
179 207
179 209
179 210
179 211
179 212
179 214
179 215
179 216
179 221
179 223
179 226
179 230
179 231
179 232
179 233
179 234
179 235
179 236
179 237
179 238
179 239
179 240
179 241
179 242
179 244
179 245
179 246
179 247
179 248
179 249
179 250
179 251
179 252
179 253
179 254
179 255
179 256
179 257
179 259
179 260
179 261
179 262
179 263
179 264
179 265
179 266
179 267
179 268
179 269
179 270
179 271
179 272
179 273
179 274
179 275
179 276
179 278
179 282
179 283
179 284
179 286
179 292
179 293
179 298
179 299
179 300
179 301
179 303
179 306
179 308
179 309
179 313
179 314
179 315
179 316
179 317
179 318
179 319
179 320
179 321
179 322
179 323
179 324
179 325
179 326
179 327
179 328
179 330
179 331
179 333
179 334
179 336
179 337
179 338
179 341
179 345
179 348
179 350
179 351
179 352
179 353
179 354
179 356
179 358
179 359
179 367
179 368
179 369
179 370
179 371
179 372
179 375
179 378
179 379
179 383
179 384
179 385
179 386
179 387
179 388
179 391
179 392
179 396
179 397
179 398
179 399
179 400
179 401
179 403
179 404
179 411
179 412
179 413
179 414
179 415
179 416
179 417
179 418
179 419
179 420
179 422
179 423
179 424
179 425
179 427
179 428
179 429
179 430
179 431
179 434
179 436
179 437
179 441
179 442
179 443
179 444
179 445
179 446
179 447
179 448
179 449
179 450
179 452
179 453
179 454
179 455
179 456
179 457
179 458
179 459
179 460
179 461
179 462
179 463
179 464
179 465
179 466
179 467
179 468
179 470
179 472
179 473
179 476
179 478
179 481
179 486
179 491
179 492
179 493
179 495
179 497
179 499
179 501
179 502
179 503
179 504
179 505
179 506
179 507
179 508
179 509
179 510
179 511
179 512
179 513
179 514
179 515
179 517
179 518
179 519
179 520
179 521
179 522
179 523
179 524
179 525
179 526
179 527
179 529
179 530
179 531
179 532
179 533
179 534
179 535
179 536
179 537
179 538
179 539
179 540
179 541
179 542
179 544
179 545
179 546
179 547
179 549
179 550
179 553
179 555
179 557
179 561
179 563
179 564
179 565
179 567
179 568
179 569
179 571
179 573
179 575
179 579
180 181
180 182
180 183
180 184
180 185
180 186
180 187
180 188
180 189
180 190
180 191
180 192
180 193
180 194
180 195
180 196
180 198
180 199
180 200
180 201
180 202
180 203
180 204
180 205
180 206
180 207
180 208
180 209
180 210
180 211
180 214
180 215
180 216
180 221
180 223
180 226
180 232
180 233
180 234
180 235
180 236
180 242
180 243
180 247
180 248
180 251
180 252
180 253
180 258
180 261
180 262
180 263
180 264
180 269
180 270
180 271
180 273
180 274
180 277
180 282
180 283
180 284
180 286
180 292
180 293
180 298
180 299
180 300
180 301
180 303
180 306
180 308
180 309
180 313
180 314
180 315
180 316
180 317
180 318
180 319
180 320
180 321
180 322
180 323
180 324
180 325
180 326
180 327
180 328
180 329
180 330
180 332
180 333
180 334
180 335
180 336
180 337
180 338
180 339
180 340
180 341
180 342
180 343
180 344
180 345
180 346
180 347
180 350
180 351
180 352
180 353
180 354
180 356
180 358
180 359
180 366
180 367
180 368
180 369
180 370
180 371
180 372
180 373
180 374
180 375
180 376
180 377
180 378
180 380
180 383
180 384
180 385
180 386
180 387
180 388
180 391
180 392
180 396
180 397
180 398
180 399
180 400
180 401
180 403
180 404
180 411
180 412
180 413
180 414
180 415
180 416
180 417
180 418
180 419
180 420
180 421
180 422
180 423
180 425
180 427
180 428
180 429
180 430
180 431
180 434
180 436
180 437
180 441
180 442
180 443
180 444
180 445
180 446
180 447
180 448
180 449
180 450
180 451
180 452
180 453
180 455
180 456
180 457
180 458
180 459
180 460
180 461
180 462
180 463
180 464
180 465
180 466
180 467
180 468
180 469
180 471
180 472
180 473
180 474
180 475
180 476
180 477
180 478
180 479
180 480
180 481
180 482
180 483
180 484
180 485
180 487
180 488
180 489
180 490
180 491
180 492
180 493
180 494
180 495
180 496
180 497
180 498
180 499
180 500
180 501
180 504
180 505
180 506
180 511
180 514
180 516
180 518
180 519
180 522
180 523
180 524
180 526
180 528
180 533
180 534
180 535
180 536
180 537
180 538
180 539
180 540
180 541
180 542
180 543
180 544
180 545
180 547
180 548
180 549
180 550
180 551
180 552
180 553
180 554
180 555
180 556
180 557
180 558
180 559
180 560
180 562
180 563
180 564
180 565
180 566
180 567
180 568
180 569
180 570
180 571
180 572
180 573
180 574
180 575
180 576
180 577
180 578
181 182
181 183
181 184
181 185
181 186
181 187
181 188
181 189
181 190
181 191
181 192
181 193
181 194
181 195
181 196
181 197
181 201
181 202
181 203
181 204
181 205
181 206
181 209
181 212
181 214
181 216
181 217
181 218
181 219
181 222
181 223
181 224
181 227
181 228
181 230
181 232
181 233
181 234
181 235
181 236
181 237
181 238
181 239
181 240
181 241
181 242
181 243
181 244
181 245
181 247
181 248
181 249
181 250
181 251
181 252
181 253
181 254
181 255
181 256
181 257
181 258
181 259
181 264
181 265
181 266
181 267
181 268
181 270
181 272
181 273
181 279
181 280
181 282
181 283
181 284
181 285
181 286
181 287
181 288
181 289
181 290
181 291
181 292
181 293
181 294
181 295
181 296
181 298
181 299
181 300
181 301
181 302
181 303
181 304
181 305
181 306
181 307
181 308
181 309
181 310
181 311
181 312
181 314
181 315
181 316
181 317
181 318
181 319
181 320
181 321
181 322
181 323
181 324
181 325
181 326
181 327
181 328
181 329
181 330
181 331
181 333
181 335
181 336
181 338
181 342
181 343
181 345
181 348
181 350
181 351
181 352
181 353
181 354
181 355
181 356
181 357
181 358
181 359
181 360
181 361
181 362
181 363
181 364
181 365
181 369
181 370
181 371
181 372
181 373
181 376
181 378
181 379
181 384
181 388
181 389
181 390
181 393
181 394
181 396
181 401
181 402
181 404
181 405
181 406
181 407
181 409
181 412
181 413
181 414
181 416
181 417
181 418
181 420
181 422
181 424
181 427
181 428
181 429
181 430
181 431
181 432
181 433
181 434
181 435
181 436
181 437
181 438
181 439
181 440
181 443
181 444
181 447
181 450
181 454
181 460
181 461
181 462
181 463
181 464
181 470
181 472
181 474
181 475
181 477
181 478
181 479
181 482
181 486
181 488
181 489
181 491
181 492
181 493
181 494
181 495
181 496
181 497
181 498
181 499
181 500
181 501
181 502
181 504
181 506
181 507
181 508
181 512
181 514
181 517
181 518
181 520
181 521
181 524
181 526
181 529
181 534
181 535
181 536
181 537
181 538
181 539
181 540
181 541
181 542
181 543
181 544
181 545
181 546
181 547
181 551
181 552
181 553
181 558
181 561
181 565
181 566
181 567
181 568
181 570
181 571
181 574
181 575
181 579
182 183
182 184
182 185
182 186
182 187
182 188
182 189
182 190
182 191
182 192
182 193
182 194
182 195
182 196
182 197
182 201
182 202
182 203
182 204
182 205
182 206
182 209
182 212
182 213
182 215
182 216
182 217
182 218
182 219
182 220
182 221
182 222
182 223
182 224
182 225
182 226
182 227
182 228
182 229
182 230
182 231
182 232
182 234
182 235
182 236
182 237
182 238
182 239
182 240
182 241
182 242
182 243
182 244
182 246
182 249
182 250
182 251
182 253
182 257
182 264
182 265
182 266
182 267
182 268
182 270
182 272
182 273
182 281
182 284
182 285
182 286
182 287
182 288
182 289
182 291
182 293
182 294
182 297
182 301
182 302
182 303
182 304
182 305
182 306
182 309
182 310
182 313
182 317
182 318
182 319
182 320
182 323
182 324
182 325
182 327
182 331
182 332
182 334
182 335
182 336
182 337
182 338
182 339
182 340
182 341
182 342
182 343
182 344
182 345
182 346
182 347
182 348
182 349
182 350
182 352
182 353
182 354
182 355
182 356
182 357
182 358
182 359
182 360
182 361
182 362
182 363
182 364
182 365
182 369
182 370
182 371
182 372
182 373
182 376
182 378
182 379
182 381
182 382
182 383
182 385
182 386
182 387
182 388
182 389
182 390
182 391
182 392
182 393
182 394
182 395
182 397
182 398
182 399
182 400
182 401
182 402
182 403
182 404
182 405
182 406
182 407
182 408
182 409
182 410
182 412
182 413
182 414
182 416
182 417
182 418
182 420
182 422
182 424
182 426
182 428
182 429
182 431
182 435
182 436
182 437
182 443
182 444
182 447
182 450
182 454
182 460
182 461
182 462
182 463
182 464
182 470
182 471
182 473
182 474
182 475
182 476
182 477
182 478
182 479
182 480
182 481
182 482
182 483
182 484
182 485
182 486
182 487
182 490
182 493
182 494
182 495
182 496
182 499
182 501
182 502
182 503
182 505
182 506
182 507
182 508
182 509
182 510
182 511
182 512
182 513
182 514
182 515
182 516
182 517
182 519
182 520
182 521
182 522
182 523
182 524
182 525
182 526
182 527
182 528
182 529
182 530
182 531
182 532
182 533
182 535
182 536
182 539
182 541
182 544
182 546
182 551
182 552
182 553
182 558
182 561
182 565
182 566
182 567
182 568
182 570
182 571
182 574
182 575
182 579
183 184
183 185
183 186
183 187
183 188
183 189
183 190
183 191
183 192
183 193
183 194
183 195
183 196
183 197
183 201
183 202
183 203
183 204
183 205
183 206
183 209
183 212
183 213
183 214
183 215
183 217
183 218
183 219
183 220
183 221
183 222
183 223
183 224
183 225
183 226
183 227
183 228
183 229
183 231
183 233
183 237
183 238
183 240
183 242
183 246
183 249
183 250
183 251
183 253
183 257
183 260
183 261
183 262
183 263
183 265
183 266
183 267
183 268
183 269
183 270
183 271
183 272
183 273
183 274
183 275
183 276
183 277
183 278
183 279
183 280
183 281
183 282
183 283
183 285
183 286
183 287
183 288
183 289
183 290
183 291
183 292
183 293
183 294
183 295
183 296
183 297
183 298
183 299
183 300
183 302
183 303
183 304
183 305
183 306
183 307
183 308
183 309
183 310
183 311
183 312
183 313
183 317
183 318
183 319
183 320
183 323
183 324
183 325
183 327
183 331
183 333
183 335
183 336
183 338
183 342
183 343
183 345
183 348
183 349
183 351
183 355
183 356
183 357
183 358
183 361
183 362
183 369
183 370
183 371
183 372
183 373
183 376
183 378
183 379
183 381
183 382
183 383
183 384
183 385
183 386
183 387
183 389
183 390
183 391
183 392
183 393
183 394
183 395
183 396
183 397
183 398
183 399
183 400
183 402
183 403
183 404
183 405
183 406
183 407
183 408
183 409
183 410
183 411
183 413
183 414
183 415
183 416
183 417
183 418
183 419
183 420
183 421
183 422
183 423
183 424
183 425
183 426
183 427
183 429
183 430
183 431
183 432
183 433
183 434
183 435
183 436
183 437
183 438
183 439
183 440
183 443
183 444
183 447
183 450
183 454
183 456
183 457
183 458
183 459
183 461
183 462
183 463
183 464
183 465
183 466
183 467
183 468
183 469
183 470
183 472
183 474
183 475
183 477
183 478
183 479
183 482
183 486
183 488
183 489
183 490
183 491
183 492
183 494
183 495
183 496
183 497
183 498
183 499
183 500
183 501
183 502
183 503
183 504
183 505
183 507
183 508
183 509
183 510
183 511
183 512
183 513
183 514
183 515
183 516
183 517
183 518
183 520
183 521
183 524
183 526
183 529
183 533
183 535
183 536
183 539
183 541
183 544
183 546
183 551
183 552
183 553
183 558
183 561
183 563
183 564
183 566
183 567
183 568
183 569
183 570
183 571
183 572
183 573
183 574
183 575
183 576
183 577
183 578
183 579
184 185
184 186
184 187
184 188
184 189
184 190
184 191
184 192
184 193
184 194
184 195
184 196
184 197
184 201
184 202
184 203
184 204
184 205
184 206
184 209
184 212
184 214
184 216
184 217
184 218
184 219
184 222
184 223
184 224
184 227
184 228
184 231
184 233
184 237
184 238
184 240
184 242
184 246
184 249
184 250
184 251
184 253
184 257
184 260
184 261
184 262
184 263
184 264
184 266
184 267
184 268
184 269
184 270
184 271
184 272
184 273
184 274
184 275
184 276
184 277
184 278
184 279
184 280
184 281
184 282
184 283
184 284
184 286
184 287
184 288
184 289
184 290
184 291
184 292
184 293
184 294
184 295
184 296
184 297
184 298
184 299
184 300
184 301
184 303
184 304
184 305
184 306
184 307
184 308
184 309
184 310
184 311
184 312
184 313
184 314
184 315
184 316
184 318
184 319
184 320
184 321
184 322
184 323
184 324
184 325
184 326
184 327
184 328
184 329
184 330
184 331
184 332
184 333
184 334
184 336
184 337
184 338
184 339
184 340
184 341
184 342
184 343
184 344
184 345
184 346
184 347
184 348
184 349
184 350
184 351
184 352
184 353
184 354
184 356
184 357
184 358
184 359
184 360
184 361
184 362
184 363
184 364
184 365
184 369
184 370
184 371
184 372
184 373
184 376
184 378
184 379
184 384
184 388
184 389
184 390
184 393
184 394
184 396
184 397
184 398
184 399
184 400
184 401
184 403
184 404
184 405
184 406
184 407
184 408
184 409
184 410
184 412
184 413
184 414
184 416
184 417
184 418
184 420
184 422
184 424
184 426
184 428
184 429
184 431
184 435
184 436
184 437
184 443
184 444
184 447
184 450
184 454
184 456
184 457
184 458
184 459
184 460
184 462
184 463
184 464
184 465
184 466
184 467
184 468
184 469
184 470
184 471
184 472
184 473
184 475
184 476
184 477
184 478
184 479
184 480
184 481
184 482
184 483
184 484
184 485
184 486
184 487
184 488
184 489
184 490
184 491
184 492
184 493
184 495
184 496
184 497
184 498
184 499
184 500
184 501
184 502
184 504
184 506
184 507
184 508
184 512
184 514
184 517
184 518
184 519
184 521
184 522
184 523
184 524
184 525
184 526
184 527
184 528
184 529
184 530
184 531
184 532
184 533
184 535
184 536
184 539
184 541
184 544
184 546
184 548
184 549
184 550
184 552
184 553
184 554
184 555
184 556
184 557
184 558
184 559
184 560
184 561
184 562
184 565
184 566
184 567
184 568
184 570
184 571
184 574
184 575
184 579
185 186
185 187
185 188
185 189
185 190
185 191
185 192
185 193
185 194
185 195
185 196
185 197
185 198
185 199
185 200
185 202
185 203
185 204
185 205
185 206
185 207
185 208
185 209
185 210
185 211
185 212
185 214
185 216
185 217
185 218
185 219
185 222
185 223
185 224
185 227
185 228
185 231
185 233
185 237
185 238
185 240
185 242
185 246
185 249
185 250
185 251
185 253
185 257
185 264
185 265
185 266
185 267
185 268
185 270
185 272
185 273
185 279
185 280
185 281
185 282
185 283
185 284
185 285
185 287
185 288
185 289
185 290
185 291
185 292
185 293
185 294
185 295
185 296
185 297
185 298
185 299
185 300
185 301
185 302
185 304
185 305
185 306
185 307
185 308
185 309
185 310
185 311
185 312
185 313
185 317
185 318
185 319
185 320
185 323
185 324
185 325
185 327
185 331
185 333
185 335
185 336
185 338
185 342
185 343
185 345
185 348
185 349
185 350
185 351
185 352
185 353
185 354
185 355
185 357
185 358
185 359
185 360
185 361
185 362
185 363
185 364
185 365
185 366
185 367
185 368
185 370
185 371
185 372
185 373
185 374
185 375
185 376
185 377
185 378
185 379
185 380
185 384
185 388
185 389
185 390
185 393
185 394
185 396
185 401
185 402
185 404
185 405
185 406
185 407
185 409
185 412
185 413
185 414
185 416
185 417
185 418
185 420
185 422
185 424
185 426
185 427
185 428
185 430
185 431
185 432
185 433
185 434
185 435
185 436
185 437
185 438
185 439
185 440
185 441
185 442
185 444
185 445
185 446
185 447
185 448
185 449
185 450
185 451
185 452
185 453
185 454
185 455
185 456
185 457
185 458
185 459
185 460
185 461
185 463
185 464
185 465
185 466
185 467
185 468
185 469
185 470
185 472
185 474
185 475
185 477
185 478
185 479
185 482
185 486
185 488
185 489
185 490
185 491
185 492
185 493
185 494
185 496
185 497
185 498
185 499
185 500
185 501
185 502
185 504
185 506
185 507
185 508
185 512
185 514
185 517
185 518
185 520
185 521
185 524
185 526
185 529
185 533
185 535
185 536
185 539
185 541
185 544
185 546
185 551
185 552
185 553
185 558
185 561
185 565
185 566
185 567
185 568
185 570
185 571
185 574
185 575
185 579
186 187
186 188
186 189
186 190
186 191
186 192
186 193
186 194
186 195
186 196
186 197
186 201
186 202
186 203
186 204
186 205
186 206
186 209
186 212
186 213
186 214
186 215
186 216
186 218
186 219
186 220
186 221
186 222
186 223
186 224
186 225
186 226
186 227
186 228
186 229
186 230
186 231
186 232
186 233
186 234
186 235
186 236
186 238
186 239
186 240
186 241
186 242
186 243
186 244
186 246
186 249
186 250
186 251
186 253
186 257
186 260
186 261
186 262
186 263
186 264
186 265
186 267
186 268
186 269
186 270
186 271
186 272
186 273
186 274
186 275
186 276
186 277
186 278
186 279
186 280
186 281
186 282
186 283
186 284
186 285
186 286
186 288
186 289
186 290
186 291
186 292
186 293
186 294
186 295
186 297
186 301
186 302
186 303
186 304
186 305
186 306
186 309
186 310
186 313
186 317
186 318
186 319
186 320
186 323
186 324
186 325
186 327
186 331
186 333
186 335
186 336
186 338
186 342
186 343
186 345
186 348
186 349
186 351
186 355
186 356
186 357
186 358
186 361
186 362
186 369
186 370
186 371
186 372
186 373
186 376
186 378
186 379
186 381
186 382
186 383
186 384
186 385
186 386
186 387
186 388
186 390
186 391
186 392
186 393
186 394
186 395
186 396
186 401
186 402
186 404
186 405
186 406
186 407
186 409
186 411
186 412
186 414
186 415
186 416
186 417
186 418
186 419
186 420
186 421
186 422
186 423
186 424
186 425
186 426
186 428
186 429
186 431
186 435
186 436
186 437
186 443
186 444
186 447
186 450
186 454
186 456
186 457
186 458
186 459
186 460
186 461
186 462
186 464
186 465
186 466
186 467
186 468
186 469
186 470
186 472
186 474
186 475
186 477
186 478
186 479
186 482
186 486
186 490
186 493
186 494
186 495
186 496
186 499
186 501
186 502
186 503
186 504
186 505
186 506
186 508
186 509
186 510
186 511
186 512
186 513
186 514
186 515
186 516
186 517
186 518
186 520
186 521
186 524
186 526
186 529
186 533
186 535
186 536
186 539
186 541
186 544
186 546
186 548
186 549
186 550
186 551
186 553
186 554
186 555
186 556
186 557
186 558
186 559
186 560
186 561
186 562
186 565
186 566
186 567
186 568
186 570
186 571
186 574
186 575
186 579
187 188
187 189
187 190
187 191
187 192
187 193
187 194
187 195
187 196
187 197
187 201
187 202
187 203
187 204
187 205
187 206
187 209
187 212
187 213
187 214
187 215
187 216
187 217
187 219
187 220
187 221
187 222
187 223
187 224
187 225
187 226
187 227
187 228
187 229
187 231
187 233
187 237
187 238
187 240
187 242
187 245
187 246
187 247
187 248
187 250
187 251
187 252
187 253
187 254
187 255
187 256
187 257
187 258
187 259
187 260
187 261
187 262
187 263
187 264
187 265
187 266
187 268
187 269
187 270
187 271
187 272
187 273
187 274
187 275
187 276
187 277
187 278
187 279
187 280
187 281
187 282
187 283
187 284
187 285
187 286
187 287
187 289
187 290
187 291
187 292
187 293
187 294
187 295
187 296
187 297
187 298
187 299
187 300
187 301
187 302
187 303
187 305
187 306
187 307
187 308
187 309
187 310
187 311
187 312
187 313
187 314
187 315
187 316
187 317
187 319
187 320
187 321
187 322
187 323
187 324
187 325
187 326
187 327
187 328
187 329
187 330
187 331
187 333
187 335
187 336
187 338
187 342
187 343
187 345
187 348
187 349
187 351
187 355
187 356
187 357
187 358
187 361
187 362
187 369
187 370
187 371
187 372
187 373
187 376
187 378
187 379
187 384
187 388
187 389
187 390
187 393
187 394
187 396
187 401
187 402
187 404
187 405
187 406
187 407
187 409
187 412
187 413
187 414
187 416
187 417
187 418
187 420
187 422
187 424
187 426
187 428
187 429
187 431
187 435
187 436
187 437
187 441
187 442
187 443
187 445
187 446
187 447
187 448
187 449
187 450
187 451
187 452
187 453
187 454
187 455
187 456
187 457
187 458
187 459
187 460
187 461
187 462
187 463
187 465
187 466
187 467
187 468
187 469
187 470
187 472
187 474
187 475
187 477
187 478
187 479
187 482
187 486
187 490
187 493
187 494
187 495
187 496
187 499
187 501
187 502
187 504
187 506
187 507
187 508
187 512
187 514
187 517
187 518
187 519
187 520
187 522
187 523
187 524
187 525
187 526
187 527
187 528
187 529
187 530
187 531
187 532
187 533
187 535
187 536
187 539
187 541
187 544
187 546
187 551
187 552
187 553
187 558
187 561
187 563
187 564
187 565
187 567
187 568
187 569
187 570
187 571
187 572
187 573
187 574
187 575
187 576
187 577
187 578
187 579
188 189
188 190
188 191
188 192
188 193
188 194
188 195
188 196
188 197
188 198
188 199
188 200
188 201
188 203
188 204
188 205
188 206
188 207
188 208
188 209
188 210
188 211
188 212
188 213
188 214
188 215
188 216
188 217
188 218
188 220
188 221
188 222
188 223
188 224
188 225
188 226
188 227
188 228
188 229
188 230
188 231
188 232
188 233
188 234
188 235
188 236
188 237
188 239
188 240
188 241
188 242
188 243
188 244
188 245
188 246
188 247
188 248
188 249
188 251
188 252
188 253
188 254
188 255
188 256
188 257
188 258
188 259
188 260
188 261
188 262
188 263
188 264
188 265
188 266
188 267
188 269
188 270
188 271
188 272
188 273
188 274
188 275
188 276
188 277
188 278
188 279
188 280
188 281
188 282
188 283
188 284
188 285
188 286
188 287
188 288
188 290
188 291
188 292
188 293
188 294
188 295
188 296
188 297
188 298
188 299
188 300
188 301
188 302
188 303
188 304
188 306
188 307
188 308
188 309
188 310
188 311
188 312
188 313
188 314
188 315
188 316
188 317
188 318
188 320
188 321
188 322
188 323
188 324
188 325
188 326
188 327
188 328
188 329
188 330
188 331
188 333
188 335
188 336
188 338
188 342
188 343
188 345
188 348
188 349
188 350
188 351
188 352
188 353
188 354
188 355
188 356
188 358
188 359
188 360
188 361
188 362
188 363
188 364
188 365
188 369
188 370
188 371
188 372
188 373
188 376
188 378
188 379
188 381
188 382
188 383
188 384
188 385
188 386
188 387
188 388
188 389
188 391
188 392
188 393
188 394
188 395
188 396
188 401
188 402
188 404
188 405
188 406
188 407
188 409
188 412
188 413
188 414
188 416
188 417
188 418
188 420
188 422
188 424
188 426
188 428
188 429
188 431
188 435
188 436
188 437
188 443
188 444
188 447
188 450
188 454
188 460
188 461
188 462
188 463
188 464
188 470
188 471
188 472
188 473
188 474
188 476
188 477
188 478
188 479
188 480
188 481
188 482
188 483
188 484
188 485
188 486
188 487
188 488
188 489
188 490
188 491
188 492
188 493
188 494
188 495
188 497
188 498
188 499
188 500
188 501
188 502
188 503
188 504
188 505
188 506
188 507
188 509
188 510
188 511
188 512
188 513
188 514
188 515
188 516
188 517
188 518
188 520
188 521
188 524
188 526
188 529
188 533
188 534
188 536
188 537
188 538
188 539
188 540
188 541
188 542
188 543
188 544
188 545
188 546
188 547
188 551
188 552
188 553
188 558
188 561
188 565
188 566
188 567
188 568
188 570
188 571
188 574
188 575
188 579
189 190
189 191
189 192
189 193
189 194
189 195
189 196
189 197
189 201
189 202
189 203
189 204
189 205
189 206
189 209
189 212
189 214
189 216
189 217
189 218
189 219
189 222
189 223
189 224
189 227
189 228
189 231
189 233
189 237
189 238
189 240
189 242
189 245
189 246
189 247
189 248
189 249
189 250
189 252
189 253
189 254
189 255
189 256
189 257
189 258
189 259
189 264
189 265
189 266
189 267
189 268
189 270
189 272
189 273
189 281
189 284
189 285
189 286
189 287
189 288
189 289
189 291
189 293
189 294
189 296
189 297
189 298
189 299
189 300
189 301
189 302
189 303
189 304
189 305
189 307
189 308
189 309
189 310
189 311
189 312
189 313
189 314
189 315
189 316
189 317
189 318
189 319
189 321
189 322
189 323
189 324
189 325
189 326
189 327
189 328
189 329
189 330
189 331
189 332
189 333
189 334
189 335
189 337
189 338
189 339
189 340
189 341
189 342
189 343
189 344
189 345
189 346
189 347
189 348
189 349
189 350
189 351
189 352
189 353
189 354
189 355
189 356
189 357
189 359
189 360
189 361
189 362
189 363
189 364
189 365
189 366
189 367
189 368
189 369
189 371
189 372
189 373
189 374
189 375
189 376
189 377
189 378
189 379
189 380
189 384
189 388
189 389
189 390
189 393
189 394
189 396
189 401
189 402
189 404
189 405
189 406
189 407
189 409
189 411
189 412
189 413
189 415
189 416
189 417
189 418
189 419
189 420
189 421
189 422
189 423
189 424
189 425
189 426
189 428
189 429
189 431
189 435
189 436
189 437
189 443
189 444
189 447
189 450
189 454
189 460
189 461
189 462
189 463
189 464
189 470
189 472
189 474
189 475
189 477
189 478
189 479
189 482
189 486
189 490
189 493
189 494
189 495
189 496
189 499
189 501
189 502
189 504
189 506
189 507
189 508
189 512
189 514
189 517
189 518
189 520
189 521
189 524
189 526
189 529
189 533
189 535
189 536
189 539
189 541
189 544
189 546
189 548
189 549
189 550
189 551
189 552
189 554
189 555
189 556
189 557
189 558
189 559
189 560
189 561
189 562
189 563
189 564
189 565
189 566
189 568
189 569
189 570
189 571
189 572
189 573
189 574
189 575
189 576
189 577
189 578
189 579
190 191
190 192
190 193
190 194
190 195
190 196
190 197
190 198
190 199
190 200
190 201
190 202
190 204
190 205
190 206
190 207
190 208
190 209
190 210
190 211
190 212
190 214
190 216
190 217
190 218
190 219
190 222
190 223
190 224
190 227
190 228
190 231
190 233
190 237
190 238
190 240
190 242
190 245
190 246
190 247
190 248
190 249
190 250
190 251
190 252
190 254
190 255
190 256
190 257
190 258
190 259
190 260
190 261
190 262
190 263
190 264
190 265
190 266
190 267
190 268
190 269
190 271
190 272
190 273
190 274
190 275
190 276
190 277
190 278
190 281
190 284
190 285
190 286
190 287
190 288
190 289
190 291
190 293
190 294
190 297
190 301
190 302
190 303
190 304
190 305
190 306
190 309
190 310
190 313
190 317
190 318
190 319
190 320
190 323
190 324
190 325
190 327
190 331
190 332
190 333
190 334
190 335
190 336
190 337
190 339
190 340
190 341
190 342
190 343
190 344
190 345
190 346
190 347
190 348
190 349
190 351
190 355
190 356
190 357
190 358
190 361
190 362
190 366
190 367
190 368
190 369
190 370
190 372
190 373
190 374
190 375
190 376
190 377
190 378
190 379
190 380
190 384
190 388
190 389
190 390
190 393
190 394
190 396
190 397
190 398
190 399
190 400
190 401
190 402
190 403
190 405
190 406
190 407
190 408
190 409
190 410
190 412
190 413
190 414
190 416
190 417
190 418
190 420
190 422
190 424
190 426
190 427
190 428
190 429
190 430
190 432
190 433
190 434
190 435
190 436
190 437
190 438
190 439
190 440
190 443
190 444
190 447
190 450
190 454
190 460
190 461
190 462
190 463
190 464
190 470
190 472
190 474
190 475
190 477
190 478
190 479
190 482
190 486
190 490
190 493
190 494
190 495
190 496
190 499
190 501
190 502
190 504
190 506
190 507
190 508
190 512
190 514
190 517
190 518
190 520
190 521
190 524
190 526
190 529
190 533
190 534
190 535
190 537
190 538
190 539
190 540
190 541
190 542
190 543
190 544
190 545
190 546
190 547
190 551
190 552
190 553
190 558
190 561
190 563
190 564
190 565
190 566
190 567
190 569
190 570
190 571
190 572
190 573
190 574
190 575
190 576
190 577
190 578
190 579
191 192
191 193
191 194
191 195
191 196
191 197
191 198
191 199
191 200
191 201
191 202
191 203
191 205
191 206
191 207
191 208
191 209
191 210
191 211
191 212
191 213
191 214
191 215
191 216
191 217
191 218
191 219
191 220
191 221
191 223
191 224
191 225
191 226
191 227
191 228
191 229
191 230
191 231
191 232
191 233
191 234
191 235
191 236
191 237
191 238
191 239
191 241
191 242
191 243
191 244
191 246
191 249
191 250
191 251
191 253
191 257
191 260
191 261
191 262
191 263
191 264
191 265
191 266
191 267
191 268
191 269
191 270
191 271
191 273
191 274
191 275
191 276
191 277
191 278
191 279
191 280
191 281
191 282
191 283
191 284
191 285
191 286
191 287
191 288
191 289
191 290
191 292
191 293
191 294
191 295
191 297
191 301
191 302
191 303
191 304
191 305
191 306
191 309
191 310
191 313
191 314
191 315
191 316
191 317
191 318
191 319
191 320
191 321
191 322
191 324
191 325
191 326
191 327
191 328
191 329
191 330
191 331
191 332
191 333
191 334
191 335
191 336
191 337
191 338
191 339
191 340
191 341
191 343
191 344
191 345
191 346
191 347
191 348
191 349
191 350
191 351
191 352
191 353
191 354
191 355
191 356
191 357
191 358
191 359
191 360
191 362
191 363
191 364
191 365
191 369
191 370
191 371
191 372
191 373
191 376
191 378
191 379
191 384
191 388
191 389
191 390
191 393
191 394
191 396
191 397
191 398
191 399
191 400
191 401
191 402
191 403
191 404
191 406
191 407
191 408
191 409
191 410
191 411
191 412
191 413
191 414
191 415
191 417
191 418
191 419
191 420
191 421
191 422
191 423
191 424
191 425
191 426
191 427
191 428
191 429
191 430
191 431
191 432
191 433
191 434
191 436
191 437
191 438
191 439
191 440
191 441
191 442
191 443
191 444
191 445
191 446
191 448
191 449
191 450
191 451
191 452
191 453
191 454
191 455
191 460
191 461
191 462
191 463
191 464
191 470
191 471
191 472
191 473
191 474
191 475
191 476
191 478
191 479
191 480
191 481
191 482
191 483
191 484
191 485
191 486
191 487
191 490
191 493
191 494
191 495
191 496
191 499
191 501
191 502
191 504
191 506
191 507
191 508
191 512
191 514
191 517
191 518
191 520
191 521
191 524
191 526
191 529
191 533
191 535
191 536
191 539
191 541
191 544
191 546
191 551
191 552
191 553
191 558
191 561
191 563
191 564
191 565
191 566
191 567
191 568
191 569
191 571
191 572
191 573
191 574
191 575
191 576
191 577
191 578
191 579
192 193
192 194
192 195
192 196
192 197
192 201
192 202
192 203
192 204
192 205
192 206
192 209
192 212
192 213
192 214
192 215
192 216
192 217
192 218
192 219
192 220
192 221
192 222
192 224
192 225
192 226
192 227
192 228
192 229
192 231
192 233
192 237
192 238
192 240
192 242
192 246
192 249
192 250
192 251
192 253
192 257
192 260
192 261
192 262
192 263
192 264
192 265
192 266
192 267
192 268
192 269
192 270
192 271
192 272
192 274
192 275
192 276
192 277
192 278
192 281
192 284
192 285
192 286
192 287
192 288
192 289
192 291
192 293
192 294
192 296
192 297
192 298
192 299
192 300
192 301
192 302
192 303
192 304
192 305
192 306
192 307
192 308
192 310
192 311
192 312
192 313
192 314
192 315
192 316
192 317
192 318
192 319
192 320
192 321
192 322
192 323
192 325
192 326
192 327
192 328
192 329
192 330
192 331
192 333
192 335
192 336
192 338
192 342
192 343
192 345
192 348
192 349
192 351
192 355
192 356
192 357
192 358
192 361
192 362
192 366
192 367
192 368
192 369
192 370
192 371
192 373
192 374
192 375
192 376
192 377
192 378
192 379
192 380
192 384
192 388
192 389
192 390
192 393
192 394
192 396
192 401
192 402
192 404
192 405
192 406
192 407
192 409
192 412
192 413
192 414
192 416
192 417
192 418
192 420
192 422
192 424
192 426
192 427
192 428
192 429
192 430
192 431
192 432
192 433
192 434
192 435
192 437
192 438
192 439
192 440
192 443
192 444
192 447
192 450
192 454
192 460
192 461
192 462
192 463
192 464
192 470
192 471
192 472
192 473
192 474
192 475
192 476
192 477
192 479
192 480
192 481
192 482
192 483
192 484
192 485
192 486
192 487
192 488
192 489
192 490
192 491
192 492
192 493
192 494
192 495
192 496
192 497
192 498
192 500
192 501
192 502
192 504
192 506
192 507
192 508
192 512
192 514
192 517
192 518
192 519
192 520
192 521
192 522
192 523
192 525
192 526
192 527
192 528
192 529
192 530
192 531
192 532
192 533
192 534
192 535
192 536
192 537
192 538
192 540
192 541
192 542
192 543
192 544
192 545
192 546
192 547
192 551
192 552
192 553
192 558
192 561
192 563
192 564
192 565
192 566
192 567
192 568
192 569
192 570
192 572
192 573
192 574
192 575
192 576
192 577
192 578
192 579
193 194
193 195
193 196
193 197
193 198
193 199
193 200
193 201
193 202
193 203
193 204
193 206
193 207
193 208
193 209
193 210
193 211
193 212
193 213
193 214
193 215
193 216
193 217
193 218
193 219
193 220
193 221
193 222
193 223
193 225
193 226
193 227
193 228
193 229
193 231
193 233
193 237
193 238
193 240
193 242
193 246
193 249
193 250
193 251
193 253
193 257
193 264
193 265
193 266
193 267
193 268
193 270
193 272
193 273
193 281
193 284
193 285
193 286
193 287
193 288
193 289
193 291
193 293
193 294
193 297
193 301
193 302
193 303
193 304
193 305
193 306
193 309
193 310
193 313
193 314
193 315
193 316
193 317
193 318
193 319
193 320
193 321
193 322
193 323
193 324
193 326
193 327
193 328
193 329
193 330
193 331
193 332
193 333
193 334
193 335
193 336
193 337
193 338
193 339
193 340
193 341
193 342
193 344
193 345
193 346
193 347
193 348
193 349
193 350
193 351
193 352
193 353
193 354
193 355
193 356
193 357
193 358
193 359
193 360
193 361
193 363
193 364
193 365
193 366
193 367
193 368
193 369
193 370
193 371
193 372
193 374
193 375
193 376
193 377
193 378
193 379
193 380
193 381
193 382
193 383
193 384
193 385
193 386
193 387
193 388
193 389
193 390
193 391
193 392
193 394
193 395
193 396
193 397
193 398
193 399
193 400
193 401
193 402
193 403
193 404
193 405
193 407
193 408
193 409
193 410
193 411
193 412
193 413
193 414
193 415
193 416
193 418
193 419
193 420
193 421
193 422
193 423
193 424
193 425
193 426
193 428
193 429
193 431
193 435
193 436
193 437
193 443
193 444
193 447
193 450
193 454
193 460
193 461
193 462
193 463
193 464
193 470
193 471
193 472
193 473
193 474
193 475
193 476
193 477
193 478
193 480
193 481
193 482
193 483
193 484
193 485
193 486
193 487
193 490
193 493
193 494
193 495
193 496
193 499
193 501
193 502
193 504
193 506
193 507
193 508
193 512
193 514
193 517
193 518
193 520
193 521
193 524
193 526
193 529
193 533
193 535
193 536
193 539
193 541
193 544
193 546
193 551
193 552
193 553
193 558
193 561
193 565
193 566
193 567
193 568
193 570
193 571
193 574
193 575
193 579
194 195
194 196
194 197
194 201
194 202
194 203
194 204
194 205
194 206
194 209
194 212
194 213
194 214
194 215
194 216
194 217
194 218
194 219
194 220
194 221
194 222
194 223
194 224
194 225
194 226
194 228
194 229
194 231
194 233
194 237
194 238
194 240
194 242
194 245
194 246
194 247
194 248
194 249
194 250
194 251
194 252
194 253
194 254
194 255
194 256
194 258
194 259
194 264
194 265
194 266
194 267
194 268
194 270
194 272
194 273
194 281
194 284
194 285
194 286
194 287
194 288
194 289
194 291
194 293
194 294
194 296
194 297
194 298
194 299
194 300
194 301
194 302
194 303
194 304
194 305
194 306
194 307
194 308
194 309
194 311
194 312
194 313
194 314
194 315
194 316
194 317
194 318
194 319
194 320
194 321
194 322
194 323
194 324
194 325
194 326
194 328
194 329
194 330
194 331
194 333
194 335
194 336
194 338
194 342
194 343
194 345
194 348
194 349
194 351
194 355
194 356
194 357
194 358
194 361
194 362
194 366
194 367
194 368
194 369
194 370
194 371
194 372
194 373
194 374
194 375
194 377
194 378
194 379
194 380
194 381
194 382
194 383
194 384
194 385
194 386
194 387
194 388
194 389
194 390
194 391
194 392
194 393
194 395
194 396
194 397
194 398
194 399
194 400
194 401
194 402
194 403
194 404
194 405
194 406
194 408
194 409
194 410
194 411
194 412
194 413
194 414
194 415
194 416
194 417
194 419
194 420
194 421
194 422
194 423
194 424
194 425
194 426
194 428
194 429
194 431
194 435
194 436
194 437
194 441
194 442
194 443
194 444
194 445
194 446
194 447
194 448
194 449
194 451
194 452
194 453
194 454
194 455
194 460
194 461
194 462
194 463
194 464
194 470
194 471
194 472
194 473
194 474
194 475
194 476
194 477
194 478
194 479
194 480
194 481
194 483
194 484
194 485
194 486
194 487
194 490
194 493
194 494
194 495
194 496
194 499
194 501
194 502
194 503
194 504
194 505
194 506
194 507
194 508
194 509
194 510
194 511
194 513
194 514
194 515
194 516
194 517
194 518
194 520
194 521
194 524
194 526
194 529
194 533
194 534
194 535
194 536
194 537
194 538
194 539
194 540
194 542
194 543
194 544
194 545
194 546
194 547
194 551
194 552
194 553
194 558
194 561
194 563
194 564
194 565
194 566
194 567
194 568
194 569
194 570
194 571
194 572
194 573
194 575
194 576
194 577
194 578
194 579
195 196
195 197
195 198
195 199
195 200
195 201
195 202
195 203
195 204
195 205
195 207
195 208
195 209
195 210
195 211
195 212
195 214
195 216
195 217
195 218
195 219
195 222
195 223
195 224
195 227
195 228
195 230
195 231
195 232
195 233
195 234
195 235
195 236
195 237
195 238
195 239
195 240
195 241
195 243
195 244
195 246
195 249
195 250
195 251
195 253
195 257
195 264
195 265
195 266
195 267
195 268
195 270
195 272
195 273
195 279
195 280
195 281
195 282
195 283
195 284
195 285
195 286
195 287
195 288
195 289
195 290
195 291
195 292
195 294
195 295
195 297
195 301
195 302
195 303
195 304
195 305
195 306
195 309
195 310
195 313
195 317
195 318
195 319
195 320
195 323
195 324
195 325
195 327
195 331
195 332
195 333
195 334
195 335
195 336
195 337
195 338
195 339
195 340
195 341
195 342
195 343
195 344
195 346
195 347
195 348
195 349
195 351
195 355
195 356
195 357
195 358
195 361
195 362
195 366
195 367
195 368
195 369
195 370
195 371
195 372
195 373
195 374
195 375
195 376
195 377
195 379
195 380
195 384
195 388
195 389
195 390
195 393
195 394
195 396
195 401
195 402
195 404
195 405
195 406
195 407
195 409
195 411
195 412
195 413
195 414
195 415
195 416
195 417
195 418
195 419
195 421
195 422
195 423
195 424
195 425
195 426
195 427
195 428
195 429
195 430
195 431
195 432
195 433
195 434
195 435
195 436
195 438
195 439
195 440
195 443
195 444
195 447
195 450
195 454
195 460
195 461
195 462
195 463
195 464
195 470
195 472
195 474
195 475
195 477
195 478
195 479
195 482
195 486
195 488
195 489
195 490
195 491
195 492
195 493
195 494
195 495
195 496
195 497
195 498
195 499
195 500
195 502
195 503
195 504
195 505
195 506
195 507
195 508
195 509
195 510
195 511
195 512
195 513
195 515
195 516
195 517
195 518
195 519
195 520
195 521
195 522
195 523
195 524
195 525
195 527
195 528
195 529
195 530
195 531
195 532
195 533
195 535
195 536
195 539
195 541
195 544
195 546
195 551
195 552
195 553
195 558
195 561
195 563
195 564
195 565
195 566
195 567
195 568
195 569
195 570
195 571
195 572
195 573
195 574
195 576
195 577
195 578
195 579
196 197
196 198
196 199
196 200
196 201
196 202
196 203
196 204
196 205
196 206
196 207
196 208
196 210
196 211
196 212
196 213
196 214
196 215
196 216
196 217
196 218
196 219
196 220
196 221
196 222
196 223
196 224
196 225
196 226
196 227
196 229
196 231
196 233
196 237
196 238
196 240
196 242
196 246
196 249
196 250
196 251
196 253
196 257
196 264
196 265
196 266
196 267
196 268
196 270
196 272
196 273
196 279
196 280
196 281
196 282
196 283
196 284
196 285
196 286
196 287
196 288
196 289
196 290
196 291
196 292
196 293
196 295
196 297
196 301
196 302
196 303
196 304
196 305
196 306
196 309
196 310
196 313
196 317
196 318
196 319
196 320
196 323
196 324
196 325
196 327
196 331
196 333
196 335
196 336
196 338
196 342
196 343
196 345
196 348
196 349
196 351
196 355
196 356
196 357
196 358
196 361
196 362
196 369
196 370
196 371
196 372
196 373
196 376
196 378
196 379
196 384
196 388
196 389
196 390
196 393
196 394
196 396
196 397
196 398
196 399
196 400
196 401
196 402
196 403
196 404
196 405
196 406
196 407
196 408
196 410
196 411
196 412
196 413
196 414
196 415
196 416
196 417
196 418
196 419
196 420
196 421
196 423
196 424
196 425
196 426
196 428
196 429
196 431
196 435
196 436
196 437
196 443
196 444
196 447
196 450
196 454
196 460
196 461
196 462
196 463
196 464
196 470
196 472
196 474
196 475
196 477
196 478
196 479
196 482
196 486
196 490
196 493
196 494
196 495
196 496
196 499
196 501
196 502
196 503
196 504
196 505
196 506
196 507
196 508
196 509
196 510
196 511
196 512
196 513
196 514
196 515
196 516
196 518
196 519
196 520
196 521
196 522
196 523
196 524
196 525
196 526
196 527
196 528
196 530
196 531
196 532
196 533
196 534
196 535
196 536
196 537
196 538
196 539
196 540
196 541
196 542
196 543
196 545
196 546
196 547
196 548
196 549
196 550
196 551
196 552
196 553
196 554
196 555
196 556
196 557
196 559
196 560
196 561
196 562
196 565
196 566
196 567
196 568
196 570
196 571
196 574
196 575
196 579
197 198
197 199
197 200
197 201
197 202
197 203
197 204
197 205
197 206
197 207
197 208
197 209
197 210
197 211
197 214
197 216
197 217
197 218
197 219
197 222
197 223
197 224
197 227
197 228
197 231
197 233
197 237
197 238
197 240
197 242
197 246
197 249
197 250
197 251
197 253
197 257
197 264
197 265
197 266
197 267
197 268
197 270
197 272
197 273
197 281
197 284
197 285
197 286
197 287
197 288
197 289
197 291
197 293
197 294
197 297
197 301
197 302
197 303
197 304
197 305
197 306
197 309
197 310
197 313
197 314
197 315
197 316
197 317
197 318
197 319
197 320
197 321
197 322
197 323
197 324
197 325
197 326
197 327
197 328
197 329
197 330
197 332
197 333
197 334
197 335
197 336
197 337
197 338
197 339
197 340
197 341
197 342
197 343
197 344
197 345
197 346
197 347
197 349
197 351
197 355
197 356
197 357
197 358
197 361
197 362
197 366
197 367
197 368
197 369
197 370
197 371
197 372
197 373
197 374
197 375
197 376
197 377
197 378
197 380
197 384
197 388
197 389
197 390
197 393
197 394
197 396
197 401
197 402
197 404
197 405
197 406
197 407
197 409
197 411
197 412
197 413
197 414
197 415
197 416
197 417
197 418
197 419
197 420
197 421
197 422
197 423
197 425
197 426
197 428
197 429
197 431
197 435
197 436
197 437
197 441
197 442
197 443
197 444
197 445
197 446
197 447
197 448
197 449
197 450
197 451
197 452
197 453
197 455
197 456
197 457
197 458
197 459
197 460
197 461
197 462
197 463
197 464
197 465
197 466
197 467
197 468
197 469
197 471
197 472
197 473
197 474
197 475
197 476
197 477
197 478
197 479
197 480
197 481
197 482
197 483
197 484
197 485
197 487
197 488
197 489
197 490
197 491
197 492
197 493
197 494
197 495
197 496
197 497
197 498
197 499
197 500
197 501
197 504
197 506
197 507
197 508
197 512
197 514
197 517
197 518
197 520
197 521
197 524
197 526
197 529
197 533
197 534
197 535
197 536
197 537
197 538
197 539
197 540
197 541
197 542
197 543
197 544
197 545
197 547
197 548
197 549
197 550
197 551
197 552
197 553
197 554
197 555
197 556
197 557
197 558
197 559
197 560
197 562
197 563
197 564
197 565
197 566
197 567
197 568
197 569
197 570
197 571
197 572
197 573
197 574
197 575
197 576
197 577
197 578
198 199
198 200
198 201
198 202
198 203
198 204
198 205
198 206
198 207
198 208
198 209
198 210
198 211
198 212
198 215
198 219
198 222
198 224
198 228
198 229
198 234
198 236
198 238
198 240
198 242
198 243
198 246
198 247
198 248
198 249
198 250
198 251
198 252
198 253
198 254
198 255
198 256
198 257
198 258
198 259
198 262
198 268
198 270
198 272
198 276
198 277
198 278
198 280
198 281
198 282
198 283
198 284
198 285
198 286
198 287
198 288
198 289
198 290
198 291
198 292
198 293
198 294
198 295
198 300
198 303
198 305
198 311
198 312
198 314
198 319
198 323
198 325
198 329
198 330
198 331
198 338
198 342
198 343
198 345
198 346
198 347
198 348
198 353
198 356
198 357
198 361
198 362
198 365
198 367
198 369
198 371
198 373
198 378
198 379
198 382
198 383
198 384
198 385
198 386
198 387
198 388
198 389
198 390
198 391
198 392
198 393
198 394
198 395
198 397
198 399
198 404
198 405
198 406
198 408
198 409
198 416
198 417
198 420
198 421
198 422
198 423
198 424
198 427
198 429
198 431
198 435
198 437
198 438
198 439
198 442
198 443
198 447
198 451
198 452
198 453
198 454
198 457
198 458
198 459
198 460
198 461
198 462
198 463
198 464
198 465
198 466
198 467
198 468
198 469
198 470
198 472
198 473
198 474
198 475
198 476
198 477
198 478
198 479
198 480
198 481
198 482
198 483
198 484
198 485
198 486
198 487
198 489
198 490
198 491
198 492
198 493
198 494
198 495
198 496
198 497
198 498
198 499
198 500
198 501
198 502
198 504
198 505
198 506
198 507
198 508
198 509
198 510
198 511
198 512
198 513
198 514
198 515
198 516
198 517
198 526
198 527
198 528
198 529
198 530
198 531
198 535
198 536
198 543
198 544
198 545
198 546
198 549
198 550
198 551
198 552
198 553
198 554
198 555
198 556
198 557
198 558
198 559
198 560
198 561
198 562
198 568
198 570
198 575
198 576
198 577
198 578
198 579
199 200
199 201
199 202
199 203
199 204
199 205
199 206
199 207
199 208
199 209
199 210
199 211
199 212
199 215
199 219
199 222
199 224
199 228
199 229
199 230
199 231
199 232
199 233
199 235
199 236
199 237
199 238
199 239
199 240
199 241
199 242
199 243
199 244
199 245
199 248
199 250
199 253
199 258
199 259
199 260
199 261
199 263
199 264
199 265
199 266
199 267
199 268
199 269
199 270
199 271
199 272
199 273
199 274
199 275
199 276
199 277
199 278
199 279
199 286
199 289
199 291
199 293
199 294
199 300
199 303
199 305
199 311
199 312
199 313
199 315
199 316
199 317
199 318
199 319
199 320
199 321
199 322
199 323
199 324
199 325
199 326
199 327
199 328
199 329
199 330
199 331
199 338
199 342
199 343
199 345
199 346
199 347
199 348
199 353
199 356
199 357
199 361
199 362
199 365
199 366
199 368
199 369
199 370
199 371
199 372
199 373
199 374
199 375
199 376
199 377
199 378
199 379
199 380
199 381
199 382
199 383
199 384
199 386
199 387
199 388
199 389
199 390
199 391
199 392
199 393
199 394
199 395
199 396
199 398
199 399
199 400
199 401
199 402
199 403
199 404
199 405
199 406
199 407
199 408
199 409
199 410
199 416
199 417
199 420
199 421
199 422
199 423
199 424
199 426
199 428
199 429
199 430
199 431
199 432
199 433
199 434
199 435
199 436
199 437
199 438
199 439
199 440
199 442
199 443
199 447
199 451
199 452
199 453
199 454
199 456
199 458
199 462
199 469
199 470
199 471
199 473
199 475
199 477
199 479
199 484
199 485
199 486
199 488
199 489
199 490
199 491
199 493
199 494
199 495
199 496
199 497
199 498
199 499
199 500
199 501
199 502
199 503
199 508
199 514
199 515
199 516
199 517
199 526
199 527
199 528
199 529
199 530
199 531
199 535
199 536
199 543
199 544
199 545
199 546
199 548
199 550
199 551
199 552
199 553
199 554
199 555
199 556
199 557
199 558
199 559
199 560
199 561
199 562
199 568
199 570
199 575
199 576
199 577
199 578
199 579
200 201
200 202
200 203
200 204
200 205
200 206
200 207
200 208
200 209
200 210
200 211
200 212
200 213
200 214
200 216
200 217
200 218
200 219
200 220
200 221
200 222
200 223
200 224
200 225
200 226
200 227
200 228
200 229
200 230
200 231
200 232
200 233
200 234
200 235
200 237
200 238
200 239
200 240
200 241
200 242
200 243
200 244
200 245
200 246
200 247
200 249
200 250
200 251
200 252
200 253
200 254
200 255
200 256
200 257
200 258
200 259
200 262
200 268
200 270
200 272
200 276
200 277
200 278
200 279
200 286
200 289
200 291
200 293
200 294
200 296
200 297
200 298
200 299
200 301
200 302
200 303
200 304
200 305
200 306
200 307
200 308
200 309
200 310
200 311
200 312
200 314
200 319
200 323
200 325
200 329
200 330
200 331
200 338
200 342
200 343
200 345
200 346
200 347
200 348
200 349
200 350
200 351
200 352
200 354
200 355
200 356
200 357
200 358
200 359
200 360
200 361
200 362
200 363
200 364
200 365
200 367
200 369
200 371
200 373
200 378
200 379
200 381
200 382
200 383
200 384
200 385
200 387
200 388
200 389
200 390
200 391
200 392
200 393
200 394
200 395
200 396
200 397
200 398
200 400
200 401
200 402
200 403
200 404
200 405
200 406
200 407
200 408
200 409
200 410
200 416
200 417
200 420
200 421
200 422
200 423
200 424
200 427
200 429
200 431
200 435
200 437
200 438
200 439
200 441
200 443
200 444
200 445
200 446
200 447
200 448
200 449
200 450
200 451
200 452
200 453
200 454
200 455
200 456
200 457
200 459
200 460
200 461
200 462
200 463
200 464
200 465
200 466
200 467
200 468
200 469
200 470
200 471
200 472
200 474
200 475
200 476
200 477
200 478
200 479
200 480
200 481
200 482
200 483
200 484
200 485
200 486
200 487
200 488
200 492
200 495
200 496
200 501
200 502
200 503
200 508
200 514
200 515
200 516
200 517
200 526
200 527
200 528
200 529
200 530
200 531
200 535
200 536
200 543
200 544
200 545
200 546
200 548
200 549
200 558
200 559
200 560
200 561
200 568
200 570
200 575
200 576
200 577
200 578
200 579
201 202
201 203
201 204
201 205
201 206
201 207
201 208
201 209
201 210
201 211
201 212
201 215
201 219
201 222
201 224
201 228
201 229
201 234
201 236
201 238
201 240
201 242
201 243
201 245
201 248
201 250
201 253
201 258
201 259
201 262
201 268
201 270
201 272
201 276
201 277
201 278
201 279
201 280
201 281
201 282
201 283
201 284
201 285
201 287
201 288
201 289
201 290
201 291
201 292
201 293
201 294
201 295
201 296
201 297
201 298
201 299
201 300
201 301
201 302
201 304
201 305
201 306
201 307
201 308
201 309
201 310
201 311
201 312
201 314
201 319
201 323
201 325
201 329
201 330
201 331
201 338
201 342
201 343
201 345
201 346
201 347
201 348
201 349
201 350
201 351
201 352
201 353
201 354
201 355
201 357
201 358
201 359
201 360
201 361
201 362
201 363
201 364
201 365
201 366
201 367
201 368
201 370
201 371
201 372
201 373
201 374
201 375
201 376
201 377
201 378
201 379
201 380
201 381
201 385
201 386
201 390
201 393
201 395
201 397
201 399
201 404
201 405
201 406
201 408
201 409
201 416
201 417
201 420
201 421
201 422
201 423
201 424
201 426
201 427
201 428
201 430
201 431
201 432
201 433
201 434
201 435
201 436
201 437
201 438
201 439
201 440
201 441
201 442
201 444
201 445
201 446
201 447
201 448
201 449
201 450
201 451
201 452
201 453
201 454
201 455
201 456
201 457
201 458
201 459
201 460
201 461
201 463
201 464
201 465
201 466
201 467
201 468
201 469
201 470
201 471
201 473
201 475
201 477
201 479
201 484
201 485
201 486
201 488
201 489
201 490
201 491
201 492
201 493
201 494
201 496
201 497
201 498
201 499
201 500
201 501
201 502
201 503
201 508
201 514
201 515
201 516
201 517
201 526
201 527
201 528
201 529
201 530
201 531
201 535
201 536
201 543
201 544
201 545
201 546
201 548
201 549
201 558
201 559
201 560
201 561
201 568
201 570
201 575
201 576
201 577
201 578
201 579
202 203
202 204
202 205
202 206
202 207
202 208
202 209
202 210
202 211
202 212
202 213
202 214
202 215
202 216
202 217
202 218
202 220
202 221
202 222
202 223
202 224
202 225
202 226
202 227
202 228
202 229
202 230
202 231
202 232
202 233
202 234
202 235
202 236
202 237
202 239
202 240
202 241
202 242
202 243
202 244
202 245
202 246
202 247
202 248
202 249
202 251
202 252
202 253
202 254
202 255
202 256
202 257
202 258
202 259
202 260
202 261
202 262
202 263
202 264
202 265
202 266
202 267
202 269
202 270
202 271
202 272
202 273
202 274
202 275
202 276
202 277
202 278
202 279
202 280
202 281
202 282
202 283
202 284
202 285
202 286
202 287
202 288
202 290
202 291
202 292
202 293
202 294
202 295
202 296
202 297
202 298
202 299
202 300
202 301
202 302
202 303
202 304
202 306
202 307
202 308
202 309
202 310
202 311
202 312
202 313
202 314
202 315
202 316
202 317
202 318
202 320
202 321
202 322
202 323
202 324
202 325
202 326
202 327
202 328
202 329
202 330
202 331
202 338
202 342
202 343
202 345
202 346
202 347
202 348
202 349
202 350
202 351
202 352
202 353
202 354
202 355
202 356
202 358
202 359
202 360
202 361
202 362
202 363
202 364
202 365
202 367
202 369
202 371
202 373
202 378
202 379
202 381
202 382
202 383
202 384
202 385
202 386
202 387
202 388
202 389
202 391
202 392
202 393
202 394
202 395
202 397
202 399
202 404
202 405
202 406
202 408
202 409
202 416
202 417
202 420
202 421
202 422
202 423
202 424
202 427
202 429
202 431
202 435
202 437
202 438
202 439
202 442
202 443
202 447
202 451
202 452
202 453
202 454
202 456
202 458
202 462
202 469
202 470
202 471
202 472
202 473
202 474
202 476
202 477
202 478
202 479
202 480
202 481
202 482
202 483
202 484
202 485
202 486
202 487
202 488
202 489
202 490
202 491
202 492
202 493
202 494
202 495
202 497
202 498
202 499
202 500
202 501
202 502
202 503
202 504
202 505
202 506
202 507
202 509
202 510
202 511
202 512
202 513
202 514
202 515
202 516
202 517
202 526
202 527
202 528
202 529
202 530
202 531
202 533
202 534
202 536
202 537
202 538
202 539
202 540
202 541
202 542
202 543
202 544
202 545
202 546
202 547
202 548
202 549
202 558
202 559
202 560
202 561
202 568
202 570
202 575
202 576
202 577
202 578
202 579
203 204
203 205
203 206
203 207
203 208
203 209
203 210
203 211
203 212
203 215
203 219
203 222
203 224
203 228
203 229
203 234
203 236
203 238
203 240
203 242
203 243
203 245
203 246
203 247
203 248
203 249
203 250
203 251
203 252
203 254
203 255
203 256
203 257
203 258
203 259
203 260
203 261
203 262
203 263
203 264
203 265
203 266
203 267
203 268
203 269
203 271
203 272
203 273
203 274
203 275
203 276
203 277
203 278
203 279
203 286
203 289
203 291
203 293
203 294
203 300
203 303
203 305
203 311
203 312
203 314
203 319
203 323
203 325
203 329
203 330
203 331
203 332
203 333
203 334
203 335
203 336
203 337
203 339
203 340
203 341
203 342
203 343
203 344
203 345
203 346
203 347
203 348
203 353
203 356
203 357
203 361
203 362
203 365
203 366
203 367
203 368
203 369
203 370
203 372
203 373
203 374
203 375
203 376
203 377
203 378
203 379
203 380
203 381
203 385
203 386
203 390
203 393
203 395
203 396
203 397
203 398
203 399
203 400
203 401
203 402
203 403
203 405
203 406
203 407
203 408
203 409
203 410
203 416
203 417
203 420
203 421
203 422
203 423
203 424
203 426
203 427
203 428
203 429
203 430
203 432
203 433
203 434
203 435
203 436
203 437
203 438
203 439
203 440
203 442
203 443
203 447
203 451
203 452
203 453
203 454
203 456
203 458
203 462
203 469
203 470
203 471
203 473
203 475
203 477
203 479
203 484
203 485
203 486
203 488
203 492
203 495
203 496
203 501
203 502
203 503
203 508
203 514
203 515
203 516
203 517
203 526
203 527
203 528
203 529
203 530
203 531
203 533
203 534
203 535
203 537
203 538
203 539
203 540
203 541
203 542
203 543
203 544
203 545
203 546
203 547
203 548
203 549
203 558
203 559
203 560
203 561
203 563
203 564
203 565
203 566
203 567
203 569
203 570
203 571
203 572
203 573
203 574
203 575
203 576
203 577
203 578
203 579
204 205
204 206
204 207
204 208
204 209
204 210
204 211
204 212
204 213
204 214
204 215
204 216
204 217
204 218
204 219
204 220
204 221
204 223
204 224
204 225
204 226
204 227
204 228
204 229
204 230
204 231
204 232
204 233
204 234
204 235
204 236
204 237
204 238
204 239
204 241
204 242
204 243
204 244
204 245
204 248
204 250
204 253
204 258
204 259
204 260
204 261
204 262
204 263
204 264
204 265
204 266
204 267
204 268
204 269
204 270
204 271
204 273
204 274
204 275
204 276
204 277
204 278
204 279
204 280
204 281
204 282
204 283
204 284
204 285
204 286
204 287
204 288
204 289
204 290
204 292
204 293
204 294
204 295
204 300
204 303
204 305
204 311
204 312
204 313
204 314
204 315
204 316
204 317
204 318
204 319
204 320
204 321
204 322
204 324
204 325
204 326
204 327
204 328
204 329
204 330
204 331
204 332
204 333
204 334
204 335
204 336
204 337
204 338
204 339
204 340
204 341
204 343
204 344
204 345
204 346
204 347
204 348
204 349
204 350
204 351
204 352
204 353
204 354
204 355
204 356
204 357
204 358
204 359
204 360
204 362
204 363
204 364
204 365
204 367
204 369
204 371
204 373
204 378
204 379
204 381
204 385
204 386
204 390
204 393
204 395
204 396
204 397
204 398
204 399
204 400
204 401
204 402
204 403
204 404
204 406
204 407
204 408
204 409
204 410
204 411
204 412
204 413
204 414
204 415
204 417
204 418
204 419
204 420
204 421
204 422
204 423
204 424
204 425
204 426
204 427
204 428
204 429
204 430
204 431
204 432
204 433
204 434
204 436
204 437
204 438
204 439
204 440
204 441
204 442
204 443
204 444
204 445
204 446
204 448
204 449
204 450
204 451
204 452
204 453
204 454
204 455
204 456
204 458
204 462
204 469
204 470
204 471
204 472
204 473
204 474
204 475
204 476
204 478
204 479
204 480
204 481
204 482
204 483
204 484
204 485
204 486
204 487
204 488
204 492
204 495
204 496
204 501
204 502
204 503
204 508
204 514
204 515
204 516
204 517
204 526
204 527
204 528
204 529
204 530
204 531
204 535
204 536
204 543
204 544
204 545
204 546
204 548
204 549
204 558
204 559
204 560
204 561
204 563
204 564
204 565
204 566
204 567
204 568
204 569
204 571
204 572
204 573
204 574
204 575
204 576
204 577
204 578
204 579
205 206
205 207
205 208
205 209
205 210
205 211
205 212
205 213
205 214
205 215
205 216
205 217
205 218
205 219
205 220
205 221
205 222
205 223
205 225
205 226
205 227
205 228
205 229
205 234
205 236
205 238
205 240
205 242
205 243
205 245
205 248
205 250
205 253
205 258
205 259
205 262
205 268
205 270
205 272
205 276
205 277
205 278
205 279
205 286
205 289
205 291
205 293
205 294
205 300
205 303
205 305
205 311
205 312
205 313
205 314
205 315
205 316
205 317
205 318
205 319
205 320
205 321
205 322
205 323
205 324
205 326
205 327
205 328
205 329
205 330
205 331
205 332
205 333
205 334
205 335
205 336
205 337
205 338
205 339
205 340
205 341
205 342
205 344
205 345
205 346
205 347
205 348
205 349
205 350
205 351
205 352
205 353
205 354
205 355
205 356
205 357
205 358
205 359
205 360
205 361
205 363
205 364
205 365
205 366
205 367
205 368
205 369
205 370
205 371
205 372
205 374
205 375
205 376
205 377
205 378
205 379
205 380
205 381
205 382
205 383
205 384
205 385
205 386
205 387
205 388
205 389
205 390
205 391
205 392
205 394
205 395
205 396
205 397
205 398
205 399
205 400
205 401
205 402
205 403
205 404
205 405
205 407
205 408
205 409
205 410
205 411
205 412
205 413
205 414
205 415
205 416
205 418
205 419
205 420
205 421
205 422
205 423
205 424
205 425
205 427
205 429
205 431
205 435
205 437
205 438
205 439
205 442
205 443
205 447
205 451
205 452
205 453
205 454
205 456
205 458
205 462
205 469
205 470
205 471
205 472
205 473
205 474
205 475
205 476
205 477
205 478
205 480
205 481
205 482
205 483
205 484
205 485
205 486
205 487
205 488
205 492
205 495
205 496
205 501
205 502
205 503
205 508
205 514
205 515
205 516
205 517
205 526
205 527
205 528
205 529
205 530
205 531
205 535
205 536
205 543
205 544
205 545
205 546
205 548
205 549
205 558
205 559
205 560
205 561
205 568
205 570
205 575
205 576
205 577
205 578
205 579
206 207
206 208
206 209
206 210
206 211
206 212
206 215
206 219
206 222
206 224
206 228
206 229
206 230
206 231
206 232
206 233
206 234
206 235
206 236
206 237
206 238
206 239
206 240
206 241
206 243
206 244
206 245
206 248
206 250
206 253
206 258
206 259
206 262
206 268
206 270
206 272
206 276
206 277
206 278
206 279
206 280
206 281
206 282
206 283
206 284
206 285
206 286
206 287
206 288
206 289
206 290
206 291
206 292
206 294
206 295
206 300
206 303
206 305
206 311
206 312
206 314
206 319
206 323
206 325
206 329
206 330
206 331
206 332
206 333
206 334
206 335
206 336
206 337
206 338
206 339
206 340
206 341
206 342
206 343
206 344
206 346
206 347
206 348
206 353
206 356
206 357
206 361
206 362
206 365
206 366
206 367
206 368
206 369
206 370
206 371
206 372
206 373
206 374
206 375
206 376
206 377
206 379
206 380
206 381
206 385
206 386
206 390
206 393
206 395
206 397
206 399
206 404
206 405
206 406
206 408
206 409
206 411
206 412
206 413
206 414
206 415
206 416
206 417
206 418
206 419
206 421
206 422
206 423
206 424
206 425
206 426
206 427
206 428
206 429
206 430
206 431
206 432
206 433
206 434
206 435
206 436
206 438
206 439
206 440
206 442
206 443
206 447
206 451
206 452
206 453
206 454
206 456
206 458
206 462
206 469
206 470
206 471
206 473
206 475
206 477
206 479
206 484
206 485
206 486
206 488
206 489
206 490
206 491
206 492
206 493
206 494
206 495
206 496
206 497
206 498
206 499
206 500
206 502
206 503
206 504
206 505
206 506
206 507
206 508
206 509
206 510
206 511
206 512
206 513
206 515
206 516
206 517
206 518
206 519
206 520
206 521
206 522
206 523
206 524
206 525
206 527
206 528
206 529
206 530
206 531
206 532
206 535
206 536
206 543
206 544
206 545
206 546
206 548
206 549
206 558
206 559
206 560
206 561
206 563
206 564
206 565
206 566
206 567
206 568
206 569
206 570
206 571
206 572
206 573
206 574
206 576
206 577
206 578
206 579
207 208
207 209
207 210
207 211
207 212
207 215
207 219
207 222
207 224
207 228
207 229
207 234
207 236
207 238
207 240
207 242
207 243
207 245
207 248
207 250
207 253
207 258
207 259
207 260
207 261
207 262
207 263
207 264
207 265
207 266
207 267
207 268
207 269
207 270
207 271
207 272
207 273
207 274
207 275
207 277
207 278
207 279
207 286
207 289
207 291
207 293
207 294
207 296
207 297
207 298
207 299
207 300
207 301
207 302
207 303
207 304
207 305
207 306
207 307
207 308
207 309
207 310
207 312
207 314
207 319
207 323
207 325
207 329
207 330
207 331
207 332
207 333
207 334
207 335
207 336
207 337
207 338
207 339
207 340
207 341
207 342
207 343
207 344
207 345
207 347
207 348
207 353
207 356
207 357
207 361
207 362
207 365
207 367
207 369
207 371
207 373
207 378
207 379
207 381
207 385
207 386
207 390
207 393
207 395
207 396
207 397
207 398
207 399
207 400
207 401
207 402
207 403
207 404
207 405
207 406
207 407
207 409
207 410
207 416
207 417
207 420
207 421
207 422
207 423
207 424
207 426
207 427
207 428
207 429
207 430
207 431
207 432
207 433
207 434
207 435
207 436
207 437
207 439
207 440
207 442
207 443
207 447
207 451
207 452
207 453
207 454
207 456
207 458
207 462
207 469
207 470
207 471
207 472
207 473
207 474
207 475
207 476
207 477
207 478
207 479
207 480
207 481
207 482
207 483
207 485
207 486
207 487
207 488
207 492
207 495
207 496
207 501
207 502
207 503
207 504
207 505
207 506
207 507
207 508
207 509
207 510
207 511
207 512
207 513
207 514
207 516
207 517
207 518
207 519
207 520
207 521
207 522
207 523
207 524
207 525
207 526
207 528
207 529
207 530
207 531
207 532
207 535
207 536
207 543
207 544
207 545
207 546
207 548
207 549
207 558
207 559
207 560
207 561
207 563
207 564
207 565
207 566
207 567
207 568
207 569
207 570
207 571
207 572
207 573
207 574
207 575
207 577
207 578
207 579
208 209
208 210
208 211
208 212
208 215
208 219
208 222
208 224
208 228
208 229
208 230
208 231
208 232
208 233
208 234
208 235
208 236
208 237
208 238
208 239
208 240
208 241
208 242
208 244
208 245
208 246
208 247
208 248
208 249
208 250
208 251
208 252
208 253
208 254
208 255
208 256
208 257
208 259
208 260
208 261
208 262
208 263
208 264
208 265
208 266
208 267
208 268
208 269
208 270
208 271
208 272
208 273
208 274
208 275
208 276
208 278
208 279
208 286
208 289
208 291
208 293
208 294
208 300
208 303
208 305
208 311
208 312
208 313
208 314
208 315
208 316
208 317
208 318
208 319
208 320
208 321
208 322
208 323
208 324
208 325
208 326
208 327
208 328
208 330
208 331
208 338
208 342
208 343
208 345
208 346
208 347
208 348
208 353
208 356
208 357
208 361
208 362
208 365
208 367
208 369
208 371
208 373
208 378
208 379
208 381
208 385
208 386
208 390
208 393
208 395
208 397
208 399
208 404
208 405
208 406
208 408
208 409
208 411
208 412
208 413
208 414
208 415
208 416
208 417
208 418
208 419
208 420
208 422
208 423
208 424
208 425
208 427
208 429
208 431
208 435
208 437
208 438
208 439
208 441
208 442
208 443
208 444
208 445
208 446
208 447
208 448
208 449
208 450
208 452
208 453
208 454
208 455
208 456
208 457
208 458
208 459
208 460
208 461
208 462
208 463
208 464
208 465
208 466
208 467
208 468
208 470
208 471
208 473
208 475
208 477
208 479
208 484
208 485
208 486
208 488
208 492
208 495
208 496
208 501
208 502
208 503
208 504
208 505
208 506
208 507
208 508
208 509
208 510
208 511
208 512
208 513
208 514
208 515
208 517
208 518
208 519
208 520
208 521
208 522
208 523
208 524
208 525
208 526
208 527
208 529
208 530
208 531
208 532
208 533
208 534
208 535
208 536
208 537
208 538
208 539
208 540
208 541
208 542
208 544
208 545
208 546
208 547
208 548
208 549
208 558
208 559
208 560
208 561
208 568
208 570
208 575
208 576
208 577
208 578
208 579
209 210
209 211
209 212
209 213
209 214
209 215
209 216
209 217
209 218
209 219
209 220
209 221
209 222
209 223
209 224
209 225
209 226
209 227
209 229
209 234
209 236
209 238
209 240
209 242
209 243
209 245
209 248
209 250
209 253
209 258
209 259
209 262
209 268
209 270
209 272
209 276
209 277
209 278
209 279
209 280
209 281
209 282
209 283
209 284
209 285
209 286
209 287
209 288
209 289
209 290
209 291
209 292
209 293
209 295
209 300
209 303
209 305
209 311
209 312
209 314
209 319
209 323
209 325
209 329
209 330
209 331
209 338
209 342
209 343
209 345
209 346
209 347
209 348
209 353
209 356
209 357
209 361
209 362
209 365
209 367
209 369
209 371
209 373
209 378
209 379
209 381
209 385
209 386
209 390
209 393
209 395
209 396
209 397
209 398
209 399
209 400
209 401
209 402
209 403
209 404
209 405
209 406
209 407
209 408
209 410
209 411
209 412
209 413
209 414
209 415
209 416
209 417
209 418
209 419
209 420
209 421
209 423
209 424
209 425
209 427
209 429
209 431
209 435
209 437
209 438
209 439
209 442
209 443
209 447
209 451
209 452
209 453
209 454
209 456
209 458
209 462
209 469
209 470
209 471
209 473
209 475
209 477
209 479
209 484
209 485
209 486
209 488
209 492
209 495
209 496
209 501
209 502
209 503
209 504
209 505
209 506
209 507
209 508
209 509
209 510
209 511
209 512
209 513
209 514
209 515
209 516
209 518
209 519
209 520
209 521
209 522
209 523
209 524
209 525
209 526
209 527
209 528
209 530
209 531
209 532
209 533
209 534
209 535
209 536
209 537
209 538
209 539
209 540
209 541
209 542
209 543
209 545
209 546
209 547
209 548
209 549
209 550
209 551
209 552
209 553
209 554
209 555
209 556
209 557
209 559
209 560
209 561
209 562
209 568
209 570
209 575
209 576
209 577
209 578
209 579
210 211
210 212
210 215
210 219
210 222
210 224
210 228
210 229
210 234
210 236
210 238
210 240
210 242
210 243
210 245
210 248
210 250
210 253
210 258
210 259
210 262
210 268
210 270
210 272
210 276
210 277
210 278
210 279
210 286
210 289
210 291
210 293
210 294
210 296
210 297
210 298
210 299
210 300
210 301
210 302
210 303
210 304
210 305
210 306
210 307
210 308
210 309
210 310
210 311
210 313
210 314
210 315
210 316
210 317
210 318
210 319
210 320
210 321
210 322
210 323
210 324
210 325
210 326
210 327
210 328
210 329
210 331
210 332
210 333
210 334
210 335
210 336
210 337
210 338
210 339
210 340
210 341
210 342
210 343
210 344
210 345
210 346
210 348
210 353
210 356
210 357
210 361
210 362
210 365
210 367
210 369
210 371
210 373
210 378
210 379
210 381
210 382
210 383
210 384
210 385
210 386
210 387
210 388
210 389
210 390
210 391
210 392
210 393
210 394
210 397
210 399
210 404
210 405
210 406
210 408
210 409
210 411
210 412
210 413
210 414
210 415
210 416
210 417
210 418
210 419
210 420
210 421
210 422
210 424
210 425
210 427
210 429
210 431
210 435
210 437
210 438
210 439
210 441
210 442
210 443
210 444
210 445
210 446
210 447
210 448
210 449
210 450
210 451
210 453
210 454
210 455
210 456
210 458
210 462
210 469
210 470
210 471
210 473
210 475
210 477
210 479
210 484
210 485
210 486
210 488
210 492
210 495
210 496
210 501
210 502
210 503
210 508
210 514
210 515
210 516
210 517
210 518
210 519
210 520
210 521
210 522
210 523
210 524
210 525
210 526
210 527
210 528
210 529
210 531
210 532
210 535
210 536
210 543
210 544
210 545
210 546
210 548
210 549
210 550
210 551
210 552
210 553
210 554
210 555
210 556
210 557
210 558
210 560
210 561
210 562
210 563
210 564
210 565
210 566
210 567
210 568
210 569
210 570
210 571
210 572
210 573
210 574
210 575
210 576
210 578
210 579
211 212
211 213
211 214
211 215
211 216
211 217
211 218
211 219
211 220
211 221
211 222
211 223
211 224
211 225
211 226
211 227
211 228
211 234
211 236
211 238
211 240
211 242
211 243
211 245
211 246
211 247
211 248
211 249
211 250
211 251
211 252
211 253
211 254
211 255
211 256
211 257
211 258
211 260
211 261
211 262
211 263
211 264
211 265
211 266
211 267
211 268
211 269
211 270
211 271
211 272
211 273
211 274
211 275
211 276
211 277
211 279
211 286
211 289
211 291
211 293
211 294
211 300
211 303
211 305
211 311
211 312
211 314
211 319
211 323
211 325
211 329
211 330
211 331
211 338
211 342
211 343
211 345
211 346
211 347
211 348
211 349
211 350
211 351
211 352
211 353
211 354
211 355
211 356
211 357
211 358
211 359
211 360
211 361
211 362
211 363
211 364
211 367
211 369
211 371
211 373
211 378
211 379
211 381
211 385
211 386
211 390
211 393
211 395
211 397
211 399
211 404
211 405
211 406
211 408
211 409
211 416
211 417
211 420
211 421
211 422
211 423
211 424
211 426
211 427
211 428
211 429
211 430
211 431
211 432
211 433
211 434
211 435
211 436
211 437
211 438
211 440
211 441
211 442
211 443
211 444
211 445
211 446
211 447
211 448
211 449
211 450
211 451
211 452
211 454
211 455
211 456
211 458
211 462
211 469
211 470
211 471
211 472
211 473
211 474
211 475
211 476
211 477
211 478
211 479
211 480
211 481
211 482
211 483
211 484
211 486
211 487
211 488
211 492
211 495
211 496
211 501
211 502
211 503
211 508
211 514
211 515
211 516
211 517
211 518
211 519
211 520
211 521
211 522
211 523
211 524
211 525
211 526
211 527
211 528
211 529
211 530
211 532
211 533
211 534
211 535
211 536
211 537
211 538
211 539
211 540
211 541
211 542
211 543
211 544
211 546
211 547
211 548
211 549
211 550
211 551
211 552
211 553
211 554
211 555
211 556
211 557
211 558
211 559
211 561
211 562
211 563
211 564
211 565
211 566
211 567
211 568
211 569
211 570
211 571
211 572
211 573
211 574
211 575
211 576
211 577
211 579
212 215
212 219
212 222
212 224
212 228
212 229
212 234
212 236
212 238
212 240
212 242
212 243
212 245
212 248
212 250
212 253
212 258
212 259
212 262
212 268
212 270
212 272
212 276
212 277
212 278
212 279
212 286
212 289
212 291
212 293
212 294
212 300
212 303
212 305
212 311
212 312
212 313
212 314
212 315
212 316
212 317
212 318
212 319
212 320
212 321
212 322
212 323
212 324
212 325
212 326
212 327
212 328
212 329
212 330
212 332
212 333
212 334
212 335
212 336
212 337
212 338
212 339
212 340
212 341
212 342
212 343
212 344
212 345
212 346
212 347
212 353
212 356
212 357
212 361
212 362
212 365
212 366
212 367
212 368
212 369
212 370
212 371
212 372
212 373
212 374
212 375
212 376
212 377
212 378
212 380
212 381
212 385
212 386
212 390
212 393
212 395
212 397
212 399
212 404
212 405
212 406
212 408
212 409
212 411
212 412
212 413
212 414
212 415
212 416
212 417
212 418
212 419
212 420
212 421
212 422
212 423
212 425
212 427
212 429
212 431
212 435
212 437
212 438
212 439
212 441
212 442
212 443
212 444
212 445
212 446
212 447
212 448
212 449
212 450
212 451
212 452
212 453
212 455
212 456
212 457
212 458
212 459
212 460
212 461
212 462
212 463
212 464
212 465
212 466
212 467
212 468
212 469
212 471
212 472
212 473
212 474
212 475
212 476
212 477
212 478
212 479
212 480
212 481
212 482
212 483
212 484
212 485
212 487
212 488
212 489
212 490
212 491
212 492
212 493
212 494
212 495
212 496
212 497
212 498
212 499
212 500
212 501
212 503
212 508
212 514
212 515
212 516
212 517
212 526
212 527
212 528
212 529
212 530
212 531
212 533
212 534
212 535
212 536
212 537
212 538
212 539
212 540
212 541
212 542
212 543
212 544
212 545
212 547
212 548
212 549
212 550
212 551
212 552
212 553
212 554
212 555
212 556
212 557
212 558
212 559
212 560
212 562
212 563
212 564
212 565
212 566
212 567
212 568
212 569
212 570
212 571
212 572
212 573
212 574
212 575
212 576
212 577
212 578
213 214
213 215
213 216
213 217
213 218
213 219
213 220
213 221
213 222
213 223
213 224
213 225
213 226
213 227
213 228
213 229
213 231
213 232
213 233
213 234
213 235
213 236
213 237
213 238
213 239
213 240
213 241
213 242
213 243
213 244
213 248
213 249
213 250
213 254
213 256
213 257
213 259
213 261
213 262
213 263
213 264
213 265
213 266
213 267
213 268
213 269
213 270
213 271
213 272
213 273
213 274
213 275
213 276
213 277
213 278
213 279
213 281
213 282
213 283
213 284
213 285
213 286
213 287
213 288
213 289
213 290
213 291
213 292
213 293
213 294
213 295
213 297
213 298
213 299
213 300
213 301
213 302
213 303
213 304
213 305
213 306
213 307
213 308
213 309
213 310
213 311
213 312
213 318
213 319
213 321
213 323
213 324
213 325
213 326
213 327
213 333
213 334
213 335
213 336
213 337
213 338
213 339
213 340
213 341
213 342
213 343
213 344
213 345
213 346
213 347
213 348
213 351
213 353
213 357
213 361
213 362
213 363
213 365
213 367
213 368
213 369
213 370
213 371
213 372
213 373
213 374
213 375
213 376
213 377
213 378
213 379
213 380
213 381
213 383
213 384
213 385
213 386
213 387
213 388
213 389
213 390
213 391
213 392
213 393
213 394
213 395
213 396
213 399
213 401
213 405
213 406
213 407
213 409
213 412
213 413
213 416
213 417
213 418
213 422
213 428
213 432
213 434
213 435
213 436
213 439
213 442
213 443
213 444
213 445
213 446
213 447
213 448
213 449
213 450
213 451
213 452
213 453
213 454
213 455
213 456
213 458
213 459
213 460
213 461
213 462
213 463
213 464
213 465
213 466
213 467
213 468
213 469
213 470
213 472
213 473
213 475
213 477
213 478
213 479
213 480
213 481
213 482
213 485
213 488
213 490
213 491
213 492
213 493
213 494
213 495
213 496
213 497
213 498
213 499
213 500
213 501
213 502
213 504
213 506
213 507
213 508
213 509
213 511
213 512
213 517
213 518
213 521
213 523
213 524
213 529
213 531
213 535
213 537
213 538
213 539
213 540
213 541
213 544
213 545
213 552
213 554
213 555
213 556
213 557
213 558
213 560
213 565
213 566
213 569
213 570
213 571
213 572
213 573
213 574
213 578
214 215
214 216
214 217
214 218
214 219
214 220
214 221
214 222
214 223
214 224
214 225
214 226
214 227
214 228
214 229
214 230
214 231
214 232
214 234
214 235
214 236
214 237
214 238
214 239
214 240
214 241
214 242
214 243
214 244
214 248
214 249
214 250
214 254
214 256
214 257
214 259
214 260
214 264
214 266
214 267
214 268
214 271
214 272
214 273
214 274
214 278
214 280
214 284
214 287
214 288
214 289
214 291
214 292
214 294
214 296
214 300
214 301
214 304
214 305
214 307
214 308
214 309
214 310
214 318
214 319
214 321
214 323
214 324
214 325
214 326
214 327
214 332
214 334
214 335
214 336
214 337
214 338
214 339
214 340
214 341
214 342
214 343
214 344
214 345
214 346
214 347
214 348
214 349
214 350
214 352
214 353
214 354
214 355
214 356
214 357
214 358
214 359
214 360
214 361
214 362
214 363
214 364
214 365
214 366
214 372
214 373
214 374
214 375
214 376
214 381
214 382
214 383
214 385
214 386
214 387
214 388
214 389
214 390
214 391
214 392
214 393
214 394
214 395
214 397
214 398
214 399
214 400
214 401
214 402
214 403
214 404
214 405
214 406
214 407
214 408
214 409
214 410
214 412
214 413
214 416
214 417
214 418
214 422
214 428
214 432
214 434
214 435
214 436
214 439
214 441
214 442
214 444
214 447
214 448
214 449
214 450
214 453
214 457
214 458
214 460
214 463
214 464
214 465
214 466
214 467
214 471
214 473
214 474
214 475
214 476
214 477
214 478
214 479
214 480
214 481
214 482
214 483
214 484
214 485
214 486
214 487
214 489
214 493
214 496
214 499
214 500
214 503
214 505
214 506
214 507
214 508
214 509
214 510
214 511
214 512
214 513
214 514
214 515
214 516
214 517
214 519
214 520
214 521
214 522
214 523
214 524
214 525
214 526
214 527
214 528
214 529
214 530
214 531
214 532
214 535
214 537
214 538
214 539
214 540
214 541
214 544
214 545
214 552
214 554
214 555
214 556
214 557
214 558
214 560
214 565
214 566
214 569
214 570
214 571
214 572
214 573
214 574
214 578
215 216
215 217
215 218
215 219
215 220
215 221
215 222
215 223
215 224
215 225
215 226
215 227
215 228
215 229
215 230
215 231
215 232
215 233
215 234
215 235
215 237
215 238
215 239
215 240
215 241
215 242
215 243
215 244
215 245
215 246
215 247
215 249
215 250
215 251
215 252
215 253
215 254
215 255
215 256
215 257
215 258
215 259
215 260
215 264
215 266
215 267
215 268
215 271
215 272
215 273
215 274
215 278
215 280
215 284
215 287
215 288
215 289
215 291
215 292
215 294
215 296
215 297
215 298
215 299
215 301
215 302
215 303
215 304
215 305
215 306
215 307
215 308
215 309
215 310
215 311
215 312
215 318
215 319
215 321
215 323
215 324
215 325
215 326
215 327
215 332
215 333
215 339
215 341
215 342
215 343
215 349
215 350
215 351
215 352
215 354
215 355
215 356
215 357
215 358
215 359
215 360
215 361
215 362
215 363
215 364
215 365
215 366
215 372
215 373
215 374
215 375
215 376
215 381
215 382
215 383
215 384
215 385
215 387
215 388
215 389
215 390
215 391
215 392
215 393
215 394
215 395
215 396
215 397
215 398
215 400
215 401
215 402
215 403
215 404
215 405
215 406
215 407
215 408
215 409
215 410
215 412
215 413
215 416
215 417
215 418
215 422
215 428
215 432
215 434
215 435
215 436
215 439
215 441
215 443
215 444
215 445
215 446
215 447
215 448
215 449
215 450
215 451
215 452
215 453
215 454
215 455
215 456
215 457
215 459
215 460
215 461
215 462
215 463
215 464
215 465
215 466
215 467
215 468
215 469
215 470
215 471
215 472
215 474
215 475
215 476
215 477
215 478
215 479
215 480
215 481
215 482
215 483
215 484
215 485
215 486
215 487
215 489
215 493
215 496
215 499
215 500
215 504
215 506
215 507
215 508
215 509
215 511
215 512
215 517
215 518
215 521
215 523
215 524
215 529
215 531
215 535
215 537
215 538
215 539
215 540
215 541
215 544
215 545
215 552
215 554
215 555
215 556
215 557
215 558
215 560
215 565
215 566
215 569
215 570
215 571
215 572
215 573
215 574
215 578
216 217
216 218
216 219
216 220
216 221
216 222
216 223
216 224
216 225
216 226
216 227
216 228
216 229
216 230
216 233
216 236
216 237
216 238
216 239
216 240
216 241
216 248
216 249
216 250
216 254
216 256
216 257
216 259
216 260
216 261
216 262
216 263
216 265
216 266
216 267
216 268
216 269
216 270
216 271
216 272
216 273
216 274
216 275
216 276
216 277
216 278
216 279
216 280
216 281
216 282
216 283
216 285
216 286
216 287
216 288
216 289
216 290
216 291
216 292
216 293
216 294
216 295
216 296
216 297
216 298
216 299
216 300
216 302
216 303
216 304
216 305
216 306
216 307
216 308
216 309
216 310
216 311
216 312
216 318
216 319
216 321
216 323
216 324
216 325
216 326
216 327
216 332
216 333
216 339
216 341
216 342
216 343
216 351
216 353
216 357
216 361
216 362
216 363
216 365
216 366
216 372
216 373
216 374
216 375
216 376
216 381
216 382
216 383
216 384
216 385
216 386
216 387
216 389
216 390
216 391
216 392
216 393
216 394
216 395
216 396
216 397
216 398
216 399
216 400
216 402
216 403
216 404
216 405
216 406
216 407
216 408
216 409
216 410
216 411
216 413
216 414
216 415
216 416
216 417
216 418
216 419
216 420
216 421
216 422
216 423
216 424
216 425
216 426
216 427
216 429
216 430
216 431
216 432
216 433
216 434
216 435
216 436
216 437
216 438
216 439
216 440
216 441
216 442
216 444
216 447
216 448
216 449
216 450
216 453
216 456
216 457
216 458
216 459
216 461
216 462
216 463
216 464
216 465
216 466
216 467
216 468
216 469
216 470
216 472
216 473
216 475
216 477
216 478
216 479
216 480
216 481
216 482
216 485
216 488
216 489
216 490
216 491
216 492
216 494
216 495
216 496
216 497
216 498
216 499
216 500
216 501
216 502
216 503
216 504
216 505
216 507
216 508
216 509
216 510
216 511
216 512
216 513
216 514
216 515
216 516
216 517
216 518
216 521
216 523
216 524
216 529
216 531
216 535
216 537
216 538
216 539
216 540
216 541
216 544
216 545
216 552
216 554
216 555
216 556
216 557
216 558
216 560
216 563
216 564
216 566
216 567
216 568
216 569
216 570
216 571
216 572
216 573
216 574
216 575
216 576
216 577
216 578
216 579
217 218
217 219
217 220
217 221
217 222
217 223
217 224
217 225
217 226
217 227
217 228
217 229
217 230
217 231
217 232
217 233
217 234
217 235
217 236
217 238
217 239
217 240
217 241
217 242
217 243
217 244
217 248
217 249
217 250
217 254
217 256
217 257
217 259
217 260
217 261
217 262
217 263
217 264
217 265
217 267
217 268
217 269
217 270
217 271
217 272
217 273
217 274
217 275
217 276
217 277
217 278
217 279
217 280
217 281
217 282
217 283
217 284
217 285
217 286
217 288
217 289
217 290
217 291
217 292
217 293
217 294
217 295
217 296
217 300
217 301
217 304
217 305
217 307
217 308
217 309
217 310
217 318
217 319
217 321
217 323
217 324
217 325
217 326
217 327
217 332
217 333
217 339
217 341
217 342
217 343
217 351
217 353
217 357
217 361
217 362
217 363
217 365
217 366
217 372
217 373
217 374
217 375
217 376
217 381
217 382
217 383
217 384
217 385
217 386
217 387
217 388
217 390
217 391
217 392
217 393
217 394
217 395
217 396
217 399
217 401
217 405
217 406
217 407
217 409
217 411
217 412
217 414
217 415
217 416
217 417
217 418
217 419
217 420
217 421
217 422
217 423
217 424
217 425
217 428
217 432
217 434
217 435
217 436
217 439
217 441
217 442
217 444
217 447
217 448
217 449
217 450
217 453
217 456
217 457
217 458
217 459
217 460
217 461
217 462
217 464
217 465
217 466
217 467
217 468
217 469
217 470
217 472
217 473
217 475
217 477
217 478
217 479
217 480
217 481
217 482
217 485
217 489
217 493
217 496
217 499
217 500
217 503
217 504
217 505
217 506
217 508
217 509
217 510
217 511
217 512
217 513
217 514
217 515
217 516
217 517
217 518
217 521
217 523
217 524
217 529
217 531
217 535
217 537
217 538
217 539
217 540
217 541
217 544
217 545
217 548
217 549
217 550
217 551
217 553
217 554
217 555
217 556
217 557
217 558
217 559
217 560
217 561
217 562
217 565
217 566
217 569
217 570
217 571
217 572
217 573
217 574
217 578
218 219
218 220
218 221
218 222
218 223
218 224
218 225
218 226
218 227
218 228
218 229
218 230
218 233
218 236
218 237
218 238
218 239
218 240
218 241
218 245
218 246
218 247
218 248
218 250
218 251
218 252
218 253
218 254
218 255
218 256
218 257
218 258
218 259
218 260
218 261
218 262
218 263
218 264
218 265
218 266
218 268
218 269
218 270
218 271
218 272
218 273
218 274
218 275
218 276
218 277
218 278
218 279
218 280
218 281
218 282
218 283
218 284
218 285
218 286
218 287
218 289
218 290
218 291
218 292
218 293
218 294
218 295
218 296
218 297
218 298
218 299
218 300
218 301
218 302
218 303
218 305
218 306
218 307
218 308
218 309
218 310
218 311
218 312
218 313
218 314
218 315
218 316
218 317
218 319
218 320
218 321
218 322
218 323
218 324
218 325
218 326
218 327
218 328
218 329
218 330
218 331
218 332
218 333
218 339
218 341
218 342
218 343
218 351
218 353
218 357
218 361
218 362
218 363
218 365
218 366
218 372
218 373
218 374
218 375
218 376
218 382
218 384
218 386
218 388
218 389
218 390
218 392
218 393
218 394
218 396
218 399
218 401
218 405
218 406
218 407
218 409
218 412
218 413
218 416
218 417
218 418
218 422
218 428
218 432
218 434
218 435
218 436
218 439
218 441
218 442
218 443
218 445
218 446
218 447
218 448
218 449
218 450
218 451
218 452
218 453
218 454
218 455
218 456
218 457
218 458
218 459
218 460
218 461
218 462
218 463
218 465
218 466
218 467
218 468
218 469
218 470
218 472
218 473
218 475
218 477
218 478
218 479
218 480
218 481
218 482
218 485
218 489
218 493
218 496
218 499
218 500
218 504
218 506
218 507
218 508
218 509
218 511
218 512
218 517
218 518
218 519
218 520
218 522
218 523
218 524
218 525
218 526
218 527
218 528
218 529
218 530
218 531
218 532
218 535
218 537
218 538
218 539
218 540
218 541
218 544
218 545
218 552
218 554
218 555
218 556
218 557
218 558
218 560
218 563
218 564
218 565
218 567
218 568
218 569
218 570
218 571
218 572
218 573
218 574
218 575
218 576
218 577
218 578
218 579
219 220
219 221
219 222
219 223
219 224
219 225
219 226
219 227
219 228
219 229
219 230
219 231
219 232
219 233
219 234
219 235
219 236
219 237
219 239
219 240
219 241
219 242
219 243
219 244
219 245
219 246
219 247
219 248
219 249
219 251
219 252
219 253
219 254
219 255
219 256
219 257
219 258
219 259
219 260
219 261
219 262
219 263
219 264
219 265
219 266
219 267
219 269
219 270
219 271
219 272
219 273
219 274
219 275
219 276
219 277
219 278
219 279
219 280
219 281
219 282
219 283
219 284
219 285
219 286
219 287
219 288
219 290
219 291
219 292
219 293
219 294
219 295
219 296
219 297
219 298
219 299
219 300
219 301
219 302
219 303
219 304
219 306
219 307
219 308
219 309
219 310
219 311
219 312
219 313
219 314
219 315
219 316
219 317
219 318
219 320
219 321
219 322
219 323
219 324
219 325
219 326
219 327
219 328
219 329
219 330
219 331
219 332
219 333
219 339
219 341
219 342
219 343
219 349
219 350
219 351
219 352
219 353
219 354
219 355
219 356
219 358
219 359
219 360
219 361
219 362
219 363
219 364
219 365
219 366
219 372
219 373
219 374
219 375
219 376
219 381
219 382
219 383
219 384
219 385
219 386
219 387
219 388
219 389
219 391
219 392
219 393
219 394
219 395
219 396
219 399
219 401
219 405
219 406
219 407
219 409
219 412
219 413
219 416
219 417
219 418
219 422
219 428
219 432
219 434
219 435
219 436
219 439
219 441
219 442
219 444
219 447
219 448
219 449
219 450
219 453
219 457
219 458
219 460
219 463
219 464
219 465
219 466
219 467
219 471
219 472
219 473
219 474
219 476
219 477
219 478
219 479
219 480
219 481
219 482
219 483
219 484
219 485
219 486
219 487
219 488
219 489
219 490
219 491
219 492
219 493
219 494
219 495
219 497
219 498
219 499
219 500
219 501
219 502
219 503
219 504
219 505
219 506
219 507
219 509
219 510
219 511
219 512
219 513
219 514
219 515
219 516
219 517
219 518
219 521
219 523
219 524
219 529
219 531
219 533
219 534
219 536
219 537
219 538
219 539
219 540
219 541
219 542
219 543
219 544
219 545
219 546
219 547
219 552
219 554
219 555
219 556
219 557
219 558
219 560
219 565
219 566
219 569
219 570
219 571
219 572
219 573
219 574
219 578
220 221
220 222
220 223
220 224
220 225
220 226
220 227
220 228
220 229
220 230
220 231
220 232
220 233
220 234
220 235
220 236
220 237
220 238
220 240
220 241
220 242
220 243
220 244
220 245
220 246
220 247
220 248
220 249
220 250
220 251
220 252
220 253
220 255
220 256
220 257
220 258
220 259
220 260
220 264
220 266
220 267
220 268
220 271
220 272
220 273
220 274
220 278
220 280
220 284
220 287
220 288
220 289
220 291
220 292
220 294
220 296
220 297
220 298
220 299
220 300
220 301
220 302
220 303
220 304
220 305
220 306
220 308
220 309
220 310
220 311
220 312
220 313
220 314
220 315
220 316
220 317
220 318
220 319
220 320
220 322
220 323
220 324
220 325
220 326
220 327
220 328
220 329
220 330
220 331
220 332
220 333
220 334
220 335
220 336
220 337
220 338
220 340
220 341
220 342
220 343
220 344
220 345
220 346
220 347
220 348
220 351
220 353
220 357
220 361
220 362
220 363
220 365
220 366
220 372
220 373
220 374
220 375
220 376
220 382
220 384
220 386
220 388
220 389
220 390
220 392
220 393
220 394
220 396
220 399
220 401
220 405
220 406
220 407
220 409
220 412
220 413
220 416
220 417
220 418
220 422
220 426
220 427
220 428
220 429
220 430
220 431
220 433
220 434
220 435
220 436
220 437
220 438
220 439
220 440
220 441
220 442
220 444
220 447
220 448
220 449
220 450
220 453
220 456
220 457
220 458
220 459
220 460
220 461
220 462
220 463
220 464
220 466
220 467
220 468
220 469
220 470
220 472
220 473
220 475
220 477
220 478
220 479
220 480
220 481
220 482
220 485
220 489
220 493
220 496
220 499
220 500
220 503
220 504
220 505
220 506
220 507
220 508
220 510
220 511
220 512
220 513
220 514
220 515
220 516
220 517
220 518
220 521
220 523
220 524
220 529
220 531
220 533
220 534
220 535
220 536
220 538
220 539
220 540
220 541
220 542
220 543
220 544
220 545
220 546
220 547
220 548
220 549
220 550
220 551
220 552
220 553
220 555
220 556
220 557
220 558
220 559
220 560
220 561
220 562
220 565
220 566
220 569
220 570
220 571
220 572
220 573
220 574
220 578
221 222
221 223
221 224
221 225
221 226
221 227
221 228
221 229
221 230
221 233
221 236
221 237
221 238
221 239
221 240
221 241
221 248
221 249
221 250
221 254
221 256
221 257
221 259
221 260
221 261
221 262
221 263
221 264
221 265
221 266
221 267
221 268
221 269
221 270
221 272
221 273
221 274
221 275
221 276
221 277
221 278
221 280
221 284
221 287
221 288
221 289
221 291
221 292
221 294
221 296
221 297
221 298
221 299
221 300
221 301
221 302
221 303
221 304
221 305
221 306
221 307
221 309
221 310
221 311
221 312
221 318
221 319
221 321
221 323
221 324
221 325
221 326
221 327
221 332
221 333
221 334
221 335
221 336
221 337
221 338
221 339
221 340
221 342
221 343
221 344
221 345
221 346
221 347
221 348
221 351
221 353
221 357
221 361
221 362
221 363
221 365
221 366
221 372
221 373
221 374
221 375
221 376
221 381
221 382
221 383
221 384
221 385
221 386
221 387
221 388
221 389
221 390
221 391
221 393
221 394
221 395
221 396
221 399
221 401
221 405
221 406
221 407
221 409
221 412
221 413
221 416
221 417
221 418
221 422
221 426
221 427
221 428
221 429
221 430
221 431
221 432
221 433
221 435
221 436
221 437
221 438
221 439
221 440
221 441
221 442
221 444
221 447
221 448
221 449
221 450
221 453
221 456
221 457
221 458
221 459
221 460
221 461
221 462
221 463
221 464
221 465
221 467
221 468
221 469
221 470
221 472
221 473
221 475
221 477
221 478
221 479
221 480
221 481
221 482
221 485
221 489
221 493
221 496
221 499
221 500
221 504
221 506
221 507
221 508
221 509
221 511
221 512
221 517
221 518
221 519
221 520
221 521
221 522
221 524
221 525
221 526
221 527
221 528
221 529
221 530
221 531
221 532
221 533
221 534
221 535
221 536
221 537
221 539
221 540
221 541
221 542
221 543
221 544
221 545
221 546
221 547
221 548
221 549
221 550
221 551
221 552
221 553
221 554
221 556
221 557
221 558
221 559
221 560
221 561
221 562
221 563
221 564
221 565
221 566
221 567
221 568
221 570
221 571
221 572
221 573
221 574
221 575
221 576
221 577
221 578
221 579
222 223
222 224
222 225
222 226
222 227
222 228
222 229
222 230
222 231
222 232
222 233
222 234
222 235
222 236
222 237
222 238
222 239
222 241
222 242
222 243
222 244
222 248
222 249
222 250
222 254
222 256
222 257
222 259
222 260
222 261
222 262
222 263
222 264
222 265
222 266
222 267
222 268
222 269
222 270
222 271
222 273
222 274
222 275
222 276
222 277
222 278
222 279
222 280
222 281
222 282
222 283
222 284
222 285
222 286
222 287
222 288
222 289
222 290
222 292
222 293
222 294
222 295
222 296
222 300
222 301
222 304
222 305
222 307
222 308
222 309
222 310
222 313
222 314
222 315
222 316
222 317
222 318
222 319
222 320
222 321
222 322
222 324
222 325
222 326
222 327
222 328
222 329
222 330
222 331
222 332
222 333
222 334
222 335
222 336
222 337
222 338
222 339
222 340
222 341
222 343
222 344
222 345
222 346
222 347
222 348
222 349
222 350
222 351
222 352
222 353
222 354
222 355
222 356
222 357
222 358
222 359
222 360
222 362
222 363
222 364
222 365
222 366
222 372
222 373
222 374
222 375
222 376
222 382
222 384
222 386
222 388
222 389
222 390
222 392
222 393
222 394
222 396
222 397
222 398
222 399
222 400
222 401
222 402
222 403
222 404
222 406
222 407
222 408
222 409
222 410
222 411
222 412
222 413
222 414
222 415
222 417
222 418
222 419
222 420
222 421
222 422
222 423
222 424
222 425
222 426
222 427
222 428
222 429
222 430
222 431
222 432
222 433
222 434
222 436
222 437
222 438
222 439
222 440
222 441
222 442
222 443
222 444
222 445
222 446
222 448
222 449
222 450
222 451
222 452
222 453
222 454
222 455
222 457
222 458
222 460
222 463
222 464
222 465
222 466
222 467
222 471
222 472
222 473
222 474
222 475
222 476
222 478
222 479
222 480
222 481
222 482
222 483
222 484
222 485
222 486
222 487
222 489
222 493
222 496
222 499
222 500
222 504
222 506
222 507
222 508
222 509
222 511
222 512
222 517
222 518
222 521
222 523
222 524
222 529
222 531
222 535
222 537
222 538
222 539
222 540
222 541
222 544
222 545
222 552
222 554
222 555
222 556
222 557
222 558
222 560
222 563
222 564
222 565
222 566
222 567
222 568
222 569
222 571
222 572
222 573
222 574
222 575
222 576
222 577
222 578
222 579
223 224
223 225
223 226
223 227
223 228
223 229
223 230
223 233
223 236
223 237
223 238
223 239
223 240
223 241
223 248
223 249
223 250
223 254
223 256
223 257
223 259
223 260
223 261
223 262
223 263
223 264
223 265
223 266
223 267
223 268
223 269
223 270
223 271
223 272
223 274
223 275
223 276
223 277
223 278
223 280
223 284
223 287
223 288
223 289
223 291
223 292
223 294
223 296
223 297
223 298
223 299
223 300
223 301
223 302
223 303
223 304
223 305
223 306
223 307
223 308
223 310
223 311
223 312
223 313
223 314
223 315
223 316
223 317
223 318
223 319
223 320
223 321
223 322
223 323
223 325
223 326
223 327
223 328
223 329
223 330
223 331
223 332
223 333
223 339
223 341
223 342
223 343
223 351
223 353
223 357
223 361
223 362
223 363
223 365
223 366
223 367
223 368
223 369
223 370
223 371
223 373
223 374
223 375
223 376
223 377
223 378
223 379
223 380
223 382
223 384
223 386
223 388
223 389
223 390
223 392
223 393
223 394
223 396
223 399
223 401
223 405
223 406
223 407
223 409
223 412
223 413
223 416
223 417
223 418
223 422
223 426
223 427
223 428
223 429
223 430
223 431
223 432
223 433
223 434
223 435
223 437
223 438
223 439
223 440
223 441
223 442
223 444
223 447
223 448
223 449
223 450
223 453
223 457
223 458
223 460
223 463
223 464
223 465
223 466
223 467
223 471
223 472
223 473
223 474
223 475
223 476
223 477
223 479
223 480
223 481
223 482
223 483
223 484
223 485
223 486
223 487
223 488
223 489
223 490
223 491
223 492
223 493
223 494
223 495
223 496
223 497
223 498
223 500
223 501
223 502
223 504
223 506
223 507
223 508
223 509
223 511
223 512
223 517
223 518
223 519
223 520
223 521
223 522
223 523
223 525
223 526
223 527
223 528
223 529
223 530
223 531
223 532
223 533
223 534
223 535
223 536
223 537
223 538
223 540
223 541
223 542
223 543
223 544
223 545
223 546
223 547
223 552
223 554
223 555
223 556
223 557
223 558
223 560
223 563
223 564
223 565
223 566
223 567
223 568
223 569
223 570
223 572
223 573
223 574
223 575
223 576
223 577
223 578
223 579
224 225
224 226
224 227
224 228
224 229
224 230
224 233
224 236
224 237
224 238
224 239
224 240
224 241
224 248
224 249
224 250
224 254
224 256
224 257
224 259
224 260
224 264
224 266
224 267
224 268
224 271
224 272
224 273
224 274
224 278
224 280
224 284
224 287
224 288
224 289
224 291
224 292
224 294
224 296
224 300
224 301
224 304
224 305
224 307
224 308
224 309
224 310
224 313
224 314
224 315
224 316
224 317
224 318
224 319
224 320
224 321
224 322
224 323
224 324
224 326
224 327
224 328
224 329
224 330
224 331
224 332
224 333
224 334
224 335
224 336
224 337
224 338
224 339
224 340
224 341
224 342
224 344
224 345
224 346
224 347
224 348
224 349
224 350
224 351
224 352
224 353
224 354
224 355
224 356
224 357
224 358
224 359
224 360
224 361
224 363
224 364
224 365
224 366
224 367
224 368
224 369
224 370
224 371
224 372
224 374
224 375
224 376
224 377
224 378
224 379
224 380
224 381
224 382
224 383
224 384
224 385
224 386
224 387
224 388
224 389
224 390
224 391
224 392
224 394
224 395
224 396
224 397
224 398
224 399
224 400
224 401
224 402
224 403
224 404
224 405
224 407
224 408
224 409
224 410
224 411
224 412
224 413
224 414
224 415
224 416
224 418
224 419
224 420
224 421
224 422
224 423
224 424
224 425
224 428
224 432
224 434
224 435
224 436
224 439
224 441
224 442
224 444
224 447
224 448
224 449
224 450
224 453
224 457
224 458
224 460
224 463
224 464
224 465
224 466
224 467
224 471
224 472
224 473
224 474
224 475
224 476
224 477
224 478
224 480
224 481
224 482
224 483
224 484
224 485
224 486
224 487
224 489
224 493
224 496
224 499
224 500
224 504
224 506
224 507
224 508
224 509
224 511
224 512
224 517
224 518
224 521
224 523
224 524
224 529
224 531
224 535
224 537
224 538
224 539
224 540
224 541
224 544
224 545
224 552
224 554
224 555
224 556
224 557
224 558
224 560
224 565
224 566
224 569
224 570
224 571
224 572
224 573
224 574
224 578
225 226
225 227
225 228
225 229
225 230
225 231
225 232
225 233
225 234
225 235
225 236
225 237
225 238
225 239
225 240
225 242
225 243
225 244
225 245
225 246
225 247
225 248
225 249
225 250
225 251
225 252
225 253
225 254
225 255
225 257
225 258
225 259
225 260
225 264
225 266
225 267
225 268
225 271
225 272
225 273
225 274
225 278
225 280
225 284
225 287
225 288
225 289
225 291
225 292
225 294
225 296
225 300
225 301
225 304
225 305
225 307
225 308
225 309
225 310
225 318
225 319
225 321
225 323
225 324
225 325
225 326
225 327
225 332
225 333
225 339
225 341
225 342
225 343
225 349
225 350
225 351
225 352
225 353
225 354
225 355
225 356
225 357
225 358
225 359
225 360
225 361
225 362
225 364
225 365
225 366
225 367
225 368
225 369
225 370
225 371
225 372
225 373
225 375
225 376
225 377
225 378
225 379
225 380
225 382
225 384
225 386
225 388
225 389
225 390
225 392
225 393
225 394
225 396
225 399
225 401
225 405
225 406
225 407
225 409
225 412
225 413
225 416
225 417
225 418
225 422
225 428
225 432
225 434
225 435
225 436
225 439
225 441
225 442
225 443
225 444
225 445
225 446
225 447
225 449
225 450
225 451
225 452
225 453
225 454
225 455
225 456
225 457
225 458
225 459
225 460
225 461
225 462
225 463
225 464
225 465
225 466
225 468
225 469
225 470
225 471
225 472
225 473
225 474
225 475
225 476
225 477
225 478
225 479
225 481
225 482
225 483
225 484
225 485
225 486
225 487
225 488
225 489
225 490
225 491
225 492
225 493
225 494
225 495
225 496
225 497
225 498
225 499
225 501
225 502
225 504
225 506
225 507
225 508
225 509
225 511
225 512
225 517
225 518
225 521
225 523
225 524
225 529
225 531
225 535
225 537
225 538
225 539
225 540
225 541
225 544
225 545
225 548
225 549
225 550
225 551
225 552
225 553
225 554
225 555
225 557
225 558
225 559
225 560
225 561
225 562
225 563
225 564
225 565
225 566
225 567
225 568
225 569
225 570
225 571
225 573
225 574
225 575
225 576
225 577
225 578
225 579
226 227
226 228
226 229
226 230
226 233
226 236
226 237
226 238
226 239
226 240
226 241
226 248
226 249
226 250
226 254
226 256
226 257
226 259
226 260
226 261
226 262
226 263
226 264
226 265
226 266
226 267
226 268
226 269
226 270
226 271
226 272
226 273
226 275
226 276
226 277
226 278
226 279
226 280
226 281
226 282
226 283
226 284
226 285
226 286
226 287
226 288
226 289
226 290
226 291
226 293
226 294
226 295
226 296
226 300
226 301
226 304
226 305
226 307
226 308
226 309
226 310
226 313
226 314
226 315
226 316
226 317
226 318
226 319
226 320
226 321
226 322
226 323
226 324
226 325
226 327
226 328
226 329
226 330
226 331
226 332
226 333
226 339
226 341
226 342
226 343
226 351
226 353
226 357
226 361
226 362
226 363
226 365
226 366
226 367
226 368
226 369
226 370
226 371
226 372
226 373
226 374
226 376
226 377
226 378
226 379
226 380
226 382
226 384
226 386
226 388
226 389
226 390
226 392
226 393
226 394
226 396
226 399
226 401
226 405
226 406
226 407
226 409
226 412
226 413
226 416
226 417
226 418
226 422
226 428
226 432
226 434
226 435
226 436
226 439
226 441
226 442
226 443
226 444
226 445
226 446
226 447
226 448
226 450
226 451
226 452
226 453
226 454
226 455
226 457
226 458
226 460
226 463
226 464
226 465
226 466
226 467
226 471
226 472
226 473
226 474
226 475
226 476
226 477
226 478
226 479
226 480
226 482
226 483
226 484
226 485
226 486
226 487
226 489
226 493
226 496
226 499
226 500
226 503
226 504
226 505
226 506
226 507
226 508
226 509
226 510
226 512
226 513
226 514
226 515
226 516
226 517
226 518
226 521
226 523
226 524
226 529
226 531
226 533
226 534
226 535
226 536
226 537
226 538
226 539
226 541
226 542
226 543
226 544
226 545
226 546
226 547
226 548
226 549
226 550
226 551
226 552
226 553
226 554
226 555
226 556
226 558
226 559
226 560
226 561
226 562
226 563
226 564
226 565
226 566
226 567
226 568
226 569
226 570
226 571
226 572
226 574
226 575
226 576
226 577
226 578
226 579
227 228
227 229
227 230
227 233
227 236
227 237
227 238
227 239
227 240
227 241
227 245
227 246
227 247
227 248
227 249
227 250
227 251
227 252
227 253
227 254
227 255
227 256
227 258
227 259
227 260
227 264
227 266
227 267
227 268
227 271
227 272
227 273
227 274
227 278
227 280
227 284
227 287
227 288
227 289
227 291
227 292
227 294
227 296
227 297
227 298
227 299
227 300
227 301
227 302
227 303
227 304
227 305
227 306
227 307
227 308
227 309
227 311
227 312
227 313
227 314
227 315
227 316
227 317
227 318
227 319
227 320
227 321
227 322
227 323
227 324
227 325
227 326
227 328
227 329
227 330
227 331
227 332
227 333
227 339
227 341
227 342
227 343
227 351
227 353
227 357
227 361
227 362
227 363
227 365
227 366
227 367
227 368
227 369
227 370
227 371
227 372
227 373
227 374
227 375
227 377
227 378
227 379
227 380
227 381
227 382
227 383
227 384
227 385
227 386
227 387
227 388
227 389
227 390
227 391
227 392
227 393
227 395
227 396
227 397
227 398
227 399
227 400
227 401
227 402
227 403
227 404
227 405
227 406
227 408
227 409
227 410
227 411
227 412
227 413
227 414
227 415
227 416
227 417
227 419
227 420
227 421
227 422
227 423
227 424
227 425
227 428
227 432
227 434
227 435
227 436
227 439
227 441
227 442
227 443
227 444
227 445
227 446
227 447
227 448
227 449
227 451
227 452
227 453
227 454
227 455
227 457
227 458
227 460
227 463
227 464
227 465
227 466
227 467
227 471
227 472
227 473
227 474
227 475
227 476
227 477
227 478
227 479
227 480
227 481
227 483
227 484
227 485
227 486
227 487
227 489
227 493
227 496
227 499
227 500
227 503
227 504
227 505
227 506
227 507
227 508
227 509
227 510
227 511
227 513
227 514
227 515
227 516
227 517
227 518
227 521
227 523
227 524
227 529
227 531
227 533
227 534
227 535
227 536
227 537
227 538
227 539
227 540
227 542
227 543
227 544
227 545
227 546
227 547
227 552
227 554
227 555
227 556
227 557
227 558
227 560
227 563
227 564
227 565
227 566
227 567
227 568
227 569
227 570
227 571
227 572
227 573
227 575
227 576
227 577
227 578
227 579
228 229
228 230
228 233
228 236
228 237
228 238
228 239
228 240
228 241
228 248
228 249
228 250
228 254
228 256
228 257
228 259
228 260
228 264
228 266
228 267
228 268
228 271
228 272
228 273
228 274
228 278
228 279
228 280
228 281
228 282
228 283
228 284
228 285
228 286
228 287
228 288
228 289
228 290
228 291
228 292
228 293
228 295
228 296
228 300
228 301
228 304
228 305
228 307
228 308
228 309
228 310
228 318
228 319
228 321
228 323
228 324
228 325
228 326
228 327
228 332
228 333
228 339
228 341
228 342
228 343
228 351
228 353
228 357
228 361
228 362
228 363
228 365
228 366
228 372
228 373
228 374
228 375
228 376
228 382
228 384
228 386
228 388
228 389
228 390
228 392
228 393
228 394
228 396
228 397
228 398
228 399
228 400
228 401
228 402
228 403
228 404
228 405
228 406
228 407
228 408
228 410
228 411
228 412
228 413
228 414
228 415
228 416
228 417
228 418
228 419
228 420
228 421
228 423
228 424
228 425
228 428
228 432
228 434
228 435
228 436
228 439
228 441
228 442
228 444
228 447
228 448
228 449
228 450
228 453
228 457
228 458
228 460
228 463
228 464
228 465
228 466
228 467
228 472
228 473
228 475
228 477
228 478
228 479
228 480
228 481
228 482
228 485
228 489
228 493
228 496
228 499
228 500
228 503
228 504
228 505
228 506
228 507
228 508
228 509
228 510
228 511
228 512
228 513
228 514
228 515
228 516
228 518
228 519
228 520
228 521
228 522
228 523
228 524
228 525
228 526
228 527
228 528
228 530
228 531
228 532
228 533
228 534
228 535
228 536
228 537
228 538
228 539
228 540
228 541
228 542
228 543
228 545
228 546
228 547
228 548
228 549
228 550
228 551
228 552
228 553
228 554
228 555
228 556
228 557
228 559
228 560
228 561
228 562
228 565
228 566
228 569
228 570
228 571
228 572
228 573
228 574
228 578
229 230
229 233
229 236
229 237
229 238
229 239
229 240
229 241
229 245
229 246
229 247
229 248
229 249
229 250
229 251
229 252
229 253
229 254
229 255
229 256
229 257
229 258
229 260
229 261
229 262
229 263
229 264
229 265
229 266
229 267
229 268
229 269
229 270
229 271
229 272
229 273
229 274
229 275
229 276
229 277
229 280
229 284
229 287
229 288
229 289
229 291
229 292
229 294
229 296
229 300
229 301
229 304
229 305
229 307
229 308
229 309
229 310
229 318
229 319
229 321
229 323
229 324
229 325
229 326
229 327
229 332
229 333
229 339
229 341
229 342
229 343
229 349
229 350
229 351
229 352
229 353
229 354
229 355
229 356
229 357
229 358
229 359
229 360
229 361
229 362
229 363
229 364
229 366
229 372
229 373
229 374
229 375
229 376
229 382
229 384
229 386
229 388
229 389
229 390
229 392
229 393
229 394
229 396
229 399
229 401
229 405
229 406
229 407
229 409
229 412
229 413
229 416
229 417
229 418
229 422
229 426
229 427
229 428
229 429
229 430
229 431
229 432
229 433
229 434
229 435
229 436
229 437
229 438
229 440
229 441
229 442
229 443
229 444
229 445
229 446
229 447
229 448
229 449
229 450
229 451
229 452
229 454
229 455
229 457
229 458
229 460
229 463
229 464
229 465
229 466
229 467
229 471
229 472
229 473
229 474
229 475
229 476
229 477
229 478
229 479
229 480
229 481
229 482
229 483
229 484
229 486
229 487
229 489
229 493
229 496
229 499
229 500
229 504
229 506
229 507
229 508
229 509
229 511
229 512
229 517
229 518
229 519
229 520
229 521
229 522
229 523
229 524
229 525
229 526
229 527
229 528
229 529
229 530
229 532
229 533
229 534
229 535
229 536
229 537
229 538
229 539
229 540
229 541
229 542
229 543
229 544
229 546
229 547
229 548
229 549
229 550
229 551
229 552
229 553
229 554
229 555
229 556
229 557
229 558
229 559
229 561
229 562
229 563
229 564
229 565
229 566
229 567
229 568
229 569
229 570
229 571
229 572
229 573
229 574
229 575
229 576
229 577
229 579
230 231
230 232
230 233
230 234
230 235
230 236
230 237
230 238
230 239
230 240
230 241
230 242
230 243
230 244
230 246
230 247
230 248
230 250
230 254
230 256
230 258
230 261
230 262
230 263
230 264
230 265
230 266
230 267
230 268
230 269
230 270
230 271
230 272
230 273
230 274
230 275
230 276
230 277
230 278
230 279
230 281
230 282
230 283
230 284
230 285
230 286
230 287
230 288
230 289
230 290
230 291
230 292
230 293
230 294
230 295
230 297
230 298
230 299
230 300
230 301
230 302
230 303
230 304
230 305
230 306
230 307
230 308
230 309
230 310
230 311
230 312
230 313
230 314
230 315
230 319
230 321
230 323
230 329
230 333
230 334
230 335
230 336
230 337
230 338
230 339
230 340
230 341
230 342
230 343
230 344
230 345
230 346
230 347
230 348
230 349
230 350
230 351
230 352
230 353
230 357
230 361
230 363
230 367
230 368
230 369
230 370
230 371
230 372
230 373
230 374
230 375
230 376
230 377
230 378
230 379
230 380
230 381
230 383
230 384
230 385
230 386
230 387
230 388
230 389
230 390
230 391
230 392
230 393
230 394
230 395
230 396
230 397
230 398
230 399
230 405
230 410
230 411
230 413
230 416
230 420
230 421
230 425
230 426
230 427
230 432
230 435
230 437
230 440
230 442
230 443
230 444
230 445
230 446
230 447
230 448
230 449
230 450
230 451
230 452
230 453
230 454
230 455
230 456
230 458
230 459
230 460
230 461
230 462
230 463
230 464
230 465
230 466
230 467
230 468
230 469
230 470
230 472
230 473
230 475
230 477
230 480
230 487
230 488
230 490
230 491
230 492
230 493
230 494
230 495
230 496
230 497
230 498
230 499
230 500
230 501
230 502
230 504
230 505
230 507
230 508
230 509
230 514
230 516
230 518
230 519
230 526
230 528
230 532
230 533
230 535
230 537
230 543
230 547
230 549
230 550
230 552
230 554
230 556
230 562
230 563
230 564
230 570
230 572
230 575
231 232
231 233
231 234
231 235
231 236
231 237
231 238
231 239
231 240
231 241
231 242
231 243
231 244
231 245
231 247
231 248
231 249
231 250
231 251
231 252
231 253
231 254
231 255
231 256
231 257
231 258
231 259
231 260
231 261
231 262
231 266
231 268
231 272
231 277
231 279
231 280
231 282
231 283
231 284
231 285
231 286
231 287
231 288
231 289
231 290
231 291
231 292
231 293
231 294
231 295
231 296
231 298
231 299
231 300
231 301
231 302
231 303
231 304
231 305
231 306
231 307
231 308
231 309
231 310
231 311
231 312
231 314
231 315
231 316
231 317
231 318
231 319
231 320
231 321
231 322
231 323
231 324
231 325
231 326
231 327
231 328
231 329
231 330
231 331
231 332
231 333
231 339
231 342
231 345
231 350
231 351
231 352
231 353
231 354
231 355
231 356
231 357
231 358
231 359
231 360
231 361
231 362
231 363
231 364
231 365
231 366
231 367
231 374
231 378
231 380
231 382
231 383
231 384
231 385
231 386
231 389
231 390
231 396
231 397
231 398
231 399
231 405
231 410
231 411
231 413
231 416
231 420
231 421
231 425
231 427
231 428
231 429
231 430
231 431
231 432
231 433
231 434
231 435
231 436
231 437
231 438
231 439
231 440
231 441
231 442
231 447
231 448
231 451
231 455
231 457
231 458
231 463
231 465
231 467
231 469
231 472
231 473
231 475
231 477
231 480
231 487
231 488
231 489
231 491
231 492
231 493
231 494
231 495
231 496
231 497
231 498
231 499
231 500
231 501
231 502
231 504
231 505
231 507
231 508
231 509
231 514
231 516
231 518
231 519
231 526
231 528
231 532
231 534
231 535
231 536
231 537
231 538
231 539
231 540
231 541
231 542
231 543
231 544
231 545
231 546
231 547
231 549
231 550
231 552
231 554
231 556
231 562
231 563
231 564
231 570
231 572
231 575
232 233
232 234
232 235
232 236
232 237
232 238
232 239
232 240
232 241
232 242
232 243
232 244
232 246
232 247
232 248
232 250
232 254
232 256
232 258
232 260
232 262
232 263
232 264
232 265
232 266
232 267
232 268
232 269
232 270
232 271
232 272
232 273
232 274
232 275
232 276
232 277
232 278
232 280
232 281
232 282
232 287
232 289
232 291
232 293
232 295
232 296
232 297
232 299
232 300
232 301
232 302
232 303
232 304
232 305
232 306
232 307
232 308
232 309
232 310
232 311
232 312
232 313
232 314
232 315
232 319
232 321
232 323
232 329
232 332
232 333
232 339
232 342
232 345
232 349
232 351
232 352
232 353
232 354
232 355
232 356
232 357
232 358
232 359
232 360
232 361
232 362
232 363
232 364
232 365
232 366
232 367
232 374
232 378
232 380
232 381
232 382
232 384
232 385
232 386
232 387
232 388
232 389
232 390
232 391
232 392
232 393
232 394
232 395
232 396
232 397
232 398
232 399
232 405
232 410
232 412
232 413
232 414
232 415
232 416
232 417
232 418
232 419
232 420
232 421
232 422
232 423
232 424
232 425
232 426
232 427
232 432
232 435
232 437
232 440
232 441
232 442
232 447
232 448
232 451
232 455
232 457
232 458
232 463
232 465
232 467
232 469
232 472
232 473
232 475
232 477
232 480
232 487
232 488
232 489
232 490
232 492
232 493
232 494
232 495
232 496
232 497
232 498
232 499
232 500
232 501
232 502
232 504
232 505
232 507
232 508
232 509
232 514
232 516
232 518
232 519
232 526
232 528
232 532
232 533
232 535
232 537
232 543
232 547
232 549
232 550
232 552
232 554
232 556
232 562
232 564
232 565
232 566
232 567
232 568
232 569
232 570
232 571
232 572
232 573
232 574
232 575
232 576
232 577
232 578
232 579
233 234
233 235
233 236
233 237
233 238
233 239
233 240
233 241
233 242
233 243
233 244
233 246
233 247
233 248
233 250
233 254
233 256
233 258
233 260
233 261
233 262
233 266
233 268
233 272
233 277
233 280
233 281
233 282
233 287
233 289
233 291
233 293
233 295
233 296
233 297
233 298
233 299
233 300
233 305
233 307
233 313
233 314
233 315
233 319
233 321
233 323
233 329
233 332
233 334
233 335
233 336
233 337
233 338
233 339
233 340
233 341
233 342
233 343
233 344
233 345
233 346
233 347
233 348
233 349
233 350
233 352
233 353
233 354
233 355
233 356
233 357
233 358
233 359
233 360
233 361
233 362
233 363
233 364
233 365
233 366
233 367
233 374
233 378
233 380
233 381
233 382
233 383
233 385
233 386
233 387
233 388
233 389
233 390
233 391
233 392
233 393
233 394
233 395
233 397
233 398
233 399
233 400
233 401
233 402
233 403
233 404
233 405
233 406
233 407
233 408
233 409
233 410
233 411
233 413
233 416
233 420
233 421
233 425
233 426
233 427
233 432
233 435
233 437
233 440
233 441
233 442
233 447
233 448
233 451
233 455
233 457
233 458
233 463
233 465
233 467
233 469
233 471
233 473
233 474
233 475
233 476
233 477
233 478
233 479
233 480
233 481
233 482
233 483
233 484
233 485
233 486
233 487
233 489
233 490
233 491
233 492
233 496
233 500
233 501
233 503
233 505
233 506
233 507
233 508
233 509
233 510
233 511
233 512
233 513
233 514
233 515
233 516
233 517
233 519
233 520
233 521
233 522
233 523
233 524
233 525
233 526
233 527
233 528
233 529
233 530
233 531
233 532
233 533
233 535
233 537
233 543
233 547
233 549
233 550
233 552
233 554
233 556
233 562
233 563
233 564
233 570
233 572
233 575
234 235
234 236
234 237
234 238
234 239
234 240
234 241
234 242
234 243
234 244
234 246
234 247
234 248
234 250
234 254
234 256
234 258
234 260
234 261
234 263
234 264
234 265
234 266
234 267
234 268
234 269
234 270
234 271
234 272
234 273
234 274
234 275
234 276
234 277
234 278
234 280
234 281
234 282
234 287
234 289
234 291
234 293
234 295
234 296
234 297
234 298
234 299
234 300
234 305
234 307
234 313
234 315
234 316
234 317
234 318
234 319
234 320
234 321
234 322
234 323
234 324
234 325
234 326
234 327
234 328
234 329
234 330
234 331
234 332
234 333
234 339
234 342
234 345
234 349
234 350
234 351
234 352
234 353
234 357
234 361
234 363
234 366
234 368
234 369
234 370
234 371
234 372
234 373
234 374
234 375
234 376
234 377
234 378
234 379
234 380
234 381
234 382
234 383
234 384
234 386
234 387
234 388
234 389
234 390
234 391
234 392
234 393
234 394
234 395
234 396
234 398
234 399
234 400
234 401
234 402
234 403
234 404
234 405
234 406
234 407
234 408
234 409
234 410
234 411
234 413
234 416
234 420
234 421
234 425
234 426
234 428
234 429
234 430
234 431
234 432
234 433
234 434
234 435
234 436
234 437
234 438
234 439
234 440
234 441
234 442
234 447
234 448
234 451
234 455
234 457
234 458
234 463
234 465
234 467
234 469
234 472
234 473
234 475
234 477
234 480
234 487
234 488
234 489
234 490
234 491
234 493
234 494
234 495
234 496
234 497
234 498
234 499
234 500
234 501
234 502
234 504
234 505
234 507
234 508
234 509
234 514
234 516
234 518
234 519
234 526
234 528
234 532
234 533
234 535
234 537
234 543
234 547
234 548
234 550
234 551
234 552
234 553
234 554
234 555
234 556
234 557
234 558
234 559
234 560
234 561
234 562
234 563
234 564
234 570
234 572
234 575
235 236
235 237
235 238
235 239
235 240
235 241
235 242
235 243
235 244
235 245
235 246
235 248
235 249
235 250
235 251
235 252
235 253
235 254
235 255
235 256
235 257
235 258
235 259
235 260
235 261
235 262
235 266
235 268
235 272
235 277
235 279
235 280
235 281
235 283
235 284
235 285
235 286
235 287
235 288
235 289
235 290
235 291
235 292
235 293
235 294
235 295
235 296
235 297
235 298
235 300
235 301
235 302
235 303
235 304
235 305
235 306
235 307
235 308
235 309
235 310
235 311
235 312
235 313
235 314
235 316
235 317
235 318
235 319
235 320
235 321
235 322
235 323
235 324
235 325
235 326
235 327
235 328
235 329
235 330
235 331
235 332
235 333
235 339
235 342
235 345
235 349
235 350
235 351
235 353
235 354
235 355
235 356
235 357
235 358
235 359
235 360
235 361
235 362
235 363
235 364
235 365
235 366
235 367
235 374
235 378
235 380
235 382
235 383
235 384
235 385
235 386
235 389
235 390
235 396
235 397
235 399
235 400
235 401
235 402
235 403
235 404
235 405
235 406
235 407
235 408
235 409
235 410
235 411
235 413
235 416
235 420
235 421
235 425
235 426
235 427
235 432
235 435
235 437
235 440
235 441
235 442
235 447
235 448
235 451
235 455
235 457
235 458
235 463
235 465
235 467
235 469
235 472
235 473
235 475
235 477
235 480
235 487
235 489
235 490
235 491
235 492
235 496
235 500
235 501
235 503
235 504
235 506
235 507
235 508
235 509
235 510
235 511
235 512
235 513
235 514
235 515
235 516
235 517
235 518
235 520
235 521
235 522
235 523
235 524
235 525
235 526
235 527
235 528
235 529
235 530
235 531
235 532
235 533
235 535
235 537
235 543
235 547
235 548
235 549
235 551
235 552
235 553
235 554
235 555
235 556
235 557
235 558
235 559
235 560
235 561
235 562
235 563
235 565
235 566
235 567
235 568
235 569
235 570
235 571
235 572
235 573
235 574
235 575
235 576
235 577
235 578
235 579
236 237
236 238
236 239
236 240
236 241
236 242
236 243
236 244
236 245
236 246
236 247
236 249
236 250
236 251
236 252
236 253
236 254
236 255
236 256
236 257
236 258
236 259
236 260
236 261
236 262
236 266
236 268
236 272
236 277
236 280
236 281
236 282
236 287
236 289
236 291
236 293
236 295
236 296
236 297
236 298
236 299
236 301
236 302
236 303
236 304
236 305
236 306
236 307
236 308
236 309
236 310
236 311
236 312
236 313
236 314
236 315
236 319
236 321
236 323
236 329
236 332
236 333
236 339
236 342
236 345
236 349
236 350
236 351
236 352
236 354
236 355
236 356
236 357
236 358
236 359
236 360
236 361
236 362
236 363
236 364
236 365
236 366
236 367
236 374
236 378
236 380
236 381
236 382
236 383
236 384
236 385
236 387
236 388
236 389
236 390
236 391
236 392
236 393
236 394
236 395
236 396
236 397
236 398
236 400
236 401
236 402
236 403
236 404
236 405
236 406
236 407
236 408
236 409
236 410
236 411
236 413
236 416
236 420
236 421
236 425
236 426
236 427
236 432
236 435
236 437
236 440
236 441
236 443
236 444
236 445
236 446
236 447
236 448
236 449
236 450
236 451
236 452
236 453
236 454
236 455
236 456
236 457
236 459
236 460
236 461
236 462
236 463
236 464
236 465
236 466
236 467
236 468
236 469
236 470
236 471
236 472
236 474
236 475
236 476
236 477
236 478
236 479
236 480
236 481
236 482
236 483
236 484
236 485
236 486
236 487
236 489
236 490
236 491
236 492
236 496
236 500
236 501
236 504
236 505
236 507
236 508
236 509
236 514
236 516
236 518
236 519
236 526
236 528
236 532
236 533
236 535
236 537
236 543
236 547
236 549
236 550
236 552
236 554
236 556
236 562
236 563
236 564
236 570
236 572
236 575
237 238
237 239
237 240
237 241
237 242
237 243
237 244
237 246
237 247
237 248
237 250
237 254
237 256
237 258
237 260
237 261
237 262
237 263
237 264
237 265
237 267
237 268
237 269
237 270
237 271
237 272
237 273
237 274
237 275
237 276
237 277
237 278
237 279
237 280
237 281
237 282
237 283
237 284
237 285
237 286
237 288
237 289
237 290
237 291
237 292
237 293
237 294
237 295
237 296
237 297
237 298
237 299
237 300
237 305
237 307
237 313
237 314
237 315
237 319
237 321
237 323
237 329
237 332
237 333
237 339
237 342
237 345
237 349
237 350
237 351
237 352
237 353
237 357
237 361
237 363
237 366
237 367
237 374
237 378
237 380
237 381
237 382
237 383
237 384
237 385
237 386
237 387
237 388
237 390
237 391
237 392
237 393
237 394
237 395
237 396
237 397
237 398
237 399
237 405
237 410
237 411
237 412
237 414
237 415
237 416
237 417
237 418
237 419
237 420
237 421
237 422
237 423
237 424
237 425
237 426
237 427
237 432
237 435
237 437
237 440
237 441
237 442
237 447
237 448
237 451
237 455
237 456
237 457
237 458
237 459
237 460
237 461
237 462
237 464
237 465
237 466
237 467
237 468
237 469
237 470
237 472
237 473
237 475
237 477
237 480
237 487
237 489
237 490
237 491
237 492
237 496
237 500
237 501
237 503
237 504
237 505
237 506
237 508
237 509
237 510
237 511
237 512
237 513
237 514
237 515
237 516
237 517
237 518
237 519
237 526
237 528
237 532
237 533
237 535
237 537
237 543
237 547
237 548
237 549
237 550
237 551
237 553
237 554
237 555
237 556
237 557
237 558
237 559
237 560
237 561
237 562
237 563
237 564
237 570
237 572
237 575
238 239
238 240
238 241
238 242
238 243
238 244
238 245
238 246
238 247
238 248
238 249
238 251
238 252
238 253
238 254
238 255
238 256
238 257
238 258
238 259
238 260
238 261
238 262
238 263
238 264
238 265
238 266
238 267
238 269
238 270
238 271
238 272
238 273
238 274
238 275
238 276
238 277
238 278
238 279
238 280
238 281
238 282
238 283
238 284
238 285
238 286
238 287
238 288
238 290
238 291
238 292
238 293
238 294
238 295
238 296
238 297
238 298
238 299
238 300
238 301
238 302
238 303
238 304
238 306
238 307
238 308
238 309
238 310
238 311
238 312
238 313
238 314
238 315
238 316
238 317
238 318
238 320
238 321
238 322
238 323
238 324
238 325
238 326
238 327
238 328
238 329
238 330
238 331
238 332
238 333
238 339
238 342
238 345
238 349
238 350
238 351
238 352
238 353
238 354
238 355
238 356
238 358
238 359
238 360
238 361
238 362
238 363
238 364
238 365
238 366
238 367
238 374
238 378
238 380
238 381
238 382
238 383
238 384
238 385
238 386
238 387
238 388
238 389
238 391
238 392
238 393
238 394
238 395
238 396
238 397
238 398
238 399
238 405
238 410
238 411
238 413
238 416
238 420
238 421
238 425
238 426
238 427
238 432
238 435
238 437
238 440
238 441
238 442
238 447
238 448
238 451
238 455
238 457
238 458
238 463
238 465
238 467
238 469
238 471
238 472
238 473
238 474
238 476
238 477
238 478
238 479
238 480
238 481
238 482
238 483
238 484
238 485
238 486
238 487
238 488
238 489
238 490
238 491
238 492
238 493
238 494
238 495
238 497
238 498
238 499
238 500
238 501
238 502
238 503
238 504
238 505
238 506
238 507
238 509
238 510
238 511
238 512
238 513
238 514
238 515
238 516
238 517
238 518
238 519
238 526
238 528
238 532
238 533
238 534
238 536
238 537
238 538
238 539
238 540
238 541
238 542
238 543
238 544
238 545
238 546
238 547
238 549
238 550
238 552
238 554
238 556
238 562
238 563
238 564
238 570
238 572
238 575
239 240
239 241
239 242
239 243
239 244
239 245
239 246
239 247
239 248
239 249
239 250
239 251
239 252
239 253
239 255
239 256
239 257
239 258
239 259
239 260
239 261
239 262
239 266
239 268
239 272
239 277
239 280
239 281
239 282
239 287
239 289
239 291
239 293
239 295
239 296
239 297
239 298
239 299
239 300
239 301
239 302
239 303
239 304
239 305
239 306
239 308
239 309
239 310
239 311
239 312
239 313
239 314
239 315
239 316
239 317
239 318
239 319
239 320
239 322
239 323
239 324
239 325
239 326
239 327
239 328
239 329
239 330
239 331
239 332
239 333
239 334
239 335
239 336
239 337
239 338
239 340
239 341
239 342
239 343
239 344
239 345
239 346
239 347
239 348
239 349
239 350
239 351
239 352
239 353
239 357
239 361
239 363
239 366
239 367
239 374
239 378
239 380
239 382
239 383
239 384
239 385
239 386
239 389
239 390
239 396
239 397
239 398
239 399
239 405
239 410
239 411
239 413
239 416
239 420
239 421
239 425
239 426
239 427
239 428
239 429
239 430
239 431
239 433
239 434
239 435
239 436
239 437
239 438
239 439
239 440
239 441
239 442
239 447
239 448
239 451
239 455
239 456
239 457
239 458
239 459
239 460
239 461
239 462
239 463
239 464
239 466
239 467
239 468
239 469
239 470
239 472
239 473
239 475
239 477
239 480
239 487
239 489
239 490
239 491
239 492
239 496
239 500
239 501
239 503
239 504
239 505
239 506
239 507
239 508
239 510
239 511
239 512
239 513
239 514
239 515
239 516
239 517
239 518
239 519
239 526
239 528
239 532
239 533
239 534
239 535
239 536
239 538
239 539
239 540
239 541
239 542
239 543
239 544
239 545
239 546
239 547
239 548
239 549
239 550
239 551
239 552
239 553
239 555
239 556
239 557
239 558
239 559
239 560
239 561
239 562
239 563
239 564
239 570
239 572
239 575
240 241
240 242
240 243
240 244
240 246
240 247
240 248
240 250
240 254
240 256
240 258
240 260
240 261
240 262
240 263
240 264
240 265
240 266
240 267
240 268
240 269
240 270
240 271
240 273
240 274
240 275
240 276
240 277
240 278
240 279
240 280
240 281
240 282
240 283
240 284
240 285
240 286
240 287
240 288
240 289
240 290
240 292
240 293
240 294
240 295
240 296
240 297
240 298
240 299
240 300
240 305
240 307
240 313
240 314
240 315
240 316
240 317
240 318
240 319
240 320
240 321
240 322
240 324
240 325
240 326
240 327
240 328
240 329
240 330
240 331
240 332
240 333
240 334
240 335
240 336
240 337
240 338
240 339
240 340
240 341
240 343
240 344
240 345
240 346
240 347
240 348
240 349
240 350
240 351
240 352
240 353
240 354
240 355
240 356
240 357
240 358
240 359
240 360
240 362
240 363
240 364
240 365
240 366
240 367
240 374
240 378
240 380
240 382
240 383
240 384
240 385
240 386
240 389
240 390
240 396
240 397
240 398
240 399
240 400
240 401
240 402
240 403
240 404
240 406
240 407
240 408
240 409
240 410
240 411
240 412
240 413
240 414
240 415
240 417
240 418
240 419
240 420
240 421
240 422
240 423
240 424
240 425
240 426
240 427
240 428
240 429
240 430
240 431
240 432
240 433
240 434
240 436
240 437
240 438
240 439
240 440
240 441
240 442
240 443
240 444
240 445
240 446
240 448
240 449
240 450
240 451
240 452
240 453
240 454
240 455
240 457
240 458
240 463
240 465
240 467
240 469
240 471
240 472
240 473
240 474
240 475
240 476
240 478
240 479
240 480
240 481
240 482
240 483
240 484
240 485
240 486
240 487
240 489
240 490
240 491
240 492
240 496
240 500
240 501
240 504
240 505
240 507
240 508
240 509
240 514
240 516
240 518
240 519
240 526
240 528
240 532
240 533
240 535
240 537
240 543
240 547
240 549
240 550
240 552
240 554
240 556
240 562
240 563
240 564
240 565
240 566
240 567
240 568
240 569
240 571
240 572
240 573
240 574
240 575
240 576
240 577
240 578
240 579
241 242
241 243
241 244
241 245
241 246
241 247
241 248
241 249
241 250
241 251
241 252
241 253
241 254
241 255
241 257
241 258
241 259
241 260
241 261
241 262
241 266
241 268
241 272
241 277
241 280
241 281
241 282
241 287
241 289
241 291
241 293
241 295
241 296
241 297
241 298
241 299
241 300
241 305
241 307
241 313
241 314
241 315
241 319
241 321
241 323
241 329
241 332
241 333
241 339
241 342
241 345
241 349
241 350
241 351
241 352
241 353
241 354
241 355
241 356
241 357
241 358
241 359
241 360
241 361
241 362
241 364
241 365
241 366
241 367
241 368
241 369
241 370
241 371
241 372
241 373
241 375
241 376
241 377
241 378
241 379
241 380
241 382
241 383
241 384
241 385
241 386
241 389
241 390
241 396
241 397
241 398
241 399
241 405
241 410
241 411
241 413
241 416
241 420
241 421
241 425
241 426
241 427
241 432
241 435
241 437
241 440
241 441
241 442
241 443
241 444
241 445
241 446
241 447
241 449
241 450
241 451
241 452
241 453
241 454
241 455
241 456
241 457
241 458
241 459
241 460
241 461
241 462
241 463
241 464
241 465
241 466
241 468
241 469
241 470
241 471
241 472
241 473
241 474
241 475
241 476
241 477
241 478
241 479
241 481
241 482
241 483
241 484
241 485
241 486
241 487
241 488
241 489
241 490
241 491
241 492
241 493
241 494
241 495
241 496
241 497
241 498
241 499
241 501
241 502
241 504
241 505
241 507
241 508
241 509
241 514
241 516
241 518
241 519
241 526
241 528
241 532
241 533
241 535
241 537
241 543
241 547
241 548
241 549
241 550
241 551
241 552
241 553
241 554
241 555
241 557
241 558
241 559
241 560
241 561
241 562
241 563
241 564
241 565
241 566
241 567
241 568
241 569
241 570
241 571
241 573
241 574
241 575
241 576
241 577
241 578
241 579
242 243
242 244
242 246
242 247
242 248
242 250
242 254
242 256
242 258
242 260
242 261
242 262
242 266
242 268
242 272
242 277
242 279
242 280
242 281
242 282
242 283
242 284
242 285
242 286
242 287
242 288
242 289
242 290
242 291
242 292
242 294
242 295
242 296
242 297
242 298
242 299
242 300
242 305
242 307
242 313
242 314
242 315
242 319
242 321
242 323
242 329
242 332
242 333
242 334
242 335
242 336
242 337
242 338
242 339
242 340
242 341
242 342
242 343
242 344
242 346
242 347
242 348
242 349
242 350
242 351
242 352
242 353
242 357
242 361
242 363
242 366
242 367
242 368
242 369
242 370
242 371
242 372
242 373
242 374
242 375
242 376
242 377
242 379
242 380
242 382
242 383
242 384
242 385
242 386
242 389
242 390
242 396
242 397
242 398
242 399
242 405
242 410
242 411
242 412
242 413
242 414
242 415
242 416
242 417
242 418
242 419
242 421
242 422
242 423
242 424
242 425
242 426
242 427
242 428
242 429
242 430
242 431
242 432
242 433
242 434
242 435
242 436
242 438
242 439
242 440
242 441
242 442
242 447
242 448
242 451
242 455
242 457
242 458
242 463
242 465
242 467
242 469
242 472
242 473
242 475
242 477
242 480
242 487
242 488
242 489
242 490
242 491
242 492
242 493
242 494
242 495
242 496
242 497
242 498
242 499
242 500
242 502
242 503
242 504
242 505
242 506
242 507
242 508
242 509
242 510
242 511
242 512
242 513
242 515
242 516
242 517
242 518
242 519
242 520
242 521
242 522
242 523
242 524
242 525
242 527
242 528
242 529
242 530
242 531
242 532
242 533
242 535
242 537
242 543
242 547
242 549
242 550
242 552
242 554
242 556
242 562
242 563
242 564
242 565
242 566
242 567
242 568
242 569
242 570
242 571
242 572
242 573
242 574
242 576
242 577
242 578
242 579
243 244
243 245
243 246
243 247
243 248
243 249
243 250
243 251
243 252
243 253
243 254
243 255
243 256
243 257
243 259
243 260
243 261
243 262
243 263
243 264
243 265
243 266
243 267
243 268
243 269
243 270
243 271
243 272
243 273
243 274
243 275
243 276
243 278
243 280
243 281
243 282
243 287
243 289
243 291
243 293
243 295
243 296
243 297
243 298
243 299
243 300
243 305
243 307
243 313
243 314
243 315
243 316
243 317
243 318
243 319
243 320
243 321
243 322
243 323
243 324
243 325
243 326
243 327
243 328
243 330
243 331
243 332
243 333
243 339
243 342
243 345
243 349
243 350
243 351
243 352
243 353
243 357
243 361
243 363
243 366
243 367
243 374
243 378
243 380
243 382
243 383
243 384
243 385
243 386
243 389
243 390
243 396
243 397
243 398
243 399
243 405
243 410
243 411
243 412
243 413
243 414
243 415
243 416
243 417
243 418
243 419
243 420
243 422
243 423
243 424
243 425
243 426
243 427
243 432
243 435
243 437
243 440
243 441
243 442
243 443
243 444
243 445
243 446
243 447
243 448
243 449
243 450
243 452
243 453
243 454
243 455
243 456
243 457
243 458
243 459
243 460
243 461
243 462
243 463
243 464
243 465
243 466
243 467
243 468
243 470
243 472
243 473
243 475
243 477
243 480
243 487
243 489
243 490
243 491
243 492
243 496
243 500
243 501
243 503
243 504
243 505
243 506
243 507
243 508
243 509
243 510
243 511
243 512
243 513
243 514
243 515
243 517
243 518
243 519
243 520
243 521
243 522
243 523
243 524
243 525
243 526
243 527
243 529
243 530
243 531
243 532
243 533
243 534
243 535
243 536
243 537
243 538
243 539
243 540
243 541
243 542
243 544
243 545
243 546
243 547
243 549
243 550
243 552
243 554
243 556
243 562
243 563
243 564
243 570
243 572
243 575
244 246
244 247
244 248
244 250
244 254
244 256
244 258
244 260
244 261
244 262
244 266
244 268
244 272
244 277
244 279
244 280
244 281
244 282
244 283
244 284
244 285
244 286
244 287
244 288
244 289
244 290
244 291
244 292
244 293
244 294
244 296
244 297
244 298
244 299
244 300
244 305
244 307
244 313
244 314
244 315
244 319
244 321
244 323
244 329
244 332
244 333
244 339
244 342
244 345
244 349
244 350
244 351
244 352
244 353
244 357
244 361
244 363
244 366
244 367
244 368
244 369
244 370
244 371
244 372
244 373
244 374
244 375
244 376
244 377
244 378
244 379
244 382
244 383
244 384
244 385
244 386
244 389
244 390
244 396
244 397
244 398
244 399
244 400
244 401
244 402
244 403
244 404
244 405
244 406
244 407
244 408
244 409
244 411
244 412
244 413
244 414
244 415
244 416
244 417
244 418
244 419
244 420
244 421
244 422
244 423
244 424
244 426
244 427
244 428
244 429
244 430
244 431
244 432
244 433
244 434
244 435
244 436
244 437
244 438
244 439
244 441
244 442
244 443
244 444
244 445
244 446
244 447
244 448
244 449
244 450
244 451
244 452
244 453
244 454
244 457
244 458
244 463
244 465
244 467
244 469
244 471
244 472
244 473
244 474
244 475
244 476
244 477
244 478
244 479
244 480
244 481
244 482
244 483
244 484
244 485
244 486
244 489
244 490
244 491
244 492
244 496
244 500
244 501
244 504
244 505
244 507
244 508
244 509
244 514
244 516
244 518
244 519
244 520
244 521
244 522
244 523
244 524
244 525
244 526
244 527
244 528
244 529
244 530
244 531
244 533
244 534
244 535
244 536
244 537
244 538
244 539
244 540
244 541
244 542
244 543
244 544
244 545
244 546
244 548
244 549
244 550
244 551
244 552
244 553
244 554
244 555
244 556
244 557
244 558
244 559
244 560
244 561
244 563
244 564
244 570
244 572
244 575
245 246
245 247
245 248
245 249
245 250
245 251
245 252
245 253
245 254
245 255
245 256
245 257
245 258
245 259
245 267
245 268
245 269
245 270
245 277
245 278
245 280
245 281
245 282
245 283
245 284
245 285
245 286
245 287
245 288
245 289
245 290
245 291
245 292
245 293
245 294
245 295
245 297
245 299
245 300
245 304
245 305
245 306
245 307
245 310
245 313
245 315
245 318
245 319
245 320
245 321
245 322
245 327
245 329
245 336
245 337
245 338
245 339
245 340
245 349
245 352
245 353
245 357
245 358
245 359
245 360
245 363
245 365
245 370
245 371
245 374
245 376
245 382
245 383
245 384
245 385
245 386
245 387
245 388
245 389
245 390
245 391
245 392
245 393
245 394
245 395
245 398
245 399
245 403
245 404
245 407
245 414
245 415
245 418
245 421
245 426
245 430
245 431
245 432
245 433
245 439
245 442
245 444
245 445
245 446
245 448
245 450
245 451
245 453
245 457
245 458
245 459
245 460
245 461
245 462
245 463
245 464
245 465
245 466
245 467
245 468
245 469
245 470
245 472
245 473
245 474
245 475
245 476
245 477
245 478
245 479
245 480
245 481
245 482
245 483
245 484
245 485
245 486
245 487
245 489
245 490
245 491
245 492
245 493
245 494
245 495
245 496
245 497
245 498
245 499
245 500
245 501
245 502
245 504
245 505
245 506
245 507
245 508
245 509
245 510
245 511
245 512
245 513
245 514
245 515
245 516
245 517
245 519
245 521
245 522
245 528
245 531
245 533
245 535
245 536
245 537
245 541
245 543
245 545
245 549
245 550
245 551
245 552
245 553
245 554
245 555
245 556
245 557
245 558
245 559
245 560
245 561
245 562
245 564
245 566
245 567
245 568
245 572
245 574
245 578
246 247
246 248
246 249
246 250
246 251
246 252
246 253
246 254
246 255
246 256
246 257
246 258
246 259
246 267
246 268
246 269
246 270
246 277
246 278
246 279
246 280
246 282
246 283
246 284
246 285
246 286
246 287
246 288
246 289
246 290
246 291
246 292
246 293
246 294
246 295
246 296
246 298
246 299
246 300
246 301
246 302
246 303
246 304
246 305
246 306
246 307
246 308
246 309
246 310
246 311
246 312
246 314
246 315
246 316
246 317
246 318
246 319
246 320
246 321
246 322
246 323
246 324
246 325
246 326
246 327
246 328
246 329
246 330
246 331
246 336
246 337
246 338
246 339
246 340
246 350
246 351
246 352
246 353
246 354
246 355
246 356
246 357
246 358
246 359
246 360
246 361
246 362
246 363
246 364
246 365
246 370
246 371
246 374
246 376
246 381
246 386
246 390
246 391
246 394
246 398
246 399
246 403
246 404
246 407
246 414
246 415
246 418
246 421
246 427
246 428
246 429
246 430
246 431
246 432
246 433
246 434
246 435
246 436
246 437
246 438
246 439
246 440
246 442
246 444
246 445
246 446
246 448
246 450
246 451
246 453
246 456
246 458
246 464
246 465
246 467
246 469
246 471
246 473
246 475
246 476
246 480
246 482
246 485
246 488
246 489
246 491
246 492
246 493
246 494
246 495
246 496
246 497
246 498
246 499
246 500
246 501
246 502
246 503
246 505
246 508
246 509
246 510
246 512
246 516
246 519
246 521
246 522
246 528
246 531
246 534
246 535
246 536
246 537
246 538
246 539
246 540
246 541
246 542
246 543
246 544
246 545
246 546
246 547
246 548
246 550
246 553
246 554
246 556
246 560
246 564
246 566
246 567
246 568
246 572
246 574
246 578
247 248
247 249
247 250
247 251
247 252
247 253
247 254
247 255
247 256
247 257
247 258
247 259
247 267
247 268
247 269
247 270
247 277
247 278
247 279
247 280
247 281
247 283
247 284
247 285
247 286
247 287
247 288
247 289
247 290
247 291
247 292
247 293
247 294
247 295
247 296
247 297
247 298
247 300
247 301
247 302
247 303
247 304
247 305
247 306
247 307
247 308
247 309
247 310
247 311
247 312
247 313
247 314
247 316
247 317
247 318
247 319
247 320
247 321
247 322
247 323
247 324
247 325
247 326
247 327
247 328
247 329
247 330
247 331
247 336
247 337
247 338
247 339
247 340
247 349
247 350
247 351
247 353
247 354
247 355
247 356
247 357
247 358
247 359
247 360
247 361
247 362
247 363
247 364
247 365
247 370
247 371
247 374
247 376
247 381
247 386
247 390
247 391
247 394
247 396
247 397
247 399
247 400
247 401
247 402
247 403
247 404
247 405
247 406
247 407
247 408
247 409
247 410
247 414
247 415
247 418
247 421
247 426
247 430
247 431
247 432
247 433
247 439
247 442
247 444
247 445
247 446
247 448
247 450
247 451
247 453
247 456
247 458
247 464
247 465
247 467
247 469
247 471
247 473
247 475
247 476
247 480
247 482
247 485
247 488
247 490
247 496
247 497
247 498
247 500
247 503
247 504
247 506
247 507
247 508
247 509
247 510
247 511
247 512
247 513
247 514
247 515
247 516
247 517
247 518
247 520
247 521
247 522
247 523
247 524
247 525
247 526
247 527
247 528
247 529
247 530
247 531
247 532
247 533
247 535
247 536
247 537
247 541
247 543
247 545
247 548
247 549
247 551
247 552
247 553
247 554
247 555
247 556
247 557
247 558
247 559
247 560
247 561
247 562
247 563
247 565
247 566
247 567
247 568
247 569
247 570
247 571
247 572
247 573
247 574
247 575
247 576
247 577
247 578
247 579
248 249
248 250
248 251
248 252
248 253
248 254
248 255
248 256
248 257
248 258
248 259
248 267
248 268
248 269
248 270
248 277
248 278
248 279
248 281
248 282
248 288
248 289
248 290
248 296
248 297
248 298
248 299
248 301
248 302
248 303
248 304
248 305
248 306
248 307
248 308
248 309
248 310
248 311
248 312
248 313
248 315
248 318
248 319
248 320
248 321
248 322
248 327
248 329
248 336
248 337
248 338
248 339
248 340
248 349
248 350
248 351
248 352
248 354
248 355
248 356
248 357
248 358
248 359
248 360
248 361
248 362
248 363
248 364
248 365
248 370
248 371
248 374
248 376
248 381
248 382
248 383
248 384
248 385
248 387
248 388
248 389
248 390
248 391
248 392
248 393
248 394
248 395
248 396
248 397
248 398
248 400
248 401
248 402
248 403
248 404
248 405
248 406
248 407
248 408
248 409
248 410
248 414
248 415
248 418
248 421
248 426
248 430
248 431
248 432
248 433
248 439
248 441
248 443
248 444
248 445
248 446
248 447
248 448
248 449
248 450
248 451
248 452
248 453
248 454
248 455
248 456
248 457
248 459
248 460
248 461
248 462
248 463
248 464
248 465
248 466
248 467
248 468
248 469
248 470
248 471
248 472
248 474
248 475
248 476
248 477
248 478
248 479
248 480
248 481
248 482
248 483
248 484
248 485
248 486
248 487
248 488
248 490
248 496
248 497
248 498
248 500
248 503
248 505
248 508
248 509
248 510
248 512
248 516
248 519
248 521
248 522
248 528
248 531
248 533
248 535
248 536
248 537
248 541
248 543
248 545
248 548
248 550
248 553
248 554
248 556
248 560
248 564
248 566
248 567
248 568
248 572
248 574
248 578
249 250
249 251
249 252
249 253
249 254
249 255
249 256
249 257
249 258
249 259
249 260
249 261
249 262
249 263
249 264
249 265
249 266
249 268
249 269
249 270
249 271
249 272
249 273
249 274
249 275
249 276
249 277
249 278
249 279
249 280
249 281
249 282
249 283
249 284
249 285
249 286
249 287
249 289
249 290
249 291
249 292
249 293
249 294
249 295
249 296
249 297
249 298
249 299
249 300
249 301
249 302
249 303
249 305
249 306
249 307
249 308
249 309
249 310
249 311
249 312
249 313
249 314
249 315
249 316
249 317
249 319
249 320
249 321
249 322
249 323
249 324
249 325
249 326
249 327
249 328
249 329
249 330
249 331
249 336
249 337
249 338
249 339
249 340
249 349
249 352
249 353
249 357
249 358
249 359
249 360
249 363
249 365
249 370
249 371
249 374
249 376
249 381
249 386
249 390
249 391
249 394
249 398
249 399
249 403
249 404
249 407
249 414
249 415
249 418
249 421
249 426
249 430
249 431
249 432
249 433
249 439
249 441
249 442
249 443
249 445
249 446
249 447
249 448
249 449
249 450
249 451
249 452
249 453
249 454
249 455
249 456
249 457
249 458
249 459
249 460
249 461
249 462
249 463
249 465
249 466
249 467
249 468
249 469
249 470
249 471
249 473
249 475
249 476
249 480
249 482
249 485
249 488
249 490
249 496
249 497
249 498
249 500
249 503
249 505
249 508
249 509
249 510
249 512
249 516
249 518
249 519
249 520
249 522
249 523
249 524
249 525
249 526
249 527
249 528
249 529
249 530
249 531
249 532
249 533
249 535
249 536
249 537
249 541
249 543
249 545
249 548
249 550
249 553
249 554
249 556
249 560
249 563
249 564
249 565
249 567
249 568
249 569
249 570
249 571
249 572
249 573
249 574
249 575
249 576
249 577
249 578
249 579
250 251
250 252
250 253
250 254
250 255
250 256
250 257
250 258
250 259
250 260
250 261
250 262
250 263
250 264
250 265
250 266
250 267
250 269
250 270
250 271
250 272
250 273
250 274
250 275
250 276
250 277
250 278
250 279
250 280
250 281
250 282
250 283
250 284
250 285
250 286
250 287
250 288
250 290
250 291
250 292
250 293
250 294
250 295
250 296
250 297
250 298
250 299
250 300
250 301
250 302
250 303
250 304
250 306
250 307
250 308
250 309
250 310
250 311
250 312
250 313
250 314
250 315
250 316
250 317
250 318
250 320
250 321
250 322
250 323
250 324
250 325
250 326
250 327
250 328
250 329
250 330
250 331
250 336
250 337
250 338
250 339
250 340
250 349
250 350
250 351
250 352
250 353
250 354
250 355
250 356
250 358
250 359
250 360
250 361
250 362
250 363
250 364
250 365
250 370
250 371
250 374
250 376
250 381
250 382
250 383
250 384
250 385
250 386
250 387
250 388
250 389
250 391
250 392
250 393
250 394
250 395
250 398
250 399
250 403
250 404
250 407
250 414
250 415
250 418
250 421
250 426
250 430
250 431
250 432
250 433
250 439
250 442
250 444
250 445
250 446
250 448
250 450
250 451
250 453
250 456
250 458
250 464
250 465
250 467
250 469
250 471
250 472
250 473
250 474
250 476
250 477
250 478
250 479
250 480
250 481
250 482
250 483
250 484
250 485
250 486
250 487
250 488
250 489
250 490
250 491
250 492
250 493
250 494
250 495
250 497
250 498
250 499
250 500
250 501
250 502
250 503
250 504
250 505
250 506
250 507
250 509
250 510
250 511
250 512
250 513
250 514
250 515
250 516
250 517
250 519
250 521
250 522
250 528
250 531
250 533
250 534
250 536
250 537
250 538
250 539
250 540
250 541
250 542
250 543
250 544
250 545
250 546
250 547
250 548
250 550
250 553
250 554
250 556
250 560
250 564
250 566
250 567
250 568
250 572
250 574
250 578
251 252
251 253
251 254
251 255
251 256
251 257
251 258
251 259
251 267
251 268
251 269
251 270
251 277
251 278
251 279
251 281
251 282
251 288
251 289
251 290
251 296
251 297
251 298
251 299
251 300
251 301
251 302
251 303
251 304
251 305
251 307
251 308
251 309
251 310
251 311
251 312
251 313
251 314
251 315
251 316
251 317
251 318
251 319
251 321
251 322
251 323
251 324
251 325
251 326
251 327
251 328
251 329
251 330
251 331
251 332
251 333
251 334
251 335
251 337
251 338
251 339
251 340
251 341
251 342
251 343
251 344
251 345
251 346
251 347
251 348
251 349
251 350
251 351
251 352
251 353
251 354
251 355
251 356
251 357
251 359
251 360
251 361
251 362
251 363
251 364
251 365
251 366
251 367
251 368
251 369
251 371
251 372
251 373
251 374
251 375
251 376
251 377
251 378
251 379
251 380
251 381
251 386
251 390
251 391
251 394
251 398
251 399
251 403
251 404
251 407
251 411
251 412
251 413
251 415
251 416
251 417
251 418
251 419
251 420
251 421
251 422
251 423
251 424
251 425
251 426
251 430
251 431
251 432
251 433
251 439
251 442
251 444
251 445
251 446
251 448
251 450
251 451
251 453
251 456
251 458
251 464
251 465
251 467
251 469
251 471
251 473
251 475
251 476
251 480
251 482
251 485
251 488
251 490
251 496
251 497
251 498
251 500
251 503
251 505
251 508
251 509
251 510
251 512
251 516
251 519
251 521
251 522
251 528
251 531
251 533
251 535
251 536
251 537
251 541
251 543
251 545
251 548
251 549
251 550
251 551
251 552
251 554
251 555
251 556
251 557
251 558
251 559
251 560
251 561
251 562
251 563
251 564
251 565
251 566
251 568
251 569
251 570
251 571
251 572
251 573
251 574
251 575
251 576
251 577
251 578
251 579
252 253
252 254
252 255
252 256
252 257
252 258
252 259
252 260
252 261
252 262
252 263
252 264
252 265
252 266
252 267
252 268
252 270
252 271
252 272
252 273
252 274
252 275
252 276
252 277
252 278
252 279
252 281
252 282
252 288
252 289
252 290
252 297
252 299
252 300
252 304
252 305
252 306
252 307
252 310
252 313
252 315
252 318
252 319
252 320
252 321
252 322
252 327
252 329
252 332
252 333
252 334
252 335
252 336
252 338
252 339
252 340
252 341
252 342
252 343
252 344
252 345
252 346
252 347
252 348
252 349
252 350
252 351
252 352
252 353
252 354
252 355
252 356
252 357
252 358
252 360
252 361
252 362
252 363
252 364
252 365
252 370
252 371
252 374
252 376
252 381
252 382
252 383
252 384
252 385
252 386
252 387
252 388
252 389
252 390
252 392
252 393
252 394
252 395
252 396
252 397
252 398
252 399
252 400
252 401
252 402
252 404
252 405
252 406
252 407
252 408
252 409
252 410
252 414
252 415
252 418
252 421
252 426
252 427
252 428
252 429
252 431
252 432
252 433
252 434
252 435
252 436
252 437
252 438
252 439
252 440
252 441
252 442
252 443
252 444
252 446
252 447
252 448
252 449
252 450
252 451
252 452
252 453
252 454
252 455
252 456
252 458
252 464
252 465
252 467
252 469
252 471
252 472
252 473
252 474
252 475
252 477
252 478
252 479
252 480
252 481
252 482
252 483
252 484
252 485
252 486
252 487
252 488
252 489
252 490
252 491
252 492
252 493
252 494
252 495
252 496
252 498
252 499
252 500
252 501
252 502
252 503
252 505
252 508
252 509
252 510
252 512
252 516
252 518
252 519
252 520
252 521
252 523
252 524
252 525
252 526
252 527
252 528
252 529
252 530
252 531
252 532
252 533
252 535
252 536
252 537
252 541
252 543
252 545
252 548
252 550
252 553
252 554
252 556
252 560
252 564
252 566
252 567
252 568
252 572
252 574
252 578
253 254
253 255
253 256
253 257
253 258
253 259
253 260
253 261
253 262
253 263
253 264
253 265
253 266
253 267
253 268
253 269
253 271
253 272
253 273
253 274
253 275
253 276
253 277
253 278
253 279
253 281
253 282
253 288
253 289
253 290
253 297
253 299
253 300
253 304
253 305
253 306
253 307
253 310
253 313
253 315
253 318
253 319
253 320
253 321
253 322
253 327
253 329
253 332
253 333
253 334
253 335
253 336
253 337
253 339
253 340
253 341
253 342
253 343
253 344
253 345
253 346
253 347
253 348
253 349
253 352
253 353
253 357
253 358
253 359
253 360
253 363
253 365
253 366
253 367
253 368
253 369
253 370
253 372
253 373
253 374
253 375
253 376
253 377
253 378
253 379
253 380
253 381
253 386
253 390
253 391
253 394
253 396
253 397
253 398
253 399
253 400
253 401
253 402
253 403
253 405
253 406
253 407
253 408
253 409
253 410
253 414
253 415
253 418
253 421
253 426
253 427
253 428
253 429
253 430
253 432
253 433
253 434
253 435
253 436
253 437
253 438
253 439
253 440
253 442
253 444
253 445
253 446
253 448
253 450
253 451
253 453
253 456
253 458
253 464
253 465
253 467
253 469
253 471
253 473
253 475
253 476
253 480
253 482
253 485
253 488
253 490
253 496
253 497
253 498
253 500
253 503
253 505
253 508
253 509
253 510
253 512
253 516
253 519
253 521
253 522
253 528
253 531
253 533
253 534
253 535
253 537
253 538
253 539
253 540
253 541
253 542
253 543
253 544
253 545
253 546
253 547
253 548
253 550
253 553
253 554
253 556
253 560
253 563
253 564
253 565
253 566
253 567
253 569
253 570
253 571
253 572
253 573
253 574
253 575
253 576
253 577
253 578
253 579
254 255
254 256
254 257
254 258
254 259
254 267
254 268
254 269
254 270
254 277
254 278
254 279
254 281
254 282
254 288
254 289
254 290
254 296
254 297
254 298
254 299
254 300
254 301
254 302
254 303
254 304
254 305
254 306
254 308
254 309
254 310
254 311
254 312
254 313
254 314
254 315
254 316
254 317
254 318
254 319
254 320
254 322
254 323
254 324
254 325
254 326
254 327
254 328
254 329
254 330
254 331
254 332
254 333
254 334
254 335
254 336
254 337
254 338
254 340
254 341
254 342
254 343
254 344
254 345
254 346
254 347
254 348
254 349
254 352
254 353
254 357
254 358
254 359
254 360
254 363
254 365
254 370
254 371
254 374
254 376
254 381
254 386
254 390
254 391
254 394
254 398
254 399
254 403
254 404
254 407
254 414
254 415
254 418
254 421
254 426
254 427
254 428
254 429
254 430
254 431
254 433
254 434
254 435
254 436
254 437
254 438
254 439
254 440
254 442
254 444
254 445
254 446
254 448
254 450
254 451
254 453
254 456
254 457
254 458
254 459
254 460
254 461
254 462
254 463
254 464
254 466
254 467
254 468
254 469
254 470
254 471
254 473
254 475
254 476
254 480
254 482
254 485
254 488
254 490
254 496
254 497
254 498
254 500
254 503
254 504
254 505
254 506
254 507
254 508
254 510
254 511
254 512
254 513
254 514
254 515
254 516
254 517
254 519
254 521
254 522
254 528
254 531
254 533
254 534
254 535
254 536
254 538
254 539
254 540
254 541
254 542
254 543
254 544
254 545
254 546
254 547
254 548
254 549
254 550
254 551
254 552
254 553
254 555
254 556
254 557
254 558
254 559
254 560
254 561
254 562
254 564
254 566
254 567
254 568
254 572
254 574
254 578
255 256
255 257
255 258
255 259
255 267
255 268
255 269
255 270
255 277
255 278
255 279
255 280
255 281
255 282
255 283
255 284
255 285
255 286
255 287
255 288
255 289
255 291
255 292
255 293
255 294
255 295
255 297
255 299
255 300
255 304
255 305
255 306
255 307
255 310
255 313
255 314
255 315
255 316
255 317
255 318
255 319
255 320
255 321
255 323
255 324
255 325
255 326
255 327
255 328
255 329
255 330
255 331
255 332
255 333
255 334
255 335
255 336
255 337
255 338
255 339
255 341
255 342
255 343
255 344
255 345
255 346
255 347
255 348
255 349
255 350
255 351
255 352
255 353
255 354
255 355
255 356
255 357
255 358
255 359
255 361
255 362
255 363
255 364
255 365
255 370
255 371
255 374
255 376
255 381
255 386
255 390
255 391
255 394
255 398
255 399
255 403
255 404
255 407
255 411
255 412
255 413
255 414
255 416
255 417
255 418
255 419
255 420
255 421
255 422
255 423
255 424
255 425
255 426
255 427
255 428
255 429
255 430
255 431
255 432
255 434
255 435
255 436
255 437
255 438
255 439
255 440
255 441
255 442
255 443
255 444
255 445
255 447
255 448
255 449
255 450
255 451
255 452
255 453
255 454
255 455
255 456
255 458
255 464
255 465
255 467
255 469
255 471
255 473
255 475
255 476
255 480
255 482
255 485
255 488
255 489
255 490
255 491
255 492
255 493
255 494
255 495
255 496
255 497
255 499
255 500
255 501
255 502
255 503
255 504
255 505
255 506
255 507
255 508
255 509
255 511
255 512
255 513
255 514
255 515
255 516
255 517
255 519
255 521
255 522
255 528
255 531
255 533
255 535
255 536
255 537
255 541
255 543
255 545
255 548
255 550
255 553
255 554
255 556
255 560
255 564
255 566
255 567
255 568
255 572
255 574
255 578
256 257
256 258
256 259
256 267
256 268
256 269
256 270
256 277
256 278
256 279
256 281
256 282
256 288
256 289
256 290
256 297
256 299
256 300
256 304
256 305
256 306
256 307
256 310
256 313
256 315
256 318
256 319
256 320
256 321
256 322
256 327
256 329
256 336
256 337
256 338
256 339
256 340
256 349
256 350
256 351
256 352
256 353
256 354
256 355
256 356
256 357
256 358
256 359
256 360
256 361
256 362
256 364
256 365
256 366
256 367
256 368
256 369
256 370
256 371
256 372
256 373
256 375
256 376
256 377
256 378
256 379
256 380
256 381
256 386
256 390
256 391
256 394
256 398
256 399
256 403
256 404
256 407
256 414
256 415
256 418
256 421
256 426
256 430
256 431
256 432
256 433
256 439
256 441
256 442
256 443
256 444
256 445
256 446
256 447
256 449
256 450
256 451
256 452
256 453
256 454
256 455
256 456
256 457
256 458
256 459
256 460
256 461
256 462
256 463
256 464
256 465
256 466
256 468
256 469
256 470
256 471
256 472
256 473
256 474
256 475
256 476
256 477
256 478
256 479
256 481
256 482
256 483
256 484
256 485
256 486
256 487
256 488
256 489
256 490
256 491
256 492
256 493
256 494
256 495
256 496
256 497
256 498
256 499
256 501
256 502
256 503
256 505
256 508
256 509
256 510
256 512
256 516
256 519
256 521
256 522
256 528
256 531
256 533
256 535
256 536
256 537
256 541
256 543
256 545
256 548
256 549
256 550
256 551
256 552
256 553
256 554
256 555
256 557
256 558
256 559
256 560
256 561
256 562
256 563
256 564
256 565
256 566
256 567
256 568
256 569
256 570
256 571
256 573
256 574
256 575
256 576
256 577
256 578
256 579
257 258
257 259
257 267
257 268
257 269
257 270
257 277
257 278
257 279
257 281
257 282
257 288
257 289
257 290
257 296
257 297
257 298
257 299
257 300
257 301
257 302
257 303
257 304
257 305
257 306
257 307
257 308
257 309
257 311
257 312
257 313
257 314
257 315
257 316
257 317
257 318
257 319
257 320
257 321
257 322
257 323
257 324
257 325
257 326
257 328
257 329
257 330
257 331
257 336
257 337
257 338
257 339
257 340
257 349
257 352
257 353
257 357
257 358
257 359
257 360
257 363
257 365
257 366
257 367
257 368
257 369
257 370
257 371
257 372
257 373
257 374
257 375
257 377
257 378
257 379
257 380
257 381
257 382
257 383
257 384
257 385
257 386
257 387
257 388
257 389
257 390
257 391
257 392
257 393
257 395
257 396
257 397
257 398
257 399
257 400
257 401
257 402
257 403
257 404
257 405
257 406
257 408
257 409
257 410
257 411
257 412
257 413
257 414
257 415
257 416
257 417
257 419
257 420
257 421
257 422
257 423
257 424
257 425
257 426
257 430
257 431
257 432
257 433
257 439
257 441
257 442
257 443
257 444
257 445
257 446
257 447
257 448
257 449
257 451
257 452
257 453
257 454
257 455
257 456
257 458
257 464
257 465
257 467
257 469
257 471
257 472
257 473
257 474
257 475
257 476
257 477
257 478
257 479
257 480
257 481
257 483
257 484
257 485
257 486
257 487
257 488
257 490
257 496
257 497
257 498
257 500
257 503
257 504
257 505
257 506
257 507
257 508
257 509
257 510
257 511
257 513
257 514
257 515
257 516
257 517
257 519
257 521
257 522
257 528
257 531
257 533
257 534
257 535
257 536
257 537
257 538
257 539
257 540
257 542
257 543
257 544
257 545
257 546
257 547
257 548
257 550
257 553
257 554
257 556
257 560
257 563
257 564
257 565
257 566
257 567
257 568
257 569
257 570
257 571
257 572
257 573
257 575
257 576
257 577
257 578
257 579
258 259
258 260
258 261
258 262
258 263
258 264
258 265
258 266
258 267
258 268
258 269
258 270
258 271
258 272
258 273
258 274
258 275
258 276
258 278
258 279
258 281
258 282
258 288
258 289
258 290
258 297
258 299
258 300
258 304
258 305
258 306
258 307
258 310
258 313
258 314
258 315
258 316
258 317
258 318
258 319
258 320
258 321
258 322
258 323
258 324
258 325
258 326
258 327
258 328
258 330
258 331
258 336
258 337
258 338
258 339
258 340
258 349
258 352
258 353
258 357
258 358
258 359
258 360
258 363
258 365
258 370
258 371
258 374
258 376
258 381
258 386
258 390
258 391
258 394
258 398
258 399
258 403
258 404
258 407
258 411
258 412
258 413
258 414
258 415
258 416
258 417
258 418
258 419
258 420
258 422
258 423
258 424
258 425
258 426
258 430
258 431
258 432
258 433
258 439
258 441
258 442
258 443
258 444
258 445
258 446
258 447
258 448
258 449
258 450
258 452
258 453
258 454
258 455
258 456
258 457
258 458
258 459
258 460
258 461
258 462
258 463
258 464
258 465
258 466
258 467
258 468
258 470
258 471
258 473
258 475
258 476
258 480
258 482
258 485
258 488
258 490
258 496
258 497
258 498
258 500
258 503
258 504
258 505
258 506
258 507
258 508
258 509
258 510
258 511
258 512
258 513
258 514
258 515
258 517
258 518
258 519
258 520
258 521
258 522
258 523
258 524
258 525
258 526
258 527
258 529
258 530
258 531
258 532
258 533
258 534
258 535
258 536
258 537
258 538
258 539
258 540
258 541
258 542
258 544
258 545
258 546
258 547
258 548
258 550
258 553
258 554
258 556
258 560
258 564
258 566
258 567
258 568
258 572
258 574
258 578
259 260
259 261
259 262
259 263
259 264
259 265
259 266
259 267
259 268
259 269
259 270
259 271
259 272
259 273
259 274
259 275
259 276
259 277
259 279
259 281
259 282
259 288
259 289
259 290
259 297
259 299
259 300
259 304
259 305
259 306
259 307
259 310
259 313
259 315
259 318
259 319
259 320
259 321
259 322
259 327
259 329
259 336
259 337
259 338
259 339
259 340
259 349
259 350
259 351
259 352
259 353
259 354
259 355
259 356
259 357
259 358
259 359
259 360
259 361
259 362
259 363
259 364
259 370
259 371
259 374
259 376
259 381
259 386
259 390
259 391
259 394
259 398
259 399
259 403
259 404
259 407
259 414
259 415
259 418
259 421
259 426
259 427
259 428
259 429
259 430
259 431
259 432
259 433
259 434
259 435
259 436
259 437
259 438
259 440
259 441
259 442
259 443
259 444
259 445
259 446
259 447
259 448
259 449
259 450
259 451
259 452
259 454
259 455
259 456
259 458
259 464
259 465
259 467
259 469
259 471
259 472
259 473
259 474
259 475
259 476
259 477
259 478
259 479
259 480
259 481
259 482
259 483
259 484
259 486
259 487
259 488
259 490
259 496
259 497
259 498
259 500
259 503
259 505
259 508
259 509
259 510
259 512
259 516
259 518
259 519
259 520
259 521
259 522
259 523
259 524
259 525
259 526
259 527
259 528
259 529
259 530
259 532
259 533
259 534
259 535
259 536
259 537
259 538
259 539
259 540
259 541
259 542
259 543
259 544
259 546
259 547
259 548
259 549
259 550
259 551
259 552
259 553
259 554
259 555
259 556
259 557
259 558
259 559
259 561
259 562
259 563
259 564
259 565
259 566
259 567
259 568
259 569
259 570
259 571
259 572
259 573
259 574
259 575
259 576
259 577
259 579
260 261
260 262
260 263
260 264
260 265
260 266
260 267
260 268
260 269
260 270
260 271
260 272
260 273
260 274
260 275
260 276
260 277
260 278
260 279
260 281
260 282
260 283
260 284
260 285
260 286
260 287
260 288
260 289
260 290
260 291
260 292
260 293
260 294
260 295
260 297
260 298
260 299
260 300
260 301
260 302
260 303
260 304
260 305
260 306
260 307
260 308
260 309
260 310
260 311
260 312
260 314
260 316
260 317
260 318
260 319
260 323
260 324
260 326
260 328
260 329
260 333
260 334
260 335
260 336
260 337
260 338
260 339
260 340
260 341
260 342
260 343
260 344
260 345
260 346
260 347
260 348
260 350
260 354
260 355
260 357
260 359
260 361
260 364
260 365
260 367
260 368
260 369
260 370
260 371
260 372
260 373
260 374
260 375
260 376
260 377
260 378
260 379
260 380
260 381
260 383
260 384
260 385
260 386
260 387
260 388
260 389
260 390
260 391
260 392
260 393
260 394
260 395
260 397
260 400
260 401
260 402
260 403
260 404
260 405
260 408
260 411
260 412
260 413
260 416
260 419
260 421
260 427
260 428
260 430
260 431
260 434
260 435
260 436
260 438
260 439
260 442
260 443
260 444
260 445
260 446
260 447
260 448
260 449
260 450
260 451
260 452
260 453
260 454
260 455
260 456
260 458
260 459
260 460
260 461
260 462
260 463
260 464
260 465
260 466
260 467
260 468
260 469
260 470
260 474
260 475
260 476
260 477
260 478
260 481
260 483
260 484
260 485
260 488
260 490
260 491
260 492
260 493
260 494
260 495
260 496
260 497
260 498
260 499
260 500
260 501
260 502
260 506
260 507
260 508
260 511
260 513
260 515
260 516
260 520
260 521
260 522
260 523
260 524
260 525
260 527
260 528
260 531
260 534
260 535
260 536
260 538
260 539
260 540
260 542
260 543
260 545
260 549
260 551
260 552
260 555
260 557
260 560
260 563
260 565
260 566
260 568
260 569
260 570
260 571
260 573
260 576
260 578
261 262
261 263
261 264
261 265
261 266
261 267
261 268
261 269
261 270
261 271
261 272
261 273
261 274
261 275
261 276
261 277
261 278
261 280
261 283
261 284
261 285
261 287
261 288
261 289
261 291
261 292
261 296
261 297
261 299
261 300
261 301
261 302
261 303
261 304
261 305
261 306
261 307
261 308
261 309
261 310
261 311
261 312
261 314
261 316
261 317
261 318
261 319
261 323
261 324
261 326
261 328
261 329
261 332
261 334
261 335
261 337
261 338
261 341
261 342
261 344
261 346
261 349
261 351
261 352
261 353
261 354
261 355
261 356
261 357
261 358
261 359
261 360
261 361
261 362
261 363
261 364
261 365
261 366
261 367
261 368
261 371
261 372
261 375
261 377
261 381
261 382
261 384
261 385
261 386
261 387
261 388
261 389
261 390
261 391
261 392
261 393
261 394
261 395
261 397
261 400
261 401
261 402
261 403
261 404
261 405
261 408
261 412
261 413
261 414
261 415
261 416
261 417
261 418
261 419
261 420
261 421
261 422
261 423
261 424
261 425
261 427
261 428
261 430
261 431
261 434
261 435
261 436
261 438
261 439
261 441
261 444
261 445
261 447
261 449
261 451
261 453
261 457
261 459
261 460
261 461
261 463
261 464
261 466
261 468
261 469
261 474
261 475
261 476
261 477
261 478
261 481
261 483
261 484
261 485
261 488
261 489
261 490
261 492
261 493
261 494
261 495
261 496
261 497
261 498
261 499
261 500
261 501
261 502
261 506
261 507
261 508
261 511
261 513
261 515
261 516
261 520
261 521
261 522
261 523
261 524
261 525
261 527
261 528
261 531
261 534
261 535
261 536
261 538
261 539
261 540
261 542
261 543
261 545
261 549
261 551
261 552
261 555
261 557
261 560
261 564
261 565
261 566
261 567
261 568
261 569
261 570
261 571
261 572
261 573
261 574
261 575
261 576
261 577
261 578
261 579
262 263
262 264
262 265
262 266
262 267
262 268
262 269
262 270
262 271
262 272
262 273
262 274
262 275
262 276
262 277
262 278
262 280
262 283
262 284
262 285
262 287
262 288
262 289
262 291
262 292
262 296
262 298
262 301
262 302
262 304
262 305
262 308
262 309
262 311
262 313
262 315
262 316
262 317
262 318
262 319
262 320
262 321
262 322
262 323
262 324
262 325
262 326
262 327
262 328
262 329
262 330
262 331
262 332
262 334
262 335
262 337
262 338
262 341
262 342
262 344
262 346
262 350
262 354
262 355
262 357
262 359
262 361
262 364
262 365
262 366
262 368
262 369
262 370
262 371
262 372
262 373
262 374
262 375
262 376
262 377
262 378
262 379
262 380
262 381
262 382
262 383
262 384
262 386
262 387
262 388
262 389
262 390
262 391
262 392
262 393
262 394
262 395
262 396
262 398
262 399
262 400
262 401
262 402
262 403
262 404
262 405
262 406
262 407
262 408
262 409
262 410
262 411
262 412
262 413
262 416
262 419
262 421
262 426
262 428
262 429
262 430
262 431
262 432
262 433
262 434
262 435
262 436
262 437
262 438
262 439
262 440
262 441
262 444
262 445
262 447
262 449
262 451
262 453
262 457
262 459
262 460
262 461
262 463
262 464
262 466
262 468
262 469
262 474
262 475
262 476
262 477
262 478
262 481
262 483
262 484
262 485
262 488
262 489
262 490
262 491
262 493
262 494
262 495
262 496
262 497
262 498
262 499
262 500
262 501
262 502
262 506
262 507
262 508
262 511
262 513
262 515
262 516
262 520
262 521
262 522
262 523
262 524
262 525
262 527
262 528
262 531
262 534
262 535
262 536
262 538
262 539
262 540
262 542
262 543
262 545
262 548
262 550
262 551
262 552
262 553
262 554
262 555
262 556
262 557
262 558
262 559
262 560
262 561
262 562
262 563
262 565
262 566
262 568
262 569
262 570
262 571
262 573
262 576
262 578
263 264
263 265
263 266
263 267
263 268
263 269
263 270
263 271
263 272
263 273
263 274
263 275
263 276
263 277
263 278
263 279
263 280
263 281
263 282
263 284
263 285
263 286
263 287
263 288
263 289
263 290
263 291
263 292
263 293
263 294
263 295
263 296
263 298
263 301
263 302
263 304
263 305
263 308
263 309
263 311
263 313
263 314
263 315
263 317
263 318
263 319
263 320
263 321
263 322
263 323
263 324
263 325
263 326
263 327
263 328
263 329
263 330
263 331
263 332
263 333
263 335
263 336
263 337
263 338
263 339
263 340
263 341
263 342
263 343
263 344
263 345
263 346
263 347
263 348
263 349
263 350
263 351
263 352
263 353
263 355
263 356
263 357
263 358
263 359
263 360
263 361
263 362
263 363
263 364
263 365
263 366
263 367
263 369
263 370
263 371
263 372
263 373
263 374
263 375
263 376
263 377
263 378
263 379
263 380
263 381
263 382
263 383
263 384
263 385
263 386
263 388
263 389
263 390
263 391
263 392
263 393
263 394
263 395
263 396
263 397
263 398
263 399
263 401
263 402
263 403
263 404
263 405
263 406
263 407
263 408
263 409
263 410
263 411
263 412
263 413
263 416
263 419
263 421
263 427
263 428
263 430
263 431
263 434
263 435
263 436
263 438
263 439
263 441
263 444
263 445
263 447
263 449
263 451
263 453
263 456
263 457
263 458
263 460
263 461
263 462
263 463
263 464
263 465
263 466
263 467
263 468
263 469
263 470
263 474
263 475
263 476
263 477
263 478
263 481
263 483
263 484
263 485
263 489
263 491
263 492
263 493
263 494
263 496
263 497
263 499
263 506
263 507
263 508
263 511
263 513
263 515
263 516
263 520
263 521
263 522
263 523
263 524
263 525
263 527
263 528
263 531
263 533
263 535
263 536
263 537
263 538
263 539
263 540
263 541
263 542
263 543
263 544
263 545
263 546
263 547
263 549
263 551
263 552
263 555
263 557
263 560
263 563
263 565
263 566
263 568
263 569
263 570
263 571
263 573
263 576
263 578
264 265
264 266
264 267
264 268
264 269
264 270
264 271
264 272
264 273
264 274
264 275
264 276
264 277
264 278
264 279
264 280
264 281
264 282
264 283
264 285
264 286
264 287
264 288
264 289
264 290
264 291
264 292
264 293
264 294
264 295
264 296
264 297
264 298
264 299
264 300
264 302
264 303
264 304
264 305
264 306
264 307
264 308
264 309
264 310
264 311
264 312
264 314
264 316
264 317
264 318
264 319
264 323
264 324
264 326
264 328
264 329
264 332
264 334
264 335
264 337
264 338
264 341
264 342
264 344
264 346
264 350
264 354
264 355
264 357
264 359
264 361
264 364
264 365
264 366
264 367
264 368
264 371
264 372
264 375
264 377
264 381
264 382
264 383
264 384
264 385
264 386
264 387
264 389
264 390
264 391
264 392
264 393
264 394
264 395
264 396
264 397
264 398
264 399
264 400
264 402
264 403
264 404
264 405
264 406
264 407
264 408
264 409
264 410
264 411
264 413
264 414
264 415
264 416
264 417
264 418
264 419
264 420
264 421
264 422
264 423
264 424
264 425
264 426
264 427
264 429
264 430
264 431
264 432
264 433
264 434
264 435
264 436
264 437
264 438
264 439
264 440
264 441
264 444
264 445
264 447
264 449
264 451
264 453
264 456
264 457
264 458
264 459
264 461
264 462
264 463
264 464
264 465
264 466
264 467
264 468
264 469
264 470
264 474
264 475
264 476
264 477
264 478
264 481
264 483
264 484
264 485
264 488
264 489
264 490
264 491
264 492
264 494
264 495
264 496
264 497
264 498
264 499
264 500
264 501
264 502
264 503
264 504
264 505
264 507
264 508
264 509
264 510
264 511
264 512
264 513
264 514
264 515
264 516
264 517
264 520
264 521
264 522
264 523
264 524
264 525
264 527
264 528
264 531
264 534
264 535
264 536
264 538
264 539
264 540
264 542
264 543
264 545
264 549
264 551
264 552
264 555
264 557
264 560
264 563
264 564
264 566
264 567
264 568
264 569
264 570
264 571
264 572
264 573
264 574
264 575
264 576
264 577
264 578
264 579
265 266
265 267
265 268
265 269
265 270
265 271
265 272
265 273
265 274
265 275
265 276
265 277
265 278
265 279
265 280
265 281
265 282
265 283
265 284
265 286
265 287
265 288
265 289
265 290
265 291
265 292
265 293
265 294
265 295
265 296
265 297
265 298
265 299
265 300
265 301
265 303
265 304
265 305
265 306
265 307
265 308
265 309
265 310
265 311
265 312
265 313
265 314
265 315
265 316
265 318
265 319
265 320
265 321
265 322
265 323
265 324
265 325
265 326
265 327
265 328
265 329
265 330
265 331
265 332
265 333
265 334
265 336
265 337
265 338
265 339
265 340
265 341
265 342
265 343
265 344
265 345
265 346
265 347
265 348
265 349
265 350
265 351
265 352
265 353
265 354
265 356
265 357
265 358
265 359
265 360
265 361
265 362
265 363
265 364
265 365
265 366
265 367
265 368
265 371
265 372
265 375
265 377
265 382
265 383
265 385
265 387
265 388
265 389
265 390
265 391
265 392
265 396
265 397
265 398
265 399
265 400
265 401
265 403
265 404
265 405
265 406
265 407
265 408
265 409
265 410
265 411
265 412
265 413
265 416
265 419
265 421
265 427
265 428
265 430
265 431
265 434
265 435
265 436
265 438
265 439
265 441
265 444
265 445
265 447
265 449
265 451
265 453
265 456
265 457
265 458
265 459
265 460
265 462
265 463
265 464
265 465
265 466
265 467
265 468
265 469
265 470
265 471
265 472
265 473
265 475
265 476
265 477
265 478
265 479
265 480
265 481
265 482
265 483
265 484
265 485
265 486
265 487
265 488
265 489
265 490
265 491
265 492
265 493
265 495
265 496
265 497
265 498
265 499
265 500
265 501
265 502
265 506
265 507
265 508
265 511
265 513
265 515
265 516
265 518
265 519
265 521
265 522
265 523
265 524
265 525
265 526
265 527
265 528
265 529
265 530
265 531
265 532
265 534
265 535
265 536
265 538
265 539
265 540
265 542
265 543
265 545
265 548
265 549
265 550
265 552
265 553
265 554
265 555
265 556
265 557
265 558
265 559
265 560
265 561
265 562
265 563
265 565
265 566
265 568
265 569
265 570
265 571
265 573
265 576
265 578
266 267
266 268
266 269
266 270
266 271
266 272
266 273
266 274
266 275
266 276
266 277
266 278
266 279
266 280
266 281
266 282
266 283
266 284
266 285
266 286
266 288
266 289
266 290
266 291
266 292
266 293
266 294
266 295
266 296
266 298
266 301
266 302
266 304
266 305
266 308
266 309
266 311
266 314
266 316
266 317
266 318
266 319
266 323
266 324
266 326
266 328
266 329
266 332
266 334
266 335
266 337
266 338
266 341
266 342
266 344
266 346
266 350
266 354
266 355
266 357
266 359
266 361
266 364
266 365
266 366
266 367
266 368
266 371
266 372
266 375
266 377
266 381
266 382
266 383
266 384
266 385
266 386
266 387
266 388
266 390
266 391
266 392
266 393
266 394
266 395
266 397
266 400
266 401
266 402
266 403
266 404
266 405
266 408
266 411
266 412
266 414
266 415
266 416
266 417
266 418
266 419
266 420
266 421
266 422
266 423
266 424
266 425
266 427
266 428
266 430
266 431
266 434
266 435
266 436
266 438
266 439
266 441
266 444
266 445
266 447
266 449
266 451
266 453
266 456
266 457
266 458
266 459
266 460
266 461
266 462
266 464
266 465
266 466
266 467
266 468
266 469
266 470
266 474
266 475
266 476
266 477
266 478
266 481
266 483
266 484
266 485
266 489
266 491
266 492
266 493
266 494
266 496
266 497
266 499
266 503
266 504
266 505
266 506
266 508
266 509
266 510
266 511
266 512
266 513
266 514
266 515
266 516
266 517
266 520
266 521
266 522
266 523
266 524
266 525
266 527
266 528
266 531
266 534
266 535
266 536
266 538
266 539
266 540
266 542
266 543
266 545
266 548
266 549
266 550
266 551
266 553
266 554
266 555
266 556
266 557
266 558
266 559
266 560
266 561
266 562
266 563
266 565
266 566
266 568
266 569
266 570
266 571
266 573
266 576
266 578
267 268
267 269
267 270
267 271
267 272
267 273
267 274
267 275
267 276
267 277
267 278
267 279
267 280
267 281
267 282
267 283
267 284
267 285
267 286
267 287
267 289
267 290
267 291
267 292
267 293
267 294
267 295
267 296
267 297
267 298
267 299
267 300
267 301
267 302
267 303
267 305
267 306
267 307
267 308
267 309
267 310
267 311
267 312
267 313
267 314
267 315
267 316
267 317
267 319
267 320
267 321
267 322
267 323
267 324
267 325
267 326
267 327
267 328
267 329
267 330
267 331
267 332
267 334
267 335
267 337
267 338
267 341
267 342
267 344
267 346
267 350
267 354
267 355
267 357
267 359
267 361
267 364
267 365
267 366
267 367
267 368
267 371
267 372
267 375
267 377
267 382
267 383
267 385
267 387
267 388
267 389
267 390
267 391
267 392
267 397
267 400
267 401
267 402
267 403
267 404
267 405
267 408
267 411
267 412
267 413
267 416
267 419
267 421
267 427
267 428
267 430
267 431
267 434
267 435
267 436
267 438
267 439
267 441
267 442
267 443
267 445
267 446
267 447
267 448
267 449
267 450
267 451
267 452
267 453
267 454
267 455
267 456
267 457
267 458
267 459
267 460
267 461
267 462
267 463
267 465
267 466
267 467
267 468
267 469
267 470
267 474
267 475
267 476
267 477
267 478
267 481
267 483
267 484
267 485
267 489
267 491
267 492
267 493
267 494
267 496
267 497
267 499
267 506
267 507
267 508
267 511
267 513
267 515
267 516
267 518
267 519
267 520
267 522
267 523
267 524
267 525
267 526
267 527
267 528
267 529
267 530
267 531
267 532
267 534
267 535
267 536
267 538
267 539
267 540
267 542
267 543
267 545
267 549
267 551
267 552
267 555
267 557
267 560
267 563
267 564
267 565
267 567
267 568
267 569
267 570
267 571
267 572
267 573
267 574
267 575
267 576
267 577
267 578
267 579
268 269
268 270
268 271
268 272
268 273
268 274
268 275
268 276
268 277
268 278
268 279
268 280
268 281
268 282
268 283
268 284
268 285
268 286
268 287
268 288
268 290
268 291
268 292
268 293
268 294
268 295
268 296
268 297
268 298
268 299
268 300
268 301
268 302
268 303
268 304
268 306
268 307
268 308
268 309
268 310
268 311
268 312
268 313
268 314
268 315
268 316
268 317
268 318
268 320
268 321
268 322
268 323
268 324
268 325
268 326
268 327
268 328
268 329
268 330
268 331
268 332
268 334
268 335
268 337
268 338
268 341
268 342
268 344
268 346
268 349
268 350
268 351
268 352
268 353
268 354
268 355
268 356
268 358
268 359
268 360
268 361
268 362
268 363
268 364
268 365
268 366
268 367
268 368
268 371
268 372
268 375
268 377
268 381
268 382
268 383
268 384
268 385
268 386
268 387
268 388
268 389
268 391
268 392
268 393
268 394
268 395
268 397
268 400
268 401
268 402
268 403
268 404
268 405
268 408
268 411
268 412
268 413
268 416
268 419
268 421
268 427
268 428
268 430
268 431
268 434
268 435
268 436
268 438
268 439
268 441
268 444
268 445
268 447
268 449
268 451
268 453
268 457
268 459
268 460
268 461
268 463
268 464
268 466
268 468
268 469
268 471
268 472
268 473
268 474
268 476
268 477
268 478
268 479
268 480
268 481
268 482
268 483
268 484
268 485
268 486
268 487
268 488
268 489
268 490
268 491
268 492
268 493
268 494
268 495
268 497
268 498
268 499
268 500
268 501
268 502
268 503
268 504
268 505
268 506
268 507
268 509
268 510
268 511
268 512
268 513
268 514
268 515
268 516
268 517
268 520
268 521
268 522
268 523
268 524
268 525
268 527
268 528
268 531
268 533
268 534
268 536
268 537
268 538
268 539
268 540
268 541
268 542
268 543
268 544
268 545
268 546
268 547
268 549
268 551
268 552
268 555
268 557
268 560
268 563
268 565
268 566
268 568
268 569
268 570
268 571
268 573
268 576
268 578
269 270
269 271
269 272
269 273
269 274
269 275
269 276
269 277
269 278
269 280
269 283
269 284
269 285
269 287
269 288
269 289
269 291
269 292
269 296
269 298
269 301
269 302
269 304
269 305
269 308
269 309
269 311
269 314
269 316
269 317
269 318
269 319
269 323
269 324
269 326
269 328
269 329
269 332
269 333
269 334
269 335
269 336
269 338
269 339
269 340
269 341
269 342
269 343
269 344
269 345
269 346
269 347
269 348
269 349
269 350
269 351
269 352
269 353
269 354
269 355
269 356
269 357
269 358
269 360
269 361
269 362
269 363
269 364
269 365
269 366
269 367
269 368
269 371
269 372
269 375
269 377
269 381
269 382
269 383
269 384
269 385
269 386
269 387
269 388
269 389
269 390
269 392
269 393
269 394
269 395
269 396
269 397
269 398
269 399
269 400
269 401
269 402
269 404
269 405
269 406
269 407
269 408
269 409
269 410
269 411
269 412
269 413
269 416
269 419
269 421
269 426
269 427
269 428
269 429
269 431
269 432
269 433
269 434
269 435
269 436
269 437
269 438
269 439
269 440
269 441
269 442
269 443
269 444
269 446
269 447
269 448
269 449
269 450
269 451
269 452
269 453
269 454
269 455
269 457
269 459
269 460
269 461
269 463
269 464
269 466
269 468
269 469
269 471
269 472
269 473
269 474
269 475
269 477
269 478
269 479
269 480
269 481
269 482
269 483
269 484
269 485
269 486
269 487
269 488
269 489
269 490
269 491
269 492
269 493
269 494
269 495
269 496
269 498
269 499
269 500
269 501
269 502
269 506
269 507
269 508
269 511
269 513
269 515
269 516
269 518
269 519
269 520
269 521
269 523
269 524
269 525
269 526
269 527
269 528
269 529
269 530
269 531
269 532
269 534
269 535
269 536
269 538
269 539
269 540
269 542
269 543
269 545
269 549
269 551
269 552
269 555
269 557
269 560
269 563
269 565
269 566
269 568
269 569
269 570
269 571
269 573
269 576
269 578
270 271
270 272
270 273
270 274
270 275
270 276
270 277
270 278
270 280
270 283
270 284
270 285
270 287
270 288
270 289
270 291
270 292
270 296
270 298
270 301
270 302
270 304
270 305
270 308
270 309
270 311
270 314
270 316
270 317
270 318
270 319
270 323
270 324
270 326
270 328
270 329
270 332
270 333
270 334
270 335
270 336
270 337
270 339
270 340
270 341
270 342
270 343
270 344
270 345
270 346
270 347
270 348
270 350
270 354
270 355
270 357
270 359
270 361
270 364
270 365
270 366
270 367
270 368
270 369
270 370
270 372
270 373
270 374
270 375
270 376
270 377
270 378
270 379
270 380
270 382
270 383
270 385
270 387
270 388
270 389
270 390
270 391
270 392
270 396
270 397
270 398
270 399
270 400
270 401
270 402
270 403
270 405
270 406
270 407
270 408
270 409
270 410
270 411
270 412
270 413
270 416
270 419
270 421
270 426
270 427
270 428
270 429
270 430
270 432
270 433
270 434
270 435
270 436
270 437
270 438
270 439
270 440
270 441
270 444
270 445
270 447
270 449
270 451
270 453
270 457
270 459
270 460
270 461
270 463
270 464
270 466
270 468
270 469
270 474
270 475
270 476
270 477
270 478
270 481
270 483
270 484
270 485
270 489
270 491
270 492
270 493
270 494
270 496
270 497
270 499
270 506
270 507
270 508
270 511
270 513
270 515
270 516
270 520
270 521
270 522
270 523
270 524
270 525
270 527
270 528
270 531
270 533
270 534
270 535
270 537
270 538
270 539
270 540
270 541
270 542
270 543
270 544
270 545
270 546
270 547
270 549
270 551
270 552
270 555
270 557
270 560
270 563
270 564
270 565
270 566
270 567
270 569
270 570
270 571
270 572
270 573
270 574
270 575
270 576
270 577
270 578
270 579
271 272
271 273
271 274
271 275
271 276
271 277
271 278
271 280
271 283
271 284
271 285
271 287
271 288
271 289
271 291
271 292
271 296
271 297
271 298
271 299
271 300
271 301
271 302
271 303
271 304
271 305
271 306
271 307
271 309
271 310
271 311
271 312
271 314
271 316
271 317
271 318
271 319
271 323
271 324
271 326
271 328
271 329
271 332
271 333
271 334
271 335
271 336
271 337
271 338
271 339
271 340
271 342
271 343
271 344
271 345
271 346
271 347
271 348
271 350
271 354
271 355
271 357
271 359
271 361
271 364
271 365
271 366
271 367
271 368
271 371
271 372
271 375
271 377
271 381
271 382
271 383
271 384
271 385
271 386
271 387
271 388
271 389
271 390
271 391
271 393
271 394
271 395
271 397
271 400
271 401
271 402
271 403
271 404
271 405
271 408
271 411
271 412
271 413
271 416
271 419
271 421
271 426
271 427
271 428
271 429
271 430
271 431
271 432
271 433
271 435
271 436
271 437
271 438
271 439
271 440
271 441
271 444
271 445
271 447
271 449
271 451
271 453
271 456
271 457
271 458
271 459
271 460
271 461
271 462
271 463
271 464
271 465
271 467
271 468
271 469
271 470
271 474
271 475
271 476
271 477
271 478
271 481
271 483
271 484
271 485
271 489
271 491
271 492
271 493
271 494
271 496
271 497
271 499
271 506
271 507
271 508
271 511
271 513
271 515
271 516
271 518
271 519
271 520
271 521
271 522
271 524
271 525
271 526
271 527
271 528
271 529
271 530
271 531
271 532
271 533
271 534
271 535
271 536
271 537
271 539
271 540
271 541
271 542
271 543
271 544
271 545
271 546
271 547
271 548
271 549
271 550
271 551
271 552
271 553
271 554
271 556
271 557
271 558
271 559
271 560
271 561
271 562
271 563
271 564
271 565
271 566
271 567
271 568
271 570
271 571
271 572
271 573
271 574
271 575
271 576
271 577
271 578
271 579
272 273
272 274
272 275
272 276
272 277
272 278
272 279
272 280
272 281
272 282
272 283
272 284
272 285
272 286
272 287
272 288
272 289
272 290
272 292
272 293
272 294
272 295
272 296
272 298
272 301
272 302
272 304
272 305
272 308
272 309
272 311
272 313
272 314
272 315
272 316
272 317
272 318
272 319
272 320
272 321
272 322
272 324
272 325
272 326
272 327
272 328
272 329
272 330
272 331
272 332
272 333
272 334
272 335
272 336
272 337
272 338
272 339
272 340
272 341
272 343
272 344
272 345
272 346
272 347
272 348
272 349
272 350
272 351
272 352
272 353
272 354
272 355
272 356
272 357
272 358
272 359
272 360
272 362
272 363
272 364
272 365
272 366
272 367
272 368
272 371
272 372
272 375
272 377
272 382
272 383
272 385
272 387
272 388
272 389
272 390
272 391
272 392
272 396
272 397
272 398
272 399
272 400
272 401
272 402
272 403
272 404
272 406
272 407
272 408
272 409
272 410
272 411
272 412
272 413
272 414
272 415
272 417
272 418
272 419
272 420
272 421
272 422
272 423
272 424
272 425
272 426
272 427
272 428
272 429
272 430
272 431
272 432
272 433
272 434
272 436
272 437
272 438
272 439
272 440
272 441
272 442
272 443
272 444
272 445
272 446
272 448
272 449
272 450
272 451
272 452
272 453
272 454
272 455
272 457
272 459
272 460
272 461
272 463
272 464
272 466
272 468
272 469
272 471
272 472
272 473
272 474
272 475
272 476
272 478
272 479
272 480
272 481
272 482
272 483
272 484
272 485
272 486
272 487
272 489
272 491
272 492
272 493
272 494
272 496
272 497
272 499
272 506
272 507
272 508
272 511
272 513
272 515
272 516
272 520
272 521
272 522
272 523
272 524
272 525
272 527
272 528
272 531
272 534
272 535
272 536
272 538
272 539
272 540
272 542
272 543
272 545
272 549
272 551
272 552
272 555
272 557
272 560
272 563
272 564
272 565
272 566
272 567
272 568
272 569
272 571
272 572
272 573
272 574
272 575
272 576
272 577
272 578
272 579
273 274
273 275
273 276
273 277
273 278
273 280
273 283
273 284
273 285
273 287
273 288
273 289
273 291
273 292
273 296
273 297
273 298
273 299
273 300
273 301
273 302
273 303
273 304
273 305
273 306
273 307
273 308
273 310
273 311
273 312
273 313
273 314
273 315
273 316
273 317
273 318
273 319
273 320
273 321
273 322
273 323
273 325
273 326
273 327
273 328
273 329
273 330
273 331
273 332
273 334
273 335
273 337
273 338
273 341
273 342
273 344
273 346
273 350
273 354
273 355
273 357
273 359
273 361
273 364
273 365
273 366
273 367
273 368
273 369
273 370
273 371
273 373
273 374
273 375
273 376
273 377
273 378
273 379
273 380
273 382
273 383
273 385
273 387
273 388
273 389
273 390
273 391
273 392
273 397
273 400
273 401
273 402
273 403
273 404
273 405
273 408
273 411
273 412
273 413
273 416
273 419
273 421
273 426
273 427
273 428
273 429
273 430
273 431
273 432
273 433
273 434
273 435
273 437
273 438
273 439
273 440
273 441
273 444
273 445
273 447
273 449
273 451
273 453
273 457
273 459
273 460
273 461
273 463
273 464
273 466
273 468
273 469
273 471
273 472
273 473
273 474
273 475
273 476
273 477
273 479
273 480
273 481
273 482
273 483
273 484
273 485
273 486
273 487
273 488
273 489
273 490
273 491
273 492
273 493
273 494
273 495
273 496
273 497
273 498
273 500
273 501
273 502
273 506
273 507
273 508
273 511
273 513
273 515
273 516
273 518
273 519
273 520
273 521
273 522
273 523
273 525
273 526
273 527
273 528
273 529
273 530
273 531
273 532
273 533
273 534
273 535
273 536
273 537
273 538
273 540
273 541
273 542
273 543
273 544
273 545
273 546
273 547
273 549
273 551
273 552
273 555
273 557
273 560
273 563
273 564
273 565
273 566
273 567
273 568
273 569
273 570
273 572
273 573
273 574
273 575
273 576
273 577
273 578
273 579
274 275
274 276
274 277
274 278
274 279
274 280
274 281
274 282
274 283
274 284
274 285
274 286
274 287
274 288
274 289
274 290
274 291
274 293
274 294
274 295
274 296
274 298
274 301
274 302
274 304
274 305
274 308
274 309
274 311
274 313
274 314
274 315
274 316
274 317
274 318
274 319
274 320
274 321
274 322
274 323
274 324
274 325
274 327
274 328
274 329
274 330
274 331
274 332
274 334
274 335
274 337
274 338
274 341
274 342
274 344
274 346
274 350
274 354
274 355
274 357
274 359
274 361
274 364
274 365
274 366
274 367
274 368
274 369
274 370
274 371
274 372
274 373
274 374
274 376
274 377
274 378
274 379
274 380
274 382
274 383
274 385
274 387
274 388
274 389
274 390
274 391
274 392
274 397
274 400
274 401
274 402
274 403
274 404
274 405
274 408
274 411
274 412
274 413
274 416
274 419
274 421
274 427
274 428
274 430
274 431
274 434
274 435
274 436
274 438
274 439
274 441
274 442
274 443
274 444
274 445
274 446
274 447
274 448
274 450
274 451
274 452
274 453
274 454
274 455
274 457
274 459
274 460
274 461
274 463
274 464
274 466
274 468
274 469
274 471
274 472
274 473
274 474
274 475
274 476
274 477
274 478
274 479
274 480
274 482
274 483
274 484
274 485
274 486
274 487
274 489
274 491
274 492
274 493
274 494
274 496
274 497
274 499
274 503
274 504
274 505
274 506
274 507
274 508
274 509
274 510
274 512
274 513
274 514
274 515
274 516
274 517
274 520
274 521
274 522
274 523
274 524
274 525
274 527
274 528
274 531
274 533
274 534
274 535
274 536
274 537
274 538
274 539
274 541
274 542
274 543
274 544
274 545
274 546
274 547
274 548
274 549
274 550
274 551
274 552
274 553
274 554
274 555
274 556
274 558
274 559
274 560
274 561
274 562
274 563
274 564
274 565
274 566
274 567
274 568
274 569
274 570
274 571
274 572
274 574
274 575
274 576
274 577
274 578
274 579
275 276
275 277
275 278
275 280
275 283
275 284
275 285
275 287
275 288
275 289
275 291
275 292
275 296
275 298
275 301
275 302
275 304
275 305
275 308
275 309
275 311
275 313
275 314
275 315
275 316
275 317
275 318
275 319
275 320
275 321
275 322
275 323
275 324
275 325
275 326
275 327
275 329
275 330
275 331
275 332
275 333
275 334
275 335
275 336
275 337
275 338
275 339
275 340
275 341
275 342
275 343
275 345
275 346
275 347
275 348
275 349
275 350
275 351
275 352
275 353
275 354
275 355
275 356
275 357
275 358
275 359
275 360
275 361
275 362
275 363
275 365
275 366
275 367
275 368
275 369
275 370
275 371
275 372
275 373
275 374
275 375
275 376
275 378
275 379
275 380
275 382
275 383
275 385
275 387
275 388
275 389
275 390
275 391
275 392
275 397
275 400
275 401
275 402
275 403
275 404
275 405
275 408
275 411
275 412
275 413
275 414
275 415
275 416
275 417
275 418
275 420
275 421
275 422
275 423
275 424
275 425
275 427
275 428
275 430
275 431
275 434
275 435
275 436
275 438
275 439
275 441
275 444
275 445
275 447
275 449
275 451
275 453
275 456
275 457
275 458
275 459
275 460
275 461
275 462
275 463
275 464
275 465
275 466
275 467
275 469
275 470
275 471
275 472
275 473
275 474
275 475
275 476
275 477
275 478
275 479
275 480
275 481
275 482
275 484
275 485
275 486
275 487
275 489
275 491
275 492
275 493
275 494
275 496
275 497
275 499
275 503
275 504
275 505
275 506
275 507
275 508
275 509
275 510
275 511
275 512
275 514
275 515
275 516
275 517
275 518
275 519
275 520
275 521
275 522
275 523
275 524
275 526
275 527
275 528
275 529
275 530
275 531
275 532
275 533
275 534
275 535
275 536
275 537
275 538
275 539
275 540
275 541
275 543
275 544
275 545
275 546
275 547
275 549
275 551
275 552
275 555
275 557
275 560
275 563
275 565
275 566
275 568
275 569
275 570
275 571
275 573
275 576
275 578
276 277
276 278
276 280
276 283
276 284
276 285
276 287
276 288
276 289
276 291
276 292
276 296
276 297
276 298
276 299
276 300
276 301
276 302
276 303
276 304
276 305
276 306
276 307
276 308
276 309
276 310
276 312
276 314
276 316
276 317
276 318
276 319
276 323
276 324
276 326
276 328
276 329
276 332
276 333
276 334
276 335
276 336
276 337
276 338
276 339
276 340
276 341
276 342
276 343
276 344
276 345
276 347
276 348
276 350
276 354
276 355
276 357
276 359
276 361
276 364
276 365
276 366
276 367
276 368
276 371
276 372
276 375
276 377
276 382
276 383
276 385
276 387
276 388
276 389
276 390
276 391
276 392
276 396
276 397
276 398
276 399
276 400
276 401
276 402
276 403
276 404
276 405
276 406
276 407
276 409
276 410
276 411
276 412
276 413
276 416
276 419
276 421
276 426
276 427
276 428
276 429
276 430
276 431
276 432
276 433
276 434
276 435
276 436
276 437
276 439
276 440
276 441
276 444
276 445
276 447
276 449
276 451
276 453
276 457
276 459
276 460
276 461
276 463
276 464
276 466
276 468
276 469
276 471
276 472
276 473
276 474
276 475
276 476
276 477
276 478
276 479
276 480
276 481
276 482
276 483
276 485
276 486
276 487
276 489
276 491
276 492
276 493
276 494
276 496
276 497
276 499
276 503
276 504
276 505
276 506
276 507
276 508
276 509
276 510
276 511
276 512
276 513
276 514
276 516
276 517
276 518
276 519
276 520
276 521
276 522
276 523
276 524
276 525
276 526
276 528
276 529
276 530
276 531
276 532
276 534
276 535
276 536
276 538
276 539
276 540
276 542
276 543
276 545
276 549
276 551
276 552
276 555
276 557
276 560
276 563
276 564
276 565
276 566
276 567
276 568
276 569
276 570
276 571
276 572
276 573
276 574
276 575
276 577
276 578
276 579
277 278
277 280
277 283
277 284
277 285
277 287
277 288
277 289
277 291
277 292
277 296
277 298
277 301
277 302
277 304
277 305
277 308
277 309
277 311
277 313
277 314
277 315
277 316
277 317
277 318
277 319
277 320
277 321
277 322
277 323
277 324
277 325
277 326
277 327
277 328
277 330
277 331
277 332
277 334
277 335
277 337
277 338
277 341
277 342
277 344
277 346
277 350
277 354
277 355
277 357
277 359
277 361
277 364
277 365
277 366
277 367
277 368
277 371
277 372
277 375
277 377
277 382
277 383
277 385
277 387
277 388
277 389
277 390
277 391
277 392
277 397
277 400
277 401
277 402
277 403
277 404
277 405
277 408
277 411
277 412
277 413
277 414
277 415
277 416
277 417
277 418
277 419
277 420
277 422
277 423
277 424
277 425
277 427
277 428
277 430
277 431
277 434
277 435
277 436
277 438
277 439
277 441
277 442
277 443
277 444
277 445
277 446
277 447
277 448
277 449
277 450
277 452
277 453
277 454
277 455
277 456
277 457
277 458
277 459
277 460
277 461
277 462
277 463
277 464
277 465
277 466
277 467
277 468
277 470
277 474
277 475
277 476
277 477
277 478
277 481
277 483
277 484
277 485
277 489
277 491
277 492
277 493
277 494
277 496
277 497
277 499
277 503
277 504
277 505
277 506
277 507
277 508
277 509
277 510
277 511
277 512
277 513
277 514
277 515
277 517
277 518
277 519
277 520
277 521
277 522
277 523
277 524
277 525
277 526
277 527
277 529
277 530
277 531
277 532
277 533
277 534
277 535
277 536
277 537
277 538
277 539
277 540
277 541
277 542
277 544
277 545
277 546
277 547
277 549
277 551
277 552
277 555
277 557
277 560
277 563
277 565
277 566
277 568
277 569
277 570
277 571
277 573
277 576
277 578
278 280
278 283
278 284
278 285
278 287
278 288
278 289
278 291
278 292
278 296
278 298
278 301
278 302
278 304
278 305
278 308
278 309
278 311
278 314
278 316
278 317
278 318
278 319
278 323
278 324
278 326
278 328
278 329
278 332
278 334
278 335
278 337
278 338
278 341
278 342
278 344
278 346
278 349
278 350
278 351
278 352
278 353
278 354
278 355
278 356
278 357
278 358
278 359
278 360
278 361
278 362
278 363
278 364
278 366
278 367
278 368
278 371
278 372
278 375
278 377
278 382
278 383
278 385
278 387
278 388
278 389
278 390
278 391
278 392
278 397
278 400
278 401
278 402
278 403
278 404
278 405
278 408
278 411
278 412
278 413
278 416
278 419
278 421
278 426
278 427
278 428
278 429
278 430
278 431
278 432
278 433
278 434
278 435
278 436
278 437
278 438
278 440
278 441
278 442
278 443
278 444
278 445
278 446
278 447
278 448
278 449
278 450
278 451
278 452
278 454
278 455
278 457
278 459
278 460
278 461
278 463
278 464
278 466
278 468
278 469
278 471
278 472
278 473
278 474
278 475
278 476
278 477
278 478
278 479
278 480
278 481
278 482
278 483
278 484
278 486
278 487
278 489
278 491
278 492
278 493
278 494
278 496
278 497
278 499
278 506
278 507
278 508
278 511
278 513
278 515
278 516
278 518
278 519
278 520
278 521
278 522
278 523
278 524
278 525
278 526
278 527
278 528
278 529
278 530
278 532
278 533
278 534
278 535
278 536
278 537
278 538
278 539
278 540
278 541
278 542
278 543
278 544
278 546
278 547
278 548
278 549
278 550
278 551
278 552
278 553
278 554
278 555
278 556
278 557
278 558
278 559
278 561
278 562
278 563
278 564
278 565
278 566
278 567
278 568
278 569
278 570
278 571
278 572
278 573
278 574
278 575
278 576
278 577
278 579
279 280
279 281
279 282
279 283
279 284
279 285
279 286
279 287
279 288
279 289
279 290
279 291
279 292
279 293
279 294
279 295
279 296
279 297
279 299
279 301
279 302
279 303
279 304
279 305
279 313
279 315
279 316
279 317
279 318
279 319
279 322
279 323
279 326
279 332
279 334
279 335
279 340
279 342
279 345
279 349
279 352
279 354
279 355
279 356
279 357
279 360
279 361
279 366
279 368
279 369
279 375
279 378
279 380
279 382
279 383
279 384
279 385
279 386
279 387
279 388
279 389
279 390
279 391
279 392
279 393
279 394
279 395
279 398
279 400
279 401
279 402
279 405
279 409
279 410
279 412
279 413
279 415
279 416
279 420
279 422
279 425
279 426
279 428
279 429
279 433
279 435
279 437
279 440
279 441
279 443
279 444
279 446
279 447
279 449
279 455
279 457
279 458
279 459
279 460
279 461
279 462
279 463
279 464
279 465
279 466
279 467
279 468
279 469
279 470
279 472
279 473
279 474
279 475
279 476
279 477
279 478
279 479
279 480
279 481
279 482
279 483
279 484
279 485
279 486
279 487
279 489
279 490
279 491
279 492
279 493
279 494
279 495
279 496
279 497
279 498
279 499
279 500
279 501
279 502
279 504
279 505
279 506
279 507
279 508
279 509
279 510
279 511
279 512
279 513
279 514
279 515
279 516
279 517
279 519
279 520
279 521
279 526
279 529
279 532
279 533
279 534
279 535
279 540
279 544
279 547
279 549
279 550
279 551
279 552
279 553
279 554
279 555
279 556
279 557
279 558
279 559
279 560
279 561
279 562
279 564
279 565
279 566
279 570
279 573
279 575
280 281
280 282
280 283
280 284
280 285
280 286
280 287
280 288
280 289
280 290
280 291
280 292
280 293
280 294
280 295
280 297
280 298
280 299
280 300
280 301
280 302
280 303
280 304
280 305
280 306
280 307
280 308
280 309
280 310
280 311
280 312
280 313
280 315
280 316
280 317
280 318
280 319
280 322
280 323
280 326
280 333
280 334
280 335
280 336
280 337
280 338
280 339
280 340
280 341
280 342
280 343
280 344
280 345
280 346
280 347
280 348
280 349
280 352
280 354
280 355
280 356
280 357
280 360
280 361
280 367
280 368
280 369
280 370
280 371
280 372
280 373
280 374
280 375
280 376
280 377
280 378
280 379
280 380
280 381
280 383
280 384
280 385
280 386
280 387
280 388
280 389
280 390
280 391
280 392
280 393
280 394
280 395
280 398
280 400
280 401
280 402
280 405
280 409
280 410
280 412
280 413
280 415
280 416
280 420
280 422
280 425
280 426
280 428
280 429
280 433
280 435
280 437
280 440
280 442
280 443
280 444
280 445
280 446
280 447
280 448
280 449
280 450
280 451
280 452
280 453
280 454
280 455
280 456
280 458
280 459
280 460
280 461
280 462
280 463
280 464
280 465
280 466
280 467
280 468
280 469
280 470
280 471
280 474
280 475
280 477
280 481
280 487
280 488
280 490
280 491
280 492
280 493
280 494
280 495
280 496
280 497
280 498
280 499
280 500
280 501
280 502
280 503
280 505
280 506
280 507
280 508
280 510
280 511
280 514
280 517
280 519
280 520
280 521
280 526
280 529
280 532
280 533
280 534
280 535
280 540
280 544
280 547
280 548
280 550
280 551
280 552
280 557
280 558
280 562
280 564
280 565
280 566
280 570
280 573
280 575
281 282
281 283
281 284
281 285
281 286
281 287
281 288
281 289
281 290
281 291
281 292
281 293
281 294
281 295
281 296
281 298
281 299
281 300
281 301
281 302
281 303
281 304
281 305
281 306
281 307
281 308
281 309
281 310
281 311
281 312
281 314
281 315
281 316
281 317
281 318
281 319
281 320
281 321
281 322
281 323
281 324
281 325
281 326
281 327
281 328
281 329
281 330
281 331
281 332
281 334
281 335
281 340
281 342
281 345
281 350
281 351
281 352
281 353
281 354
281 355
281 356
281 357
281 358
281 359
281 360
281 361
281 362
281 363
281 364
281 365
281 366
281 368
281 369
281 375
281 378
281 380
281 381
281 382
281 387
281 388
281 389
281 390
281 398
281 400
281 401
281 402
281 405
281 409
281 410
281 412
281 413
281 415
281 416
281 420
281 422
281 425
281 427
281 428
281 429
281 430
281 431
281 432
281 433
281 434
281 435
281 436
281 437
281 438
281 439
281 440
281 441
281 443
281 444
281 446
281 447
281 449
281 455
281 456
281 457
281 459
281 460
281 461
281 462
281 463
281 464
281 471
281 474
281 475
281 477
281 481
281 487
281 488
281 489
281 491
281 492
281 493
281 494
281 495
281 496
281 497
281 498
281 499
281 500
281 501
281 502
281 503
281 505
281 506
281 507
281 508
281 510
281 511
281 514
281 517
281 519
281 520
281 521
281 526
281 529
281 532
281 534
281 535
281 536
281 537
281 538
281 539
281 540
281 541
281 542
281 543
281 544
281 545
281 546
281 547
281 548
281 550
281 551
281 552
281 557
281 558
281 562
281 564
281 565
281 566
281 570
281 573
281 575
282 283
282 284
282 285
282 286
282 287
282 288
282 289
282 290
282 291
282 292
282 293
282 294
282 295
282 296
282 297
282 298
282 300
282 301
282 302
282 303
282 304
282 305
282 306
282 307
282 308
282 309
282 310
282 311
282 312
282 313
282 314
282 316
282 317
282 318
282 319
282 320
282 321
282 322
282 323
282 324
282 325
282 326
282 327
282 328
282 329
282 330
282 331
282 332
282 334
282 335
282 340
282 342
282 345
282 349
282 350
282 351
282 353
282 354
282 355
282 356
282 357
282 358
282 359
282 360
282 361
282 362
282 363
282 364
282 365
282 366
282 368
282 369
282 375
282 378
282 380
282 381
282 382
282 387
282 388
282 389
282 390
282 396
282 397
282 399
282 400
282 401
282 402
282 403
282 404
282 405
282 406
282 407
282 408
282 409
282 410
282 412
282 413
282 415
282 416
282 420
282 422
282 425
282 426
282 428
282 429
282 433
282 435
282 437
282 440
282 441
282 443
282 444
282 446
282 447
282 449
282 455
282 456
282 457
282 459
282 460
282 461
282 462
282 463
282 464
282 471
282 474
282 475
282 477
282 481
282 487
282 488
282 489
282 490
282 493
282 494
282 495
282 496
282 498
282 501
282 503
282 504
282 506
282 507
282 508
282 509
282 510
282 511
282 512
282 513
282 514
282 515
282 516
282 517
282 518
282 520
282 521
282 522
282 523
282 524
282 525
282 526
282 527
282 528
282 529
282 530
282 531
282 532
282 533
282 534
282 535
282 540
282 544
282 547
282 548
282 549
282 551
282 552
282 553
282 554
282 555
282 556
282 557
282 558
282 559
282 560
282 561
282 562
282 563
282 565
282 566
282 567
282 568
282 569
282 570
282 571
282 572
282 573
282 574
282 575
282 576
282 577
282 578
282 579
283 284
283 285
283 286
283 287
283 288
283 289
283 290
283 291
283 292
283 293
283 294
283 295
283 296
283 297
283 299
283 301
283 302
283 303
283 304
283 305
283 313
283 314
283 315
283 317
283 318
283 319
283 320
283 321
283 322
283 323
283 324
283 325
283 326
283 327
283 328
283 329
283 330
283 331
283 332
283 333
283 335
283 336
283 337
283 338
283 339
283 340
283 341
283 342
283 343
283 344
283 345
283 346
283 347
283 348
283 349
283 350
283 351
283 352
283 353
283 355
283 356
283 357
283 358
283 359
283 360
283 361
283 362
283 363
283 364
283 365
283 366
283 367
283 369
283 370
283 371
283 372
283 373
283 374
283 375
283 376
283 377
283 378
283 379
283 380
283 381
283 382
283 383
283 384
283 385
283 386
283 388
283 389
283 390
283 391
283 392
283 393
283 394
283 395
283 396
283 397
283 398
283 399
283 401
283 402
283 403
283 404
283 405
283 406
283 407
283 408
283 409
283 410
283 412
283 413
283 415
283 416
283 420
283 422
283 425
283 426
283 428
283 429
283 433
283 435
283 437
283 440
283 441
283 443
283 444
283 446
283 447
283 449
283 455
283 456
283 457
283 458
283 460
283 461
283 462
283 463
283 464
283 465
283 466
283 467
283 468
283 469
283 470
283 471
283 474
283 475
283 477
283 481
283 487
283 488
283 489
283 490
283 493
283 494
283 495
283 496
283 498
283 501
283 503
283 505
283 506
283 507
283 508
283 510
283 511
283 514
283 517
283 519
283 520
283 521
283 526
283 529
283 532
283 533
283 535
283 536
283 537
283 538
283 539
283 540
283 541
283 542
283 543
283 544
283 545
283 546
283 547
283 548
283 550
283 551
283 552
283 557
283 558
283 562
283 564
283 565
283 566
283 570
283 573
283 575
284 285
284 286
284 287
284 288
284 289
284 290
284 291
284 292
284 293
284 294
284 295
284 296
284 297
284 298
284 299
284 300
284 302
284 303
284 304
284 305
284 306
284 307
284 308
284 309
284 310
284 311
284 312
284 313
284 315
284 316
284 317
284 318
284 319
284 322
284 323
284 326
284 332
284 334
284 335
284 340
284 342
284 345
284 349
284 352
284 354
284 355
284 356
284 357
284 360
284 361
284 366
284 368
284 369
284 375
284 378
284 380
284 381
284 382
284 383
284 384
284 385
284 386
284 387
284 389
284 390
284 391
284 392
284 393
284 394
284 395
284 396
284 397
284 398
284 399
284 400
284 402
284 403
284 404
284 405
284 406
284 407
284 408
284 409
284 410
284 411
284 413
284 414
284 415
284 416
284 417
284 418
284 419
284 420
284 421
284 422
284 423
284 424
284 425
284 426
284 427
284 429
284 430
284 431
284 432
284 433
284 434
284 435
284 436
284 437
284 438
284 439
284 440
284 441
284 443
284 444
284 446
284 447
284 449
284 455
284 456
284 457
284 458
284 459
284 461
284 462
284 463
284 464
284 465
284 466
284 467
284 468
284 469
284 470
284 471
284 474
284 475
284 477
284 481
284 487
284 488
284 489
284 490
284 491
284 492
284 494
284 495
284 496
284 497
284 498
284 499
284 500
284 501
284 502
284 503
284 504
284 505
284 507
284 508
284 509
284 510
284 511
284 512
284 513
284 514
284 515
284 516
284 517
284 519
284 520
284 521
284 526
284 529
284 532
284 533
284 534
284 535
284 540
284 544
284 547
284 548
284 550
284 551
284 552
284 557
284 558
284 562
284 563
284 564
284 566
284 567
284 568
284 569
284 570
284 571
284 572
284 573
284 574
284 575
284 576
284 577
284 578
284 579
285 286
285 287
285 288
285 289
285 290
285 291
285 292
285 293
285 294
285 295
285 296
285 297
285 298
285 299
285 300
285 301
285 303
285 304
285 305
285 306
285 307
285 308
285 309
285 310
285 311
285 312
285 313
285 314
285 315
285 316
285 318
285 319
285 320
285 321
285 322
285 323
285 324
285 325
285 326
285 327
285 328
285 329
285 330
285 331
285 332
285 333
285 334
285 336
285 337
285 338
285 339
285 340
285 341
285 342
285 343
285 344
285 345
285 346
285 347
285 348
285 349
285 350
285 351
285 352
285 353
285 354
285 356
285 357
285 358
285 359
285 360
285 361
285 362
285 363
285 364
285 365
285 366
285 368
285 369
285 375
285 378
285 380
285 381
285 382
285 387
285 388
285 389
285 390
285 396
285 397
285 398
285 399
285 400
285 401
285 403
285 404
285 405
285 406
285 407
285 408
285 409
285 410
285 412
285 413
285 415
285 416
285 420
285 422
285 425
285 426
285 428
285 429
285 433
285 435
285 437
285 440
285 441
285 443
285 444
285 446
285 447
285 449
285 455
285 456
285 457
285 458
285 459
285 460
285 462
285 463
285 464
285 465
285 466
285 467
285 468
285 469
285 470
285 471
285 472
285 473
285 475
285 476
285 477
285 478
285 479
285 480
285 481
285 482
285 483
285 484
285 485
285 486
285 487
285 488
285 489
285 490
285 491
285 492
285 493
285 495
285 496
285 497
285 498
285 499
285 500
285 501
285 502
285 503
285 505
285 506
285 507
285 508
285 510
285 511
285 514
285 517
285 518
285 519
285 521
285 522
285 523
285 524
285 525
285 526
285 527
285 528
285 529
285 530
285 531
285 532
285 533
285 534
285 535
285 540
285 544
285 547
285 548
285 549
285 550
285 552
285 553
285 554
285 555
285 556
285 557
285 558
285 559
285 560
285 561
285 562
285 564
285 565
285 566
285 570
285 573
285 575
286 287
286 288
286 289
286 290
286 291
286 292
286 293
286 294
286 295
286 296
286 297
286 298
286 299
286 300
286 301
286 302
286 304
286 305
286 306
286 307
286 308
286 309
286 310
286 311
286 312
286 313
286 315
286 316
286 317
286 318
286 319
286 322
286 323
286 326
286 332
286 334
286 335
286 340
286 342
286 345
286 349
286 350
286 351
286 352
286 353
286 354
286 355
286 357
286 358
286 359
286 360
286 361
286 362
286 363
286 364
286 365
286 366
286 367
286 368
286 370
286 371
286 372
286 373
286 374
286 375
286 376
286 377
286 378
286 379
286 380
286 381
286 382
286 387
286 388
286 389
286 390
286 398
286 400
286 401
286 402
286 405
286 409
286 410
286 412
286 413
286 415
286 416
286 420
286 422
286 425
286 426
286 427
286 428
286 430
286 431
286 432
286 433
286 434
286 435
286 436
286 437
286 438
286 439
286 440
286 441
286 442
286 444
286 445
286 446
286 447
286 448
286 449
286 450
286 451
286 452
286 453
286 454
286 455
286 456
286 457
286 458
286 459
286 460
286 461
286 463
286 464
286 465
286 466
286 467
286 468
286 469
286 470
286 471
286 474
286 475
286 477
286 481
286 487
286 488
286 489
286 490
286 491
286 492
286 493
286 494
286 496
286 497
286 498
286 499
286 500
286 501
286 502
286 503
286 505
286 506
286 507
286 508
286 510
286 511
286 514
286 517
286 519
286 520
286 521
286 526
286 529
286 532
286 533
286 534
286 535
286 540
286 544
286 547
286 548
286 550
286 551
286 552
286 557
286 558
286 562
286 564
286 565
286 566
286 570
286 573
286 575
287 288
287 289
287 290
287 291
287 292
287 293
287 294
287 295
287 296
287 297
287 299
287 301
287 302
287 303
287 304
287 305
287 313
287 315
287 316
287 317
287 318
287 319
287 322
287 323
287 326
287 332
287 334
287 335
287 340
287 342
287 345
287 349
287 352
287 354
287 355
287 356
287 357
287 360
287 361
287 366
287 368
287 369
287 375
287 378
287 380
287 381
287 382
287 383
287 384
287 385
287 386
287 387
287 388
287 390
287 391
287 392
287 393
287 394
287 395
287 398
287 400
287 401
287 402
287 405
287 409
287 410
287 411
287 412
287 414
287 415
287 416
287 417
287 418
287 419
287 420
287 421
287 422
287 423
287 424
287 425
287 426
287 428
287 429
287 433
287 435
287 437
287 440
287 441
287 443
287 444
287 446
287 447
287 449
287 455
287 456
287 457
287 458
287 459
287 460
287 461
287 462
287 464
287 465
287 466
287 467
287 468
287 469
287 470
287 471
287 474
287 475
287 477
287 481
287 487
287 488
287 489
287 490
287 493
287 494
287 495
287 496
287 498
287 501
287 503
287 504
287 505
287 506
287 508
287 509
287 510
287 511
287 512
287 513
287 514
287 515
287 516
287 517
287 519
287 520
287 521
287 526
287 529
287 532
287 533
287 534
287 535
287 540
287 544
287 547
287 548
287 549
287 550
287 551
287 553
287 554
287 555
287 556
287 557
287 558
287 559
287 560
287 561
287 562
287 564
287 565
287 566
287 570
287 573
287 575
288 289
288 290
288 291
288 292
288 293
288 294
288 295
288 296
288 297
288 298
288 299
288 300
288 301
288 302
288 303
288 305
288 306
288 307
288 308
288 309
288 310
288 311
288 312
288 313
288 314
288 315
288 316
288 317
288 319
288 320
288 321
288 322
288 323
288 324
288 325
288 326
288 327
288 328
288 329
288 330
288 331
288 332
288 334
288 335
288 340
288 342
288 345
288 349
288 352
288 354
288 355
288 356
288 357
288 360
288 361
288 366
288 368
288 369
288 375
288 378
288 380
288 381
288 382
288 387
288 388
288 389
288 390
288 398
288 400
288 401
288 402
288 405
288 409
288 410
288 412
288 413
288 415
288 416
288 420
288 422
288 425
288 426
288 428
288 429
288 433
288 435
288 437
288 440
288 441
288 442
288 443
288 445
288 446
288 447
288 448
288 449
288 450
288 451
288 452
288 453
288 454
288 455
288 456
288 457
288 458
288 459
288 460
288 461
288 462
288 463
288 465
288 466
288 467
288 468
288 469
288 470
288 471
288 474
288 475
288 477
288 481
288 487
288 488
288 489
288 490
288 493
288 494
288 495
288 496
288 498
288 501
288 503
288 505
288 506
288 507
288 508
288 510
288 511
288 514
288 517
288 518
288 519
288 520
288 522
288 523
288 524
288 525
288 526
288 527
288 528
288 529
288 530
288 531
288 532
288 533
288 534
288 535
288 540
288 544
288 547
288 548
288 550
288 551
288 552
288 557
288 558
288 562
288 563
288 564
288 565
288 567
288 568
288 569
288 570
288 571
288 572
288 573
288 574
288 575
288 576
288 577
288 578
288 579
289 290
289 291
289 292
289 293
289 294
289 295
289 296
289 297
289 298
289 299
289 300
289 301
289 302
289 303
289 304
289 306
289 307
289 308
289 309
289 310
289 311
289 312
289 313
289 314
289 315
289 316
289 317
289 318
289 320
289 321
289 322
289 323
289 324
289 325
289 326
289 327
289 328
289 329
289 330
289 331
289 332
289 334
289 335
289 340
289 342
289 345
289 349
289 350
289 351
289 352
289 353
289 354
289 355
289 356
289 358
289 359
289 360
289 361
289 362
289 363
289 364
289 365
289 366
289 368
289 369
289 375
289 378
289 380
289 381
289 382
289 383
289 384
289 385
289 386
289 387
289 388
289 389
289 391
289 392
289 393
289 394
289 395
289 398
289 400
289 401
289 402
289 405
289 409
289 410
289 412
289 413
289 415
289 416
289 420
289 422
289 425
289 426
289 428
289 429
289 433
289 435
289 437
289 440
289 441
289 443
289 444
289 446
289 447
289 449
289 455
289 456
289 457
289 459
289 460
289 461
289 462
289 463
289 464
289 471
289 472
289 473
289 474
289 476
289 477
289 478
289 479
289 480
289 481
289 482
289 483
289 484
289 485
289 486
289 487
289 488
289 489
289 490
289 491
289 492
289 493
289 494
289 495
289 497
289 498
289 499
289 500
289 501
289 502
289 503
289 504
289 505
289 506
289 507
289 509
289 510
289 511
289 512
289 513
289 514
289 515
289 516
289 517
289 519
289 520
289 521
289 526
289 529
289 532
289 533
289 534
289 536
289 537
289 538
289 539
289 540
289 541
289 542
289 543
289 544
289 545
289 546
289 547
289 548
289 550
289 551
289 552
289 557
289 558
289 562
289 564
289 565
289 566
289 570
289 573
289 575
290 291
290 292
290 293
290 294
290 295
290 296
290 297
290 299
290 301
290 302
290 303
290 304
290 305
290 313
290 314
290 315
290 316
290 317
290 318
290 319
290 320
290 321
290 323
290 324
290 325
290 326
290 327
290 328
290 329
290 330
290 331
290 332
290 333
290 334
290 335
290 336
290 337
290 338
290 339
290 341
290 342
290 343
290 344
290 345
290 346
290 347
290 348
290 349
290 350
290 351
290 352
290 353
290 354
290 355
290 356
290 357
290 358
290 359
290 361
290 362
290 363
290 364
290 365
290 366
290 368
290 369
290 375
290 378
290 380
290 381
290 382
290 387
290 388
290 389
290 390
290 398
290 400
290 401
290 402
290 405
290 409
290 410
290 411
290 412
290 413
290 414
290 416
290 417
290 418
290 419
290 420
290 421
290 422
290 423
290 424
290 425
290 426
290 427
290 428
290 429
290 430
290 431
290 432
290 434
290 435
290 436
290 437
290 438
290 439
290 440
290 441
290 442
290 443
290 444
290 445
290 447
290 448
290 449
290 450
290 451
290 452
290 453
290 454
290 455
290 456
290 457
290 459
290 460
290 461
290 462
290 463
290 464
290 471
290 474
290 475
290 477
290 481
290 487
290 488
290 489
290 490
290 491
290 492
290 493
290 494
290 495
290 496
290 497
290 499
290 500
290 501
290 502
290 503
290 504
290 505
290 506
290 507
290 508
290 509
290 511
290 512
290 513
290 514
290 515
290 516
290 517
290 519
290 520
290 521
290 526
290 529
290 532
290 533
290 534
290 535
290 540
290 544
290 547
290 548
290 550
290 551
290 552
290 557
290 558
290 562
290 564
290 565
290 566
290 570
290 573
290 575
291 292
291 293
291 294
291 295
291 296
291 297
291 299
291 301
291 302
291 303
291 304
291 305
291 313
291 314
291 315
291 316
291 317
291 318
291 319
291 320
291 321
291 322
291 324
291 325
291 326
291 327
291 328
291 329
291 330
291 331
291 332
291 333
291 334
291 335
291 336
291 337
291 338
291 339
291 340
291 341
291 343
291 344
291 345
291 346
291 347
291 348
291 349
291 350
291 351
291 352
291 353
291 354
291 355
291 356
291 357
291 358
291 359
291 360
291 362
291 363
291 364
291 365
291 366
291 368
291 369
291 375
291 378
291 380
291 381
291 382
291 387
291 388
291 389
291 390
291 396
291 397
291 398
291 399
291 400
291 401
291 402
291 403
291 404
291 406
291 407
291 408
291 409
291 410
291 411
291 412
291 413
291 414
291 415
291 417
291 418
291 419
291 420
291 421
291 422
291 423
291 424
291 425
291 426
291 427
291 428
291 429
291 430
291 431
291 432
291 433
291 434
291 436
291 437
291 438
291 439
291 440
291 441
291 442
291 443
291 444
291 445
291 446
291 448
291 449
291 450
291 451
291 452
291 453
291 454
291 455
291 456
291 457
291 459
291 460
291 461
291 462
291 463
291 464
291 471
291 472
291 473
291 474
291 475
291 476
291 478
291 479
291 480
291 481
291 482
291 483
291 484
291 485
291 486
291 487
291 488
291 489
291 490
291 493
291 494
291 495
291 496
291 498
291 501
291 503
291 505
291 506
291 507
291 508
291 510
291 511
291 514
291 517
291 519
291 520
291 521
291 526
291 529
291 532
291 533
291 534
291 535
291 540
291 544
291 547
291 548
291 550
291 551
291 552
291 557
291 558
291 562
291 563
291 564
291 565
291 566
291 567
291 568
291 569
291 571
291 572
291 573
291 574
291 575
291 576
291 577
291 578
291 579
292 293
292 294
292 295
292 296
292 297
292 299
292 301
292 302
292 303
292 304
292 305
292 313
292 314
292 315
292 316
292 317
292 318
292 319
292 320
292 321
292 322
292 323
292 324
292 325
292 327
292 328
292 329
292 330
292 331
292 332
292 334
292 335
292 340
292 342
292 345
292 349
292 352
292 354
292 355
292 356
292 357
292 360
292 361
292 366
292 367
292 368
292 369
292 370
292 371
292 372
292 373
292 374
292 376
292 377
292 378
292 379
292 380
292 381
292 382
292 387
292 388
292 389
292 390
292 398
292 400
292 401
292 402
292 405
292 409
292 410
292 412
292 413
292 415
292 416
292 420
292 422
292 425
292 426
292 428
292 429
292 433
292 435
292 437
292 440
292 441
292 442
292 443
292 444
292 445
292 446
292 447
292 448
292 450
292 451
292 452
292 453
292 454
292 455
292 456
292 457
292 459
292 460
292 461
292 462
292 463
292 464
292 471
292 472
292 473
292 474
292 475
292 476
292 477
292 478
292 479
292 480
292 482
292 483
292 484
292 485
292 486
292 487
292 488
292 489
292 490
292 493
292 494
292 495
292 496
292 498
292 501
292 503
292 504
292 505
292 506
292 507
292 508
292 509
292 510
292 512
292 513
292 514
292 515
292 516
292 517
292 519
292 520
292 521
292 526
292 529
292 532
292 533
292 534
292 535
292 536
292 537
292 538
292 539
292 541
292 542
292 543
292 544
292 545
292 546
292 547
292 548
292 549
292 550
292 551
292 552
292 553
292 554
292 555
292 556
292 558
292 559
292 560
292 561
292 562
292 563
292 564
292 565
292 566
292 567
292 568
292 569
292 570
292 571
292 572
292 574
292 575
292 576
292 577
292 578
292 579
293 294
293 295
293 296
293 297
293 299
293 301
293 302
293 303
293 304
293 305
293 313
293 315
293 316
293 317
293 318
293 319
293 322
293 323
293 326
293 332
293 333
293 334
293 335
293 336
293 337
293 338
293 339
293 340
293 341
293 342
293 343
293 344
293 346
293 347
293 348
293 349
293 352
293 354
293 355
293 356
293 357
293 360
293 361
293 366
293 367
293 368
293 369
293 370
293 371
293 372
293 373
293 374
293 375
293 376
293 377
293 379
293 380
293 381
293 382
293 387
293 388
293 389
293 390
293 398
293 400
293 401
293 402
293 405
293 409
293 410
293 411
293 412
293 413
293 414
293 415
293 416
293 417
293 418
293 419
293 421
293 422
293 423
293 424
293 425
293 426
293 427
293 428
293 429
293 430
293 431
293 432
293 433
293 434
293 435
293 436
293 438
293 439
293 440
293 441
293 443
293 444
293 446
293 447
293 449
293 455
293 456
293 457
293 459
293 460
293 461
293 462
293 463
293 464
293 471
293 474
293 475
293 477
293 481
293 487
293 488
293 489
293 490
293 491
293 492
293 493
293 494
293 495
293 496
293 497
293 498
293 499
293 500
293 502
293 503
293 504
293 505
293 506
293 507
293 508
293 509
293 510
293 511
293 512
293 513
293 515
293 516
293 517
293 518
293 519
293 520
293 521
293 522
293 523
293 524
293 525
293 527
293 528
293 529
293 530
293 531
293 532
293 533
293 534
293 535
293 540
293 544
293 547
293 548
293 550
293 551
293 552
293 557
293 558
293 562
293 563
293 564
293 565
293 566
293 567
293 568
293 569
293 570
293 571
293 572
293 573
293 574
293 576
293 577
293 578
293 579
294 295
294 296
294 297
294 299
294 301
294 302
294 303
294 304
294 305
294 313
294 315
294 316
294 317
294 318
294 319
294 322
294 323
294 326
294 332
294 334
294 335
294 340
294 342
294 345
294 349
294 352
294 354
294 355
294 356
294 357
294 360
294 361
294 366
294 368
294 369
294 375
294 378
294 380
294 381
294 382
294 387
294 388
294 389
294 390
294 396
294 397
294 398
294 399
294 400
294 401
294 402
294 403
294 404
294 405
294 406
294 407
294 408
294 410
294 411
294 412
294 413
294 414
294 415
294 416
294 417
294 418
294 419
294 420
294 421
294 423
294 424
294 425
294 426
294 428
294 429
294 433
294 435
294 437
294 440
294 441
294 443
294 444
294 446
294 447
294 449
294 455
294 456
294 457
294 459
294 460
294 461
294 462
294 463
294 464
294 471
294 474
294 475
294 477
294 481
294 487
294 488
294 489
294 490
294 493
294 494
294 495
294 496
294 498
294 501
294 503
294 504
294 505
294 506
294 507
294 508
294 509
294 510
294 511
294 512
294 513
294 514
294 515
294 516
294 518
294 519
294 520
294 521
294 522
294 523
294 524
294 525
294 526
294 527
294 528
294 530
294 531
294 532
294 533
294 534
294 535
294 536
294 537
294 538
294 539
294 540
294 541
294 542
294 543
294 545
294 546
294 547
294 548
294 549
294 550
294 551
294 552
294 553
294 554
294 555
294 556
294 557
294 559
294 560
294 561
294 562
294 564
294 565
294 566
294 570
294 573
294 575
295 296
295 297
295 299
295 301
295 302
295 303
295 304
295 305
295 313
295 315
295 316
295 317
295 318
295 319
295 322
295 323
295 326
295 332
295 334
295 335
295 340
295 342
295 345
295 349
295 352
295 354
295 355
295 356
295 357
295 360
295 361
295 366
295 367
295 368
295 369
295 370
295 371
295 372
295 373
295 374
295 375
295 376
295 377
295 378
295 379
295 381
295 382
295 387
295 388
295 389
295 390
295 396
295 397
295 398
295 399
295 400
295 401
295 402
295 403
295 404
295 405
295 406
295 407
295 408
295 409
295 411
295 412
295 413
295 414
295 415
295 416
295 417
295 418
295 419
295 420
295 421
295 422
295 423
295 424
295 426
295 427
295 428
295 429
295 430
295 431
295 432
295 433
295 434
295 435
295 436
295 437
295 438
295 439
295 441
295 442
295 443
295 444
295 445
295 446
295 447
295 448
295 449
295 450
295 451
295 452
295 453
295 454
295 456
295 457
295 459
295 460
295 461
295 462
295 463
295 464
295 471
295 472
295 473
295 474
295 475
295 476
295 477
295 478
295 479
295 480
295 481
295 482
295 483
295 484
295 485
295 486
295 488
295 489
295 490
295 493
295 494
295 495
295 496
295 498
295 501
295 503
295 505
295 506
295 507
295 508
295 510
295 511
295 514
295 517
295 518
295 519
295 520
295 521
295 522
295 523
295 524
295 525
295 526
295 527
295 528
295 529
295 530
295 531
295 533
295 534
295 535
295 536
295 537
295 538
295 539
295 540
295 541
295 542
295 543
295 544
295 545
295 546
295 548
295 549
295 550
295 551
295 552
295 553
295 554
295 555
295 556
295 557
295 558
295 559
295 560
295 561
295 564
295 565
295 566
295 570
295 573
295 575
296 297
296 298
296 299
296 300
296 301
296 302
296 303
296 304
296 305
296 306
296 307
296 308
296 309
296 310
296 311
296 312
296 313
296 315
296 317
296 318
296 319
296 320
296 321
296 324
296 327
296 330
296 333
296 334
296 335
296 336
296 337
296 338
296 339
296 340
296 341
296 342
296 343
296 344
296 345
296 346
296 347
296 348
296 349
296 350
296 352
296 353
296 355
296 356
296 357
296 358
296 367
296 368
296 369
296 370
296 371
296 372
296 373
296 374
296 375
296 376
296 377
296 378
296 379
296 380
296 381
296 383
296 384
296 385
296 386
296 387
296 388
296 389
296 390
296 391
296 392
296 393
296 394
296 395
296 398
296 399
296 401
296 402
296 407
296 408
296 411
296 412
296 414
296 418
296 423
296 426
296 428
296 429
296 432
296 434
296 436
296 438
296 442
296 443
296 444
296 445
296 446
296 447
296 448
296 449
296 450
296 451
296 452
296 453
296 454
296 455
296 456
296 458
296 459
296 460
296 461
296 462
296 463
296 464
296 465
296 466
296 467
296 468
296 469
296 470
296 473
296 474
296 475
296 478
296 482
296 484
296 488
296 490
296 491
296 492
296 493
296 494
296 495
296 496
296 497
296 498
296 499
296 500
296 501
296 502
296 505
296 506
296 508
296 509
296 512
296 515
296 519
296 520
296 521
296 523
296 524
296 527
296 530
296 533
296 535
296 537
296 538
296 539
296 541
296 550
296 551
296 553
296 554
296 555
296 559
296 563
296 564
296 565
296 566
296 567
296 569
296 571
296 574
296 576
296 577
297 298
297 299
297 300
297 301
297 302
297 303
297 304
297 305
297 306
297 307
297 308
297 309
297 310
297 311
297 312
297 314
297 315
297 316
297 317
297 318
297 319
297 320
297 321
297 322
297 323
297 324
297 325
297 326
297 327
297 328
297 329
297 330
297 331
297 332
297 335
297 336
297 339
297 341
297 346
297 347
297 350
297 351
297 352
297 353
297 354
297 355
297 356
297 357
297 358
297 359
297 360
297 361
297 362
297 363
297 364
297 365
297 366
297 369
297 370
297 372
297 376
297 382
297 383
297 386
297 388
297 390
297 392
297 394
297 395
297 398
297 399
297 401
297 402
297 407
297 408
297 411
297 412
297 414
297 418
297 423
297 427
297 428
297 429
297 430
297 431
297 432
297 433
297 434
297 435
297 436
297 437
297 438
297 439
297 440
297 441
297 442
297 443
297 444
297 450
297 452
297 457
297 458
297 460
297 461
297 462
297 464
297 465
297 466
297 473
297 474
297 475
297 478
297 482
297 484
297 488
297 489
297 491
297 492
297 493
297 494
297 495
297 496
297 497
297 498
297 499
297 500
297 501
297 502
297 505
297 506
297 508
297 509
297 512
297 515
297 519
297 520
297 521
297 523
297 524
297 527
297 530
297 534
297 535
297 536
297 537
297 538
297 539
297 540
297 541
297 542
297 543
297 544
297 545
297 546
297 547
297 550
297 551
297 553
297 554
297 555
297 559
297 563
297 564
297 565
297 566
297 567
297 569
297 571
297 574
297 576
297 577
298 299
298 300
298 301
298 302
298 303
298 304
298 305
298 306
298 307
298 308
298 309
298 310
298 311
298 312
298 313
298 315
298 317
298 318
298 319
298 320
298 321
298 324
298 327
298 330
298 332
298 335
298 336
298 339
298 341
298 346
298 347
298 349
298 351
298 352
298 353
298 354
298 355
298 356
298 357
298 358
298 359
298 360
298 361
298 362
298 363
298 364
298 365
298 366
298 369
298 370
298 372
298 376
298 381
298 382
298 384
298 385
298 386
298 387
298 388
298 389
298 390
298 391
298 392
298 393
298 394
298 395
298 398
298 399
298 401
298 402
298 407
298 408
298 412
298 413
298 414
298 415
298 416
298 417
298 418
298 419
298 420
298 421
298 422
298 423
298 424
298 425
298 426
298 428
298 429
298 432
298 434
298 436
298 438
298 441
298 442
298 443
298 444
298 450
298 452
298 457
298 458
298 460
298 461
298 462
298 464
298 465
298 466
298 473
298 474
298 475
298 478
298 482
298 484
298 488
298 489
298 490
298 492
298 493
298 494
298 495
298 496
298 497
298 498
298 499
298 500
298 501
298 502
298 505
298 506
298 508
298 509
298 512
298 515
298 519
298 520
298 521
298 523
298 524
298 527
298 530
298 533
298 535
298 537
298 538
298 539
298 541
298 550
298 551
298 553
298 554
298 555
298 559
298 564
298 565
298 566
298 567
298 568
298 569
298 570
298 571
298 572
298 573
298 574
298 575
298 576
298 577
298 578
298 579
299 300
299 301
299 302
299 303
299 304
299 305
299 306
299 307
299 308
299 309
299 310
299 311
299 312
299 313
299 314
299 316
299 317
299 318
299 319
299 320
299 321
299 322
299 323
299 324
299 325
299 326
299 327
299 328
299 329
299 330
299 331
299 332
299 335
299 336
299 339
299 341
299 346
299 347
299 349
299 350
299 351
299 353
299 354
299 355
299 356
299 357
299 358
299 359
299 360
299 361
299 362
299 363
299 364
299 365
299 366
299 369
299 370
299 372
299 376
299 382
299 383
299 386
299 388
299 390
299 392
299 394
299 395
299 396
299 397
299 399
299 400
299 401
299 402
299 403
299 404
299 405
299 406
299 407
299 408
299 409
299 410
299 411
299 412
299 414
299 418
299 423
299 426
299 428
299 429
299 432
299 434
299 436
299 438
299 441
299 442
299 443
299 444
299 450
299 452
299 457
299 458
299 460
299 461
299 462
299 464
299 465
299 466
299 473
299 474
299 475
299 478
299 482
299 484
299 489
299 490
299 491
299 493
299 494
299 495
299 496
299 499
299 503
299 504
299 506
299 507
299 508
299 509
299 510
299 511
299 512
299 513
299 514
299 515
299 516
299 517
299 518
299 520
299 521
299 522
299 523
299 524
299 525
299 526
299 527
299 528
299 529
299 530
299 531
299 532
299 533
299 535
299 537
299 538
299 539
299 541
299 548
299 549
299 551
299 552
299 553
299 554
299 555
299 556
299 557
299 558
299 559
299 560
299 561
299 562
299 563
299 565
299 566
299 567
299 568
299 569
299 570
299 571
299 572
299 573
299 574
299 575
299 576
299 577
299 578
299 579
300 301
300 302
300 303
300 304
300 305
300 306
300 307
300 308
300 309
300 310
300 311
300 312
300 313
300 315
300 317
300 318
300 319
300 320
300 321
300 324
300 327
300 330
300 332
300 335
300 336
300 339
300 341
300 346
300 347
300 349
300 350
300 351
300 352
300 354
300 355
300 356
300 357
300 358
300 359
300 360
300 361
300 362
300 363
300 364
300 365
300 366
300 369
300 370
300 372
300 376
300 381
300 382
300 383
300 384
300 385
300 387
300 388
300 389
300 390
300 391
300 392
300 393
300 394
300 395
300 396
300 397
300 398
300 400
300 401
300 402
300 403
300 404
300 405
300 406
300 407
300 408
300 409
300 410
300 411
300 412
300 414
300 418
300 423
300 426
300 428
300 429
300 432
300 434
300 436
300 438
300 441
300 443
300 444
300 445
300 446
300 447
300 448
300 449
300 450
300 451
300 452
300 453
300 454
300 455
300 456
300 457
300 459
300 460
300 461
300 462
300 463
300 464
300 465
300 466
300 467
300 468
300 469
300 470
300 471
300 472
300 474
300 475
300 476
300 477
300 478
300 479
300 480
300 481
300 482
300 483
300 484
300 485
300 486
300 487
300 489
300 490
300 491
300 493
300 494
300 495
300 496
300 499
300 505
300 506
300 508
300 509
300 512
300 515
300 519
300 520
300 521
300 523
300 524
300 527
300 530
300 533
300 535
300 537
300 538
300 539
300 541
300 550
300 551
300 553
300 554
300 555
300 559
300 563
300 564
300 565
300 566
300 567
300 569
300 571
300 574
300 576
300 577
301 302
301 303
301 304
301 305
301 306
301 307
301 308
301 309
301 310
301 311
301 312
301 313
301 315
301 317
301 318
301 319
301 320
301 321
301 324
301 327
301 330
301 332
301 335
301 336
301 339
301 341
301 346
301 347
301 349
301 350
301 352
301 353
301 355
301 356
301 357
301 358
301 366
301 369
301 370
301 372
301 376
301 381
301 382
301 383
301 384
301 385
301 386
301 387
301 389
301 390
301 391
301 392
301 393
301 394
301 395
301 396
301 397
301 398
301 399
301 400
301 402
301 403
301 404
301 405
301 406
301 407
301 408
301 409
301 410
301 411
301 413
301 414
301 415
301 416
301 417
301 418
301 419
301 420
301 421
301 422
301 423
301 424
301 425
301 426
301 427
301 429
301 430
301 431
301 432
301 433
301 434
301 435
301 436
301 437
301 438
301 439
301 440
301 441
301 442
301 443
301 444
301 450
301 452
301 456
301 457
301 458
301 459
301 461
301 462
301 463
301 464
301 465
301 466
301 467
301 468
301 469
301 470
301 473
301 474
301 475
301 478
301 482
301 484
301 488
301 489
301 490
301 491
301 492
301 494
301 495
301 496
301 497
301 498
301 499
301 500
301 501
301 502
301 503
301 504
301 505
301 507
301 508
301 509
301 510
301 511
301 512
301 513
301 514
301 515
301 516
301 517
301 519
301 520
301 521
301 523
301 524
301 527
301 530
301 533
301 535
301 537
301 538
301 539
301 541
301 550
301 551
301 553
301 554
301 555
301 559
301 563
301 564
301 566
301 567
301 568
301 569
301 570
301 571
301 572
301 573
301 574
301 575
301 576
301 577
301 578
301 579
302 303
302 304
302 305
302 306
302 307
302 308
302 309
302 310
302 311
302 312
302 313
302 314
302 315
302 316
302 318
302 319
302 320
302 321
302 322
302 323
302 324
302 325
302 326
302 327
302 328
302 329
302 330
302 331
302 332
302 333
302 334
302 336
302 337
302 338
302 339
302 340
302 341
302 342
302 343
302 344
302 345
302 346
302 347
302 348
302 349
302 350
302 351
302 352
302 353
302 354
302 356
302 357
302 358
302 359
302 360
302 361
302 362
302 363
302 364
302 365
302 366
302 369
302 370
302 372
302 376
302 382
302 383
302 386
302 388
302 390
302 392
302 394
302 395
302 396
302 397
302 398
302 399
302 400
302 401
302 403
302 404
302 405
302 406
302 407
302 408
302 409
302 410
302 411
302 412
302 414
302 418
302 423
302 426
302 428
302 429
302 432
302 434
302 436
302 438
302 441
302 442
302 443
302 444
302 450
302 452
302 456
302 457
302 458
302 459
302 460
302 462
302 463
302 464
302 465
302 466
302 467
302 468
302 469
302 470
302 471
302 472
302 473
302 475
302 476
302 477
302 478
302 479
302 480
302 481
302 482
302 483
302 484
302 485
302 486
302 487
302 488
302 489
302 490
302 491
302 492
302 493
302 495
302 496
302 497
302 498
302 499
302 500
302 501
302 502
302 505
302 506
302 508
302 509
302 512
302 515
302 518
302 519
302 521
302 522
302 523
302 524
302 525
302 526
302 527
302 528
302 529
302 530
302 531
302 532
302 533
302 535
302 537
302 538
302 539
302 541
302 548
302 549
302 550
302 552
302 553
302 554
302 555
302 556
302 557
302 558
302 559
302 560
302 561
302 562
302 563
302 564
302 565
302 566
302 567
302 569
302 571
302 574
302 576
302 577
303 304
303 305
303 306
303 307
303 308
303 309
303 310
303 311
303 312
303 313
303 315
303 317
303 318
303 319
303 320
303 321
303 324
303 327
303 330
303 332
303 335
303 336
303 339
303 341
303 346
303 347
303 349
303 350
303 351
303 352
303 353
303 354
303 355
303 357
303 358
303 359
303 360
303 361
303 362
303 363
303 364
303 365
303 366
303 367
303 368
303 370
303 371
303 372
303 373
303 374
303 375
303 376
303 377
303 378
303 379
303 380
303 382
303 383
303 386
303 388
303 390
303 392
303 394
303 395
303 398
303 399
303 401
303 402
303 407
303 408
303 411
303 412
303 414
303 418
303 423
303 426
303 427
303 428
303 430
303 431
303 432
303 433
303 434
303 435
303 436
303 437
303 438
303 439
303 440
303 441
303 442
303 444
303 445
303 446
303 447
303 448
303 449
303 450
303 451
303 452
303 453
303 454
303 455
303 456
303 457
303 458
303 459
303 460
303 461
303 463
303 464
303 465
303 466
303 467
303 468
303 469
303 470
303 473
303 474
303 475
303 478
303 482
303 484
303 488
303 489
303 490
303 491
303 492
303 493
303 494
303 496
303 497
303 498
303 499
303 500
303 501
303 502
303 505
303 506
303 508
303 509
303 512
303 515
303 519
303 520
303 521
303 523
303 524
303 527
303 530
303 533
303 535
303 537
303 538
303 539
303 541
303 550
303 551
303 553
303 554
303 555
303 559
303 563
303 564
303 565
303 566
303 567
303 569
303 571
303 574
303 576
303 577
304 305
304 306
304 307
304 308
304 309
304 310
304 311
304 312
304 313
304 314
304 315
304 316
304 317
304 319
304 320
304 321
304 322
304 323
304 324
304 325
304 326
304 327
304 328
304 329
304 330
304 331
304 332
304 335
304 336
304 339
304 341
304 346
304 347
304 349
304 350
304 352
304 353
304 355
304 356
304 357
304 358
304 366
304 369
304 370
304 372
304 376
304 382
304 383
304 386
304 388
304 390
304 392
304 394
304 395
304 398
304 399
304 401
304 402
304 407
304 408
304 411
304 412
304 414
304 418
304 423
304 426
304 428
304 429
304 432
304 434
304 436
304 438
304 441
304 442
304 443
304 445
304 446
304 447
304 448
304 449
304 450
304 451
304 452
304 453
304 454
304 455
304 456
304 457
304 458
304 459
304 460
304 461
304 462
304 463
304 465
304 466
304 467
304 468
304 469
304 470
304 473
304 474
304 475
304 478
304 482
304 484
304 489
304 490
304 491
304 493
304 494
304 495
304 496
304 499
304 505
304 506
304 508
304 509
304 512
304 515
304 518
304 519
304 520
304 522
304 523
304 524
304 525
304 526
304 527
304 528
304 529
304 530
304 531
304 532
304 533
304 535
304 537
304 538
304 539
304 541
304 550
304 551
304 553
304 554
304 555
304 559
304 563
304 564
304 565
304 567
304 568
304 569
304 570
304 571
304 572
304 573
304 574
304 575
304 576
304 577
304 578
304 579
305 306
305 307
305 308
305 309
305 310
305 311
305 312
305 313
305 314
305 315
305 316
305 317
305 318
305 320
305 321
305 322
305 323
305 324
305 325
305 326
305 327
305 328
305 329
305 330
305 331
305 332
305 335
305 336
305 339
305 341
305 346
305 347
305 349
305 350
305 351
305 352
305 353
305 354
305 355
305 356
305 358
305 359
305 360
305 361
305 362
305 363
305 364
305 365
305 366
305 369
305 370
305 372
305 376
305 381
305 382
305 383
305 384
305 385
305 386
305 387
305 388
305 389
305 391
305 392
305 393
305 394
305 395
305 398
305 399
305 401
305 402
305 407
305 408
305 411
305 412
305 414
305 418
305 423
305 426
305 428
305 429
305 432
305 434
305 436
305 438
305 441
305 442
305 443
305 444
305 450
305 452
305 457
305 458
305 460
305 461
305 462
305 464
305 465
305 466
305 471
305 472
305 473
305 474
305 476
305 477
305 478
305 479
305 480
305 481
305 482
305 483
305 484
305 485
305 486
305 487
305 488
305 489
305 490
305 491
305 492
305 493
305 494
305 495
305 497
305 498
305 499
305 500
305 501
305 502
305 503
305 504
305 505
305 506
305 507
305 509
305 510
305 511
305 512
305 513
305 514
305 515
305 516
305 517
305 519
305 520
305 521
305 523
305 524
305 527
305 530
305 533
305 534
305 536
305 537
305 538
305 539
305 540
305 541
305 542
305 543
305 544
305 545
305 546
305 547
305 550
305 551
305 553
305 554
305 555
305 559
305 563
305 564
305 565
305 566
305 567
305 569
305 571
305 574
305 576
305 577
306 307
306 308
306 309
306 310
306 311
306 312
306 313
306 314
306 315
306 316
306 317
306 318
306 319
306 321
306 322
306 323
306 324
306 325
306 326
306 327
306 328
306 329
306 330
306 331
306 332
306 333
306 334
306 335
306 337
306 338
306 339
306 340
306 341
306 342
306 343
306 344
306 345
306 346
306 347
306 348
306 349
306 350
306 351
306 352
306 353
306 354
306 355
306 356
306 357
306 359
306 360
306 361
306 362
306 363
306 364
306 365
306 366
306 367
306 368
306 369
306 371
306 372
306 373
306 374
306 375
306 376
306 377
306 378
306 379
306 380
306 382
306 383
306 386
306 388
306 390
306 392
306 394
306 395
306 398
306 399
306 401
306 402
306 407
306 408
306 411
306 412
306 413
306 415
306 416
306 417
306 418
306 419
306 420
306 421
306 422
306 423
306 424
306 425
306 426
306 428
306 429
306 432
306 434
306 436
306 438
306 441
306 442
306 443
306 444
306 450
306 452
306 457
306 458
306 460
306 461
306 462
306 464
306 465
306 466
306 473
306 474
306 475
306 478
306 482
306 484
306 489
306 490
306 491
306 493
306 494
306 495
306 496
306 499
306 505
306 506
306 508
306 509
306 512
306 515
306 519
306 520
306 521
306 523
306 524
306 527
306 530
306 533
306 535
306 537
306 538
306 539
306 541
306 548
306 549
306 550
306 551
306 552
306 554
306 555
306 556
306 557
306 558
306 559
306 560
306 561
306 562
306 563
306 564
306 565
306 566
306 568
306 569
306 570
306 571
306 572
306 573
306 574
306 575
306 576
306 577
306 578
306 579
307 308
307 309
307 310
307 311
307 312
307 313
307 314
307 315
307 316
307 317
307 318
307 319
307 320
307 322
307 323
307 324
307 325
307 326
307 327
307 328
307 329
307 330
307 331
307 332
307 333
307 334
307 335
307 336
307 337
307 338
307 340
307 341
307 342
307 343
307 344
307 345
307 346
307 347
307 348
307 349
307 350
307 352
307 353
307 355
307 356
307 357
307 358
307 366
307 369
307 370
307 372
307 376
307 382
307 383
307 386
307 388
307 390
307 392
307 394
307 395
307 398
307 399
307 401
307 402
307 407
307 408
307 411
307 412
307 414
307 418
307 423
307 426
307 427
307 428
307 429
307 430
307 431
307 433
307 434
307 435
307 436
307 437
307 438
307 439
307 440
307 441
307 442
307 443
307 444
307 450
307 452
307 456
307 457
307 458
307 459
307 460
307 461
307 462
307 463
307 464
307 466
307 467
307 468
307 469
307 470
307 473
307 474
307 475
307 478
307 482
307 484
307 489
307 490
307 491
307 493
307 494
307 495
307 496
307 499
307 503
307 504
307 505
307 506
307 507
307 508
307 510
307 511
307 512
307 513
307 514
307 515
307 516
307 517
307 519
307 520
307 521
307 523
307 524
307 527
307 530
307 533
307 534
307 535
307 536
307 538
307 539
307 540
307 541
307 542
307 543
307 544
307 545
307 546
307 547
307 548
307 549
307 550
307 551
307 552
307 553
307 555
307 556
307 557
307 558
307 559
307 560
307 561
307 562
307 563
307 564
307 565
307 566
307 567
307 569
307 571
307 574
307 576
307 577
308 309
308 310
308 311
308 312
308 313
308 315
308 317
308 318
308 319
308 320
308 321
308 324
308 327
308 330
308 332
308 333
308 334
308 335
308 336
308 337
308 338
308 339
308 340
308 342
308 343
308 344
308 345
308 346
308 347
308 348
308 349
308 350
308 352
308 353
308 355
308 356
308 357
308 358
308 366
308 369
308 370
308 372
308 376
308 381
308 382
308 383
308 384
308 385
308 386
308 387
308 388
308 389
308 390
308 391
308 393
308 394
308 395
308 398
308 399
308 401
308 402
308 407
308 408
308 411
308 412
308 414
308 418
308 423
308 426
308 427
308 428
308 429
308 430
308 431
308 432
308 433
308 435
308 436
308 437
308 438
308 439
308 440
308 441
308 442
308 443
308 444
308 450
308 452
308 456
308 457
308 458
308 459
308 460
308 461
308 462
308 463
308 464
308 465
308 467
308 468
308 469
308 470
308 473
308 474
308 475
308 478
308 482
308 484
308 489
308 490
308 491
308 493
308 494
308 495
308 496
308 499
308 505
308 506
308 508
308 509
308 512
308 515
308 518
308 519
308 520
308 521
308 522
308 524
308 525
308 526
308 527
308 528
308 529
308 530
308 531
308 532
308 533
308 534
308 535
308 536
308 537
308 539
308 540
308 541
308 542
308 543
308 544
308 545
308 546
308 547
308 548
308 549
308 550
308 551
308 552
308 553
308 554
308 556
308 557
308 558
308 559
308 560
308 561
308 562
308 563
308 564
308 565
308 566
308 567
308 568
308 570
308 571
308 572
308 573
308 574
308 575
308 576
308 577
308 578
308 579
309 310
309 311
309 312
309 313
309 314
309 315
309 316
309 317
309 318
309 319
309 320
309 321
309 322
309 323
309 325
309 326
309 327
309 328
309 329
309 330
309 331
309 332
309 335
309 336
309 339
309 341
309 346
309 347
309 349
309 350
309 352
309 353
309 355
309 356
309 357
309 358
309 366
309 367
309 368
309 369
309 370
309 371
309 373
309 374
309 375
309 376
309 377
309 378
309 379
309 380
309 382
309 383
309 386
309 388
309 390
309 392
309 394
309 395
309 398
309 399
309 401
309 402
309 407
309 408
309 411
309 412
309 414
309 418
309 423
309 426
309 427
309 428
309 429
309 430
309 431
309 432
309 433
309 434
309 435
309 437
309 438
309 439
309 440
309 441
309 442
309 443
309 444
309 450
309 452
309 457
309 458
309 460
309 461
309 462
309 464
309 465
309 466
309 471
309 472
309 473
309 474
309 475
309 476
309 477
309 479
309 480
309 481
309 482
309 483
309 484
309 485
309 486
309 487
309 488
309 489
309 490
309 491
309 492
309 493
309 494
309 495
309 496
309 497
309 498
309 500
309 501
309 502
309 505
309 506
309 508
309 509
309 512
309 515
309 518
309 519
309 520
309 521
309 522
309 523
309 525
309 526
309 527
309 528
309 529
309 530
309 531
309 532
309 533
309 534
309 535
309 536
309 537
309 538
309 540
309 541
309 542
309 543
309 544
309 545
309 546
309 547
309 550
309 551
309 553
309 554
309 555
309 559
309 563
309 564
309 565
309 566
309 567
309 568
309 569
309 570
309 572
309 573
309 574
309 575
309 576
309 577
309 578
309 579
310 311
310 312
310 313
310 314
310 315
310 316
310 317
310 318
310 319
310 320
310 321
310 322
310 323
310 324
310 325
310 326
310 328
310 329
310 330
310 331
310 332
310 335
310 336
310 339
310 341
310 346
310 347
310 349
310 350
310 352
310 353
310 355
310 356
310 357
310 358
310 366
310 367
310 368
310 369
310 370
310 371
310 372
310 373
310 374
310 375
310 377
310 378
310 379
310 380
310 381
310 382
310 383
310 384
310 385
310 386
310 387
310 388
310 389
310 390
310 391
310 392
310 393
310 395
310 396
310 397
310 398
310 399
310 400
310 401
310 402
310 403
310 404
310 405
310 406
310 408
310 409
310 410
310 411
310 412
310 413
310 414
310 415
310 416
310 417
310 419
310 420
310 421
310 422
310 423
310 424
310 425
310 426
310 428
310 429
310 432
310 434
310 436
310 438
310 441
310 442
310 443
310 444
310 445
310 446
310 447
310 448
310 449
310 451
310 452
310 453
310 454
310 455
310 457
310 458
310 460
310 461
310 462
310 464
310 465
310 466
310 471
310 472
310 473
310 474
310 475
310 476
310 477
310 478
310 479
310 480
310 481
310 483
310 484
310 485
310 486
310 487
310 489
310 490
310 491
310 493
310 494
310 495
310 496
310 499
310 503
310 504
310 505
310 506
310 507
310 508
310 509
310 510
310 511
310 513
310 514
310 515
310 516
310 517
310 519
310 520
310 521
310 523
310 524
310 527
310 530
310 533
310 534
310 535
310 536
310 537
310 538
310 539
310 540
310 542
310 543
310 544
310 545
310 546
310 547
310 550
310 551
310 553
310 554
310 555
310 559
310 563
310 564
310 565
310 566
310 567
310 568
310 569
310 570
310 571
310 572
310 573
310 575
310 576
310 577
310 578
310 579
311 312
311 313
311 315
311 317
311 318
311 319
311 320
311 321
311 324
311 327
311 330
311 332
311 333
311 334
311 335
311 336
311 337
311 338
311 339
311 340
311 341
311 342
311 343
311 344
311 345
311 347
311 348
311 349
311 350
311 352
311 353
311 355
311 356
311 357
311 358
311 366
311 369
311 370
311 372
311 376
311 382
311 383
311 386
311 388
311 390
311 392
311 394
311 395
311 396
311 397
311 398
311 399
311 400
311 401
311 402
311 403
311 404
311 405
311 406
311 407
311 409
311 410
311 411
311 412
311 414
311 418
311 423
311 426
311 427
311 428
311 429
311 430
311 431
311 432
311 433
311 434
311 435
311 436
311 437
311 439
311 440
311 441
311 442
311 443
311 444
311 450
311 452
311 457
311 458
311 460
311 461
311 462
311 464
311 465
311 466
311 471
311 472
311 473
311 474
311 475
311 476
311 477
311 478
311 479
311 480
311 481
311 482
311 483
311 485
311 486
311 487
311 489
311 490
311 491
311 493
311 494
311 495
311 496
311 499
311 503
311 504
311 505
311 506
311 507
311 508
311 509
311 510
311 511
311 512
311 513
311 514
311 516
311 517
311 518
311 519
311 520
311 521
311 522
311 523
311 524
311 525
311 526
311 528
311 529
311 530
311 531
311 532
311 533
311 535
311 537
311 538
311 539
311 541
311 550
311 551
311 553
311 554
311 555
311 559
311 563
311 564
311 565
311 566
311 567
311 568
311 569
311 570
311 571
311 572
311 573
311 574
311 575
311 577
311 578
311 579
312 313
312 314
312 315
312 316
312 317
312 318
312 319
312 320
312 321
312 322
312 323
312 324
312 325
312 326
312 327
312 328
312 329
312 331
312 332
312 333
312 334
312 335
312 336
312 337
312 338
312 339
312 340
312 341
312 342
312 343
312 344
312 345
312 346
312 348
312 349
312 350
312 352
312 353
312 355
312 356
312 357
312 358
312 366
312 369
312 370
312 372
312 376
312 381
312 382
312 383
312 384
312 385
312 386
312 387
312 388
312 389
312 390
312 391
312 392
312 393
312 394
312 398
312 399
312 401
312 402
312 407
312 408
312 411
312 412
312 413
312 414
312 415
312 416
312 417
312 418
312 419
312 420
312 421
312 422
312 424
312 425
312 426
312 428
312 429
312 432
312 434
312 436
312 438
312 441
312 442
312 443
312 444
312 445
312 446
312 447
312 448
312 449
312 450
312 451
312 453
312 454
312 455
312 457
312 458
312 460
312 461
312 462
312 464
312 465
312 466
312 473
312 474
312 475
312 478
312 482
312 484
312 489
312 490
312 491
312 493
312 494
312 495
312 496
312 499
312 505
312 506
312 508
312 509
312 512
312 515
312 518
312 519
312 520
312 521
312 522
312 523
312 524
312 525
312 526
312 527
312 528
312 529
312 531
312 532
312 533
312 535
312 537
312 538
312 539
312 541
312 548
312 549
312 550
312 551
312 552
312 553
312 554
312 555
312 556
312 557
312 558
312 560
312 561
312 562
312 563
312 564
312 565
312 566
312 567
312 568
312 569
312 570
312 571
312 572
312 573
312 574
312 575
312 576
312 578
312 579
313 314
313 315
313 316
313 317
313 318
313 319
313 320
313 321
313 322
313 323
313 324
313 325
313 326
313 327
313 328
313 329
313 330
313 331
313 334
313 335
313 336
313 339
313 340
313 342
313 343
313 344
313 347
313 348
313 350
313 351
313 352
313 353
313 354
313 355
313 356
313 357
313 358
313 359
313 360
313 361
313 362
313 363
313 364
313 365
313 367
313 368
313 370
313 372
313 373
313 375
313 376
313 377
313 379
313 385
313 387
313 390
313 393
313 394
313 395
313 397
313 398
313 400
313 402
313 405
313 406
313 407
313 414
313 415
313 416
313 417
313 418
313 419
313 421
313 423
313 424
313 427
313 428
313 429
313 430
313 431
313 432
313 433
313 434
313 435
313 436
313 437
313 438
313 439
313 440
313 444
313 446
313 447
313 449
313 450
313 451
313 452
313 454
313 459
313 461
313 464
313 465
313 468
313 469
313 470
313 474
313 475
313 477
313 478
313 479
313 481
313 482
313 483
313 486
313 488
313 489
313 491
313 492
313 493
313 494
313 495
313 496
313 497
313 498
313 499
313 500
313 501
313 502
313 505
313 508
313 509
313 510
313 511
313 512
313 513
313 516
313 519
313 520
313 521
313 524
313 525
313 528
313 530
313 534
313 535
313 536
313 537
313 538
313 539
313 540
313 541
313 542
313 543
313 544
313 545
313 546
313 547
313 549
313 550
313 551
313 553
313 554
313 557
313 559
313 561
313 564
313 566
313 567
313 570
313 571
313 573
313 574
313 577
313 579
314 315
314 316
314 317
314 318
314 319
314 320
314 321
314 322
314 323
314 324
314 325
314 326
314 327
314 328
314 329
314 330
314 331
314 334
314 335
314 336
314 339
314 340
314 342
314 343
314 344
314 347
314 348
314 349
314 352
314 354
314 355
314 357
314 358
314 360
314 361
314 362
314 364
314 366
314 368
314 369
314 370
314 371
314 372
314 373
314 374
314 375
314 376
314 377
314 378
314 379
314 380
314 381
314 382
314 383
314 384
314 386
314 387
314 388
314 389
314 390
314 391
314 392
314 393
314 394
314 395
314 396
314 398
314 399
314 400
314 401
314 402
314 403
314 404
314 405
314 406
314 407
314 408
314 409
314 410
314 414
314 415
314 416
314 417
314 418
314 419
314 421
314 423
314 424
314 426
314 428
314 429
314 430
314 431
314 432
314 433
314 434
314 435
314 436
314 437
314 438
314 439
314 440
314 444
314 446
314 447
314 449
314 450
314 451
314 452
314 454
314 459
314 461
314 464
314 465
314 468
314 469
314 470
314 474
314 475
314 477
314 478
314 479
314 481
314 482
314 483
314 486
314 488
314 489
314 490
314 491
314 493
314 494
314 495
314 496
314 497
314 498
314 499
314 500
314 501
314 502
314 505
314 508
314 509
314 510
314 511
314 512
314 513
314 516
314 519
314 520
314 521
314 524
314 525
314 528
314 530
314 533
314 534
314 535
314 537
314 539
314 540
314 541
314 542
314 543
314 546
314 548
314 550
314 551
314 552
314 553
314 554
314 555
314 556
314 557
314 558
314 559
314 560
314 561
314 562
314 564
314 566
314 567
314 570
314 571
314 573
314 574
314 577
314 579
315 316
315 317
315 318
315 319
315 320
315 321
315 322
315 323
315 324
315 325
315 326
315 327
315 328
315 329
315 330
315 331
315 334
315 335
315 336
315 339
315 340
315 342
315 343
315 344
315 347
315 348
315 349
315 350
315 351
315 353
315 354
315 355
315 356
315 357
315 358
315 359
315 360
315 361
315 362
315 363
315 364
315 365
315 367
315 368
315 370
315 372
315 373
315 375
315 376
315 377
315 379
315 385
315 387
315 390
315 393
315 394
315 395
315 396
315 397
315 399
315 400
315 401
315 402
315 403
315 404
315 405
315 406
315 407
315 408
315 409
315 410
315 414
315 415
315 416
315 417
315 418
315 419
315 421
315 423
315 424
315 426
315 427
315 432
315 433
315 435
315 436
315 444
315 446
315 447
315 449
315 450
315 451
315 452
315 454
315 459
315 461
315 464
315 465
315 468
315 469
315 470
315 474
315 475
315 477
315 478
315 479
315 481
315 482
315 483
315 486
315 490
315 492
315 494
315 496
315 498
315 499
315 502
315 503
315 504
315 506
315 507
315 508
315 509
315 510
315 511
315 512
315 513
315 514
315 515
315 516
315 517
315 518
315 520
315 521
315 522
315 523
315 524
315 525
315 526
315 527
315 528
315 529
315 530
315 531
315 532
315 533
315 534
315 535
315 537
315 539
315 540
315 541
315 542
315 543
315 546
315 548
315 549
315 551
315 552
315 553
315 554
315 555
315 556
315 557
315 558
315 559
315 560
315 561
315 562
315 563
315 565
315 566
315 567
315 568
315 569
315 570
315 571
315 572
315 573
315 574
315 575
315 576
315 577
315 578
315 579
316 317
316 318
316 319
316 320
316 321
316 322
316 323
316 324
316 325
316 326
316 327
316 328
316 329
316 330
316 331
316 332
316 333
316 335
316 336
316 337
316 338
316 339
316 340
316 341
316 342
316 343
316 344
316 345
316 346
316 347
316 348
316 349
316 350
316 351
316 352
316 353
316 355
316 356
316 357
316 358
316 359
316 360
316 361
316 362
316 363
316 364
316 365
316 366
316 367
316 369
316 370
316 371
316 372
316 373
316 374
316 375
316 376
316 377
316 378
316 379
316 380
316 381
316 382
316 383
316 384
316 385
316 386
316 388
316 389
316 390
316 391
316 392
316 393
316 394
316 395
316 396
316 397
316 398
316 399
316 401
316 402
316 403
316 404
316 405
316 406
316 407
316 408
316 409
316 410
316 414
316 415
316 416
316 417
316 418
316 419
316 421
316 423
316 424
316 426
316 427
316 432
316 433
316 435
316 436
316 444
316 446
316 447
316 449
316 450
316 451
316 452
316 454
316 456
316 457
316 458
316 460
316 461
316 462
316 463
316 464
316 465
316 466
316 467
316 468
316 469
316 470
316 474
316 475
316 477
316 478
316 479
316 481
316 482
316 483
316 486
316 490
316 492
316 494
316 496
316 498
316 499
316 502
316 505
316 508
316 509
316 510
316 511
316 512
316 513
316 516
316 519
316 520
316 521
316 524
316 525
316 528
316 530
316 533
316 535
316 536
316 537
316 538
316 539
316 540
316 541
316 542
316 543
316 544
316 545
316 546
316 547
316 549
316 550
316 551
316 553
316 554
316 557
316 559
316 561
316 564
316 566
316 567
316 570
316 571
316 573
316 574
316 577
316 579
317 318
317 319
317 320
317 321
317 322
317 323
317 324
317 325
317 326
317 327
317 328
317 329
317 330
317 331
317 332
317 333
317 334
317 336
317 337
317 338
317 339
317 340
317 341
317 342
317 343
317 344
317 345
317 346
317 347
317 348
317 349
317 350
317 351
317 352
317 353
317 354
317 356
317 357
317 358
317 359
317 360
317 361
317 362
317 363
317 364
317 365
317 367
317 368
317 370
317 372
317 373
317 375
317 376
317 377
317 379
317 385
317 387
317 390
317 393
317 394
317 395
317 396
317 397
317 398
317 399
317 400
317 401
317 403
317 404
317 405
317 406
317 407
317 408
317 409
317 410
317 414
317 415
317 416
317 417
317 418
317 419
317 421
317 423
317 424
317 426
317 427
317 432
317 433
317 435
317 436
317 444
317 446
317 447
317 449
317 450
317 451
317 452
317 454
317 456
317 457
317 458
317 459
317 460
317 462
317 463
317 464
317 465
317 466
317 467
317 468
317 469
317 470
317 471
317 472
317 473
317 475
317 476
317 477
317 478
317 479
317 480
317 481
317 482
317 483
317 484
317 485
317 486
317 487
317 488
317 489
317 490
317 491
317 492
317 493
317 495
317 496
317 497
317 498
317 499
317 500
317 501
317 502
317 505
317 508
317 509
317 510
317 511
317 512
317 513
317 516
317 518
317 519
317 521
317 522
317 523
317 524
317 525
317 526
317 527
317 528
317 529
317 530
317 531
317 532
317 533
317 534
317 535
317 537
317 539
317 540
317 541
317 542
317 543
317 546
317 548
317 549
317 550
317 552
317 553
317 554
317 555
317 556
317 557
317 558
317 559
317 560
317 561
317 562
317 564
317 566
317 567
317 570
317 571
317 573
317 574
317 577
317 579
318 319
318 320
318 321
318 322
318 323
318 324
318 325
318 326
318 327
318 328
318 329
318 330
318 331
318 334
318 335
318 336
318 339
318 340
318 342
318 343
318 344
318 347
318 348
318 349
318 352
318 354
318 355
318 357
318 358
318 360
318 361
318 362
318 364
318 367
318 368
318 370
318 372
318 373
318 375
318 376
318 377
318 379
318 385
318 387
318 390
318 393
318 394
318 395
318 397
318 398
318 400
318 402
318 405
318 406
318 407
318 414
318 415
318 416
318 417
318 418
318 419
318 421
318 423
318 424
318 426
318 427
318 432
318 433
318 435
318 436
318 441
318 442
318 443
318 445
318 446
318 447
318 448
318 449
318 450
318 451
318 452
318 453
318 454
318 455
318 456
318 457
318 458
318 459
318 460
318 461
318 462
318 463
318 465
318 466
318 467
318 468
318 469
318 470
318 474
318 475
318 477
318 478
318 479
318 481
318 482
318 483
318 486
318 490
318 492
318 494
318 496
318 498
318 499
318 502
318 505
318 508
318 509
318 510
318 511
318 512
318 513
318 516
318 518
318 519
318 520
318 522
318 523
318 524
318 525
318 526
318 527
318 528
318 529
318 530
318 531
318 532
318 533
318 534
318 535
318 537
318 539
318 540
318 541
318 542
318 543
318 546
318 549
318 550
318 551
318 553
318 554
318 557
318 559
318 561
318 563
318 564
318 565
318 567
318 568
318 569
318 570
318 571
318 572
318 573
318 574
318 575
318 576
318 577
318 578
318 579
319 320
319 321
319 322
319 323
319 324
319 325
319 326
319 327
319 328
319 329
319 330
319 331
319 334
319 335
319 336
319 339
319 340
319 342
319 343
319 344
319 347
319 348
319 349
319 350
319 351
319 352
319 353
319 354
319 355
319 356
319 358
319 359
319 360
319 361
319 362
319 363
319 364
319 365
319 367
319 368
319 370
319 372
319 373
319 375
319 376
319 377
319 379
319 381
319 382
319 383
319 384
319 385
319 386
319 387
319 388
319 389
319 391
319 392
319 393
319 394
319 395
319 397
319 398
319 400
319 402
319 405
319 406
319 407
319 414
319 415
319 416
319 417
319 418
319 419
319 421
319 423
319 424
319 426
319 427
319 432
319 433
319 435
319 436
319 444
319 446
319 447
319 449
319 450
319 451
319 452
319 454
319 459
319 461
319 464
319 465
319 468
319 469
319 470
319 471
319 472
319 473
319 474
319 476
319 477
319 478
319 479
319 480
319 481
319 482
319 483
319 484
319 485
319 486
319 487
319 488
319 489
319 490
319 491
319 492
319 493
319 494
319 495
319 497
319 498
319 499
319 500
319 501
319 502
319 503
319 504
319 505
319 506
319 507
319 509
319 510
319 511
319 512
319 513
319 514
319 515
319 516
319 517
319 519
319 520
319 521
319 524
319 525
319 528
319 530
319 533
319 534
319 536
319 537
319 538
319 539
319 540
319 541
319 542
319 543
319 544
319 545
319 546
319 547
319 549
319 550
319 551
319 553
319 554
319 557
319 559
319 561
319 564
319 566
319 567
319 570
319 571
319 573
319 574
319 577
319 579
320 321
320 322
320 323
320 324
320 325
320 326
320 327
320 328
320 329
320 330
320 331
320 332
320 333
320 334
320 335
320 337
320 338
320 339
320 340
320 341
320 342
320 343
320 344
320 345
320 346
320 347
320 348
320 349
320 350
320 351
320 352
320 353
320 354
320 355
320 356
320 357
320 359
320 360
320 361
320 362
320 363
320 364
320 365
320 366
320 367
320 368
320 369
320 371
320 372
320 373
320 374
320 375
320 376
320 377
320 378
320 379
320 380
320 385
320 387
320 390
320 393
320 394
320 395
320 397
320 398
320 400
320 402
320 405
320 406
320 407
320 411
320 412
320 413
320 415
320 416
320 417
320 418
320 419
320 420
320 421
320 422
320 423
320 424
320 425
320 426
320 427
320 432
320 433
320 435
320 436
320 444
320 446
320 447
320 449
320 450
320 451
320 452
320 454
320 459
320 461
320 464
320 465
320 468
320 469
320 470
320 474
320 475
320 477
320 478
320 479
320 481
320 482
320 483
320 486
320 490
320 492
320 494
320 496
320 498
320 499
320 502
320 505
320 508
320 509
320 510
320 511
320 512
320 513
320 516
320 519
320 520
320 521
320 524
320 525
320 528
320 530
320 533
320 534
320 535
320 537
320 539
320 540
320 541
320 542
320 543
320 546
320 548
320 549
320 550
320 551
320 552
320 554
320 555
320 556
320 557
320 558
320 559
320 560
320 561
320 562
320 563
320 564
320 565
320 566
320 568
320 569
320 570
320 571
320 572
320 573
320 574
320 575
320 576
320 577
320 578
320 579
321 322
321 323
321 324
321 325
321 326
321 327
321 328
321 329
321 330
321 331
321 332
321 333
321 334
321 335
321 336
321 337
321 338
321 340
321 341
321 342
321 343
321 344
321 345
321 346
321 347
321 348
321 349
321 352
321 354
321 355
321 357
321 358
321 360
321 361
321 362
321 364
321 367
321 368
321 370
321 372
321 373
321 375
321 376
321 377
321 379
321 385
321 387
321 390
321 393
321 394
321 395
321 397
321 398
321 400
321 402
321 405
321 406
321 407
321 414
321 415
321 416
321 417
321 418
321 419
321 421
321 423
321 424
321 426
321 427
321 428
321 429
321 430
321 431
321 433
321 434
321 435
321 436
321 437
321 438
321 439
321 440
321 444
321 446
321 447
321 449
321 450
321 451
321 452
321 454
321 456
321 457
321 458
321 459
321 460
321 461
321 462
321 463
321 464
321 466
321 467
321 468
321 469
321 470
321 474
321 475
321 477
321 478
321 479
321 481
321 482
321 483
321 486
321 490
321 492
321 494
321 496
321 498
321 499
321 502
321 503
321 504
321 505
321 506
321 507
321 508
321 510
321 511
321 512
321 513
321 514
321 515
321 516
321 517
321 519
321 520
321 521
321 524
321 525
321 528
321 530
321 533
321 534
321 535
321 536
321 538
321 539
321 540
321 541
321 542
321 543
321 544
321 545
321 546
321 547
321 548
321 549
321 550
321 551
321 552
321 553
321 555
321 556
321 557
321 558
321 559
321 560
321 561
321 562
321 564
321 566
321 567
321 570
321 571
321 573
321 574
321 577
321 579
322 323
322 324
322 325
322 326
322 327
322 328
322 329
322 330
322 331
322 332
322 333
322 334
322 335
322 336
322 337
322 338
322 339
322 341
322 342
322 343
322 344
322 345
322 346
322 347
322 348
322 349
322 350
322 351
322 352
322 353
322 354
322 355
322 356
322 357
322 358
322 359
322 361
322 362
322 363
322 364
322 365
322 367
322 368
322 370
322 372
322 373
322 375
322 376
322 377
322 379
322 385
322 387
322 390
322 393
322 394
322 395
322 397
322 398
322 400
322 402
322 405
322 406
322 407
322 411
322 412
322 413
322 414
322 416
322 417
322 418
322 419
322 420
322 421
322 422
322 423
322 424
322 425
322 426
322 427
322 428
322 429
322 430
322 431
322 432
322 434
322 435
322 436
322 437
322 438
322 439
322 440
322 441
322 442
322 443
322 444
322 445
322 447
322 448
322 449
322 450
322 451
322 452
322 453
322 454
322 455
322 459
322 461
322 464
322 465
322 468
322 469
322 470
322 474
322 475
322 477
322 478
322 479
322 481
322 482
322 483
322 486
322 488
322 489
322 490
322 491
322 492
322 493
322 494
322 495
322 496
322 497
322 499
322 500
322 501
322 502
322 503
322 504
322 505
322 506
322 507
322 508
322 509
322 511
322 512
322 513
322 514
322 515
322 516
322 517
322 519
322 520
322 521
322 524
322 525
322 528
322 530
322 533
322 534
322 535
322 537
322 539
322 540
322 541
322 542
322 543
322 546
322 549
322 550
322 551
322 553
322 554
322 557
322 559
322 561
322 564
322 566
322 567
322 570
322 571
322 573
322 574
322 577
322 579
323 324
323 325
323 326
323 327
323 328
323 329
323 330
323 331
323 332
323 333
323 334
323 335
323 336
323 337
323 338
323 339
323 340
323 341
323 343
323 344
323 345
323 346
323 347
323 348
323 349
323 350
323 351
323 352
323 353
323 354
323 355
323 356
323 357
323 358
323 359
323 360
323 362
323 363
323 364
323 365
323 367
323 368
323 370
323 372
323 373
323 375
323 376
323 377
323 379
323 385
323 387
323 390
323 393
323 394
323 395
323 396
323 397
323 398
323 399
323 400
323 401
323 402
323 403
323 404
323 406
323 407
323 408
323 409
323 410
323 411
323 412
323 413
323 414
323 415
323 417
323 418
323 419
323 420
323 421
323 422
323 423
323 424
323 425
323 426
323 427
323 428
323 429
323 430
323 431
323 432
323 433
323 434
323 436
323 437
323 438
323 439
323 440
323 441
323 442
323 443
323 444
323 445
323 446
323 448
323 449
323 450
323 451
323 452
323 453
323 454
323 455
323 459
323 461
323 464
323 465
323 468
323 469
323 470
323 471
323 472
323 473
323 474
323 475
323 476
323 478
323 479
323 480
323 481
323 482
323 483
323 484
323 485
323 486
323 487
323 490
323 492
323 494
323 496
323 498
323 499
323 502
323 505
323 508
323 509
323 510
323 511
323 512
323 513
323 516
323 519
323 520
323 521
323 524
323 525
323 528
323 530
323 533
323 534
323 535
323 537
323 539
323 540
323 541
323 542
323 543
323 546
323 549
323 550
323 551
323 553
323 554
323 557
323 559
323 561
323 563
323 564
323 565
323 566
323 567
323 568
323 569
323 571
323 572
323 573
323 574
323 575
323 576
323 577
323 578
323 579
324 325
324 326
324 327
324 328
324 329
324 330
324 331
324 334
324 335
324 336
324 339
324 340
324 342
324 343
324 344
324 347
324 348
324 349
324 352
324 354
324 355
324 357
324 358
324 360
324 361
324 362
324 364
324 366
324 367
324 368
324 369
324 370
324 371
324 373
324 374
324 375
324 376
324 377
324 378
324 379
324 380
324 385
324 387
324 390
324 393
324 394
324 395
324 397
324 398
324 400
324 402
324 405
324 406
324 407
324 414
324 415
324 416
324 417
324 418
324 419
324 421
324 423
324 424
324 426
324 427
324 428
324 429
324 430
324 431
324 432
324 433
324 434
324 435
324 437
324 438
324 439
324 440
324 444
324 446
324 447
324 449
324 450
324 451
324 452
324 454
324 459
324 461
324 464
324 465
324 468
324 469
324 470
324 471
324 472
324 473
324 474
324 475
324 476
324 477
324 479
324 480
324 481
324 482
324 483
324 484
324 485
324 486
324 487
324 488
324 489
324 490
324 491
324 492
324 493
324 494
324 495
324 496
324 497
324 498
324 500
324 501
324 502
324 505
324 508
324 509
324 510
324 511
324 512
324 513
324 516
324 518
324 519
324 520
324 521
324 522
324 523
324 525
324 526
324 527
324 528
324 529
324 530
324 531
324 532
324 533
324 534
324 535
324 536
324 537
324 538
324 540
324 541
324 542
324 543
324 544
324 545
324 546
324 547
324 549
324 550
324 551
324 553
324 554
324 557
324 559
324 561
324 563
324 564
324 565
324 566
324 567
324 568
324 569
324 570
324 572
324 573
324 574
324 575
324 576
324 577
324 578
324 579
325 326
325 327
325 328
325 329
325 330
325 331
325 332
325 333
325 334
325 335
325 336
325 337
325 338
325 339
325 340
325 341
325 342
325 344
325 345
325 346
325 347
325 348
325 349
325 350
325 351
325 352
325 353
325 354
325 355
325 356
325 357
325 358
325 359
325 360
325 361
325 363
325 364
325 365
325 366
325 367
325 368
325 369
325 370
325 371
325 372
325 374
325 375
325 376
325 377
325 378
325 379
325 380
325 381
325 382
325 383
325 384
325 385
325 386
325 387
325 388
325 389
325 390
325 391
325 392
325 394
325 395
325 396
325 397
325 398
325 399
325 400
325 401
325 402
325 403
325 404
325 405
325 407
325 408
325 409
325 410
325 411
325 412
325 413
325 414
325 415
325 416
325 418
325 419
325 420
325 421
325 422
325 423
325 424
325 425
325 426
325 427
325 432
325 433
325 435
325 436
325 444
325 446
325 447
325 449
325 450
325 451
325 452
325 454
325 459
325 461
325 464
325 465
325 468
325 469
325 470
325 471
325 472
325 473
325 474
325 475
325 476
325 477
325 478
325 480
325 481
325 482
325 483
325 484
325 485
325 486
325 487
325 490
325 492
325 494
325 496
325 498
325 499
325 502
325 505
325 508
325 509
325 510
325 511
325 512
325 513
325 516
325 519
325 520
325 521
325 524
325 525
325 528
325 530
325 533
325 534
325 535
325 537
325 539
325 540
325 541
325 542
325 543
325 546
325 549
325 550
325 551
325 553
325 554
325 557
325 559
325 561
325 564
325 566
325 567
325 570
325 571
325 573
325 574
325 577
325 579
326 327
326 328
326 329
326 330
326 331
326 334
326 335
326 336
326 339
326 340
326 342
326 343
326 344
326 347
326 348
326 349
326 352
326 354
326 355
326 357
326 358
326 360
326 361
326 362
326 364
326 366
326 367
326 368
326 369
326 370
326 371
326 372
326 373
326 374
326 376
326 377
326 378
326 379
326 380
326 385
326 387
326 390
326 393
326 394
326 395
326 397
326 398
326 400
326 402
326 405
326 406
326 407
326 414
326 415
326 416
326 417
326 418
326 419
326 421
326 423
326 424
326 426
326 427
326 432
326 433
326 435
326 436
326 441
326 442
326 443
326 444
326 445
326 446
326 447
326 448
326 450
326 451
326 452
326 453
326 454
326 455
326 459
326 461
326 464
326 465
326 468
326 469
326 470
326 471
326 472
326 473
326 474
326 475
326 476
326 477
326 478
326 479
326 480
326 482
326 483
326 484
326 485
326 486
326 487
326 490
326 492
326 494
326 496
326 498
326 499
326 502
326 503
326 504
326 505
326 506
326 507
326 508
326 509
326 510
326 512
326 513
326 514
326 515
326 516
326 517
326 519
326 520
326 521
326 524
326 525
326 528
326 530
326 533
326 534
326 535
326 536
326 537
326 538
326 539
326 541
326 542
326 543
326 544
326 545
326 546
326 547
326 548
326 549
326 550
326 551
326 552
326 553
326 554
326 555
326 556
326 558
326 559
326 560
326 561
326 562
326 563
326 564
326 565
326 566
326 567
326 568
326 569
326 570
326 571
326 572
326 574
326 575
326 576
326 577
326 578
326 579
327 328
327 329
327 330
327 331
327 334
327 335
327 336
327 339
327 340
327 342
327 343
327 344
327 347
327 348
327 349
327 352
327 354
327 355
327 357
327 358
327 360
327 361
327 362
327 364
327 366
327 367
327 368
327 369
327 370
327 371
327 372
327 373
327 374
327 375
327 377
327 378
327 379
327 380
327 381
327 382
327 383
327 384
327 385
327 386
327 387
327 388
327 389
327 390
327 391
327 392
327 393
327 395
327 396
327 397
327 398
327 399
327 400
327 401
327 402
327 403
327 404
327 405
327 406
327 408
327 409
327 410
327 411
327 412
327 413
327 414
327 415
327 416
327 417
327 419
327 420
327 421
327 422
327 423
327 424
327 425
327 426
327 427
327 432
327 433
327 435
327 436
327 441
327 442
327 443
327 444
327 445
327 446
327 447
327 448
327 449
327 451
327 452
327 453
327 454
327 455
327 459
327 461
327 464
327 465
327 468
327 469
327 470
327 471
327 472
327 473
327 474
327 475
327 476
327 477
327 478
327 479
327 480
327 481
327 483
327 484
327 485
327 486
327 487
327 490
327 492
327 494
327 496
327 498
327 499
327 502
327 503
327 504
327 505
327 506
327 507
327 508
327 509
327 510
327 511
327 513
327 514
327 515
327 516
327 517
327 519
327 520
327 521
327 524
327 525
327 528
327 530
327 533
327 534
327 535
327 536
327 537
327 538
327 539
327 540
327 542
327 543
327 544
327 545
327 546
327 547
327 549
327 550
327 551
327 553
327 554
327 557
327 559
327 561
327 563
327 564
327 565
327 566
327 567
327 568
327 569
327 570
327 571
327 572
327 573
327 575
327 576
327 577
327 578
327 579
328 329
328 330
328 331
328 332
328 333
328 334
328 335
328 336
328 337
328 338
328 339
328 340
328 341
328 342
328 343
328 345
328 346
328 347
328 348
328 349
328 350
328 351
328 352
328 353
328 354
328 355
328 356
328 357
328 358
328 359
328 360
328 361
328 362
328 363
328 365
328 366
328 367
328 368
328 369
328 370
328 371
328 372
328 373
328 374
328 375
328 376
328 378
328 379
328 380
328 385
328 387
328 390
328 393
328 394
328 395
328 397
328 398
328 400
328 402
328 405
328 406
328 407
328 411
328 412
328 413
328 414
328 415
328 416
328 417
328 418
328 420
328 421
328 422
328 423
328 424
328 425
328 426
328 427
328 432
328 433
328 435
328 436
328 444
328 446
328 447
328 449
328 450
328 451
328 452
328 454
328 456
328 457
328 458
328 459
328 460
328 461
328 462
328 463
328 464
328 465
328 466
328 467
328 469
328 470
328 471
328 472
328 473
328 474
328 475
328 476
328 477
328 478
328 479
328 480
328 481
328 482
328 484
328 485
328 486
328 487
328 490
328 492
328 494
328 496
328 498
328 499
328 502
328 503
328 504
328 505
328 506
328 507
328 508
328 509
328 510
328 511
328 512
328 514
328 515
328 516
328 517
328 518
328 519
328 520
328 521
328 522
328 523
328 524
328 526
328 527
328 528
328 529
328 530
328 531
328 532
328 533
328 534
328 535
328 536
328 537
328 538
328 539
328 540
328 541
328 543
328 544
328 545
328 546
328 547
328 549
328 550
328 551
328 553
328 554
328 557
328 559
328 561
328 564
328 566
328 567
328 570
328 571
328 573
328 574
328 577
328 579
329 330
329 331
329 334
329 335
329 336
329 339
329 340
329 342
329 343
329 344
329 347
329 348
329 349
329 352
329 354
329 355
329 357
329 358
329 360
329 361
329 362
329 364
329 367
329 368
329 370
329 372
329 373
329 375
329 376
329 377
329 379
329 385
329 387
329 390
329 393
329 394
329 395
329 397
329 398
329 400
329 402
329 405
329 406
329 407
329 411
329 412
329 413
329 414
329 415
329 416
329 417
329 418
329 419
329 420
329 422
329 423
329 424
329 425
329 426
329 427
329 432
329 433
329 435
329 436
329 441
329 442
329 443
329 444
329 445
329 446
329 447
329 448
329 449
329 450
329 452
329 453
329 454
329 455
329 456
329 457
329 458
329 459
329 460
329 461
329 462
329 463
329 464
329 465
329 466
329 467
329 468
329 470
329 474
329 475
329 477
329 478
329 479
329 481
329 482
329 483
329 486
329 490
329 492
329 494
329 496
329 498
329 499
329 502
329 503
329 504
329 505
329 506
329 507
329 508
329 509
329 510
329 511
329 512
329 513
329 514
329 515
329 517
329 518
329 519
329 520
329 521
329 522
329 523
329 524
329 525
329 526
329 527
329 529
329 530
329 531
329 532
329 533
329 534
329 535
329 536
329 537
329 538
329 539
329 540
329 541
329 542
329 544
329 545
329 546
329 547
329 549
329 550
329 551
329 553
329 554
329 557
329 559
329 561
329 564
329 566
329 567
329 570
329 571
329 573
329 574
329 577
329 579
330 331
330 332
330 333
330 334
330 335
330 336
330 337
330 338
330 339
330 340
330 341
330 342
330 343
330 344
330 345
330 346
330 348
330 349
330 352
330 354
330 355
330 357
330 358
330 360
330 361
330 362
330 364
330 367
330 368
330 370
330 372
330 373
330 375
330 376
330 377
330 379
330 381
330 382
330 383
330 384
330 385
330 386
330 387
330 388
330 389
330 390
330 391
330 392
330 393
330 394
330 397
330 398
330 400
330 402
330 405
330 406
330 407
330 411
330 412
330 413
330 414
330 415
330 416
330 417
330 418
330 419
330 420
330 421
330 422
330 424
330 425
330 426
330 427
330 432
330 433
330 435
330 436
330 441
330 442
330 443
330 444
330 445
330 446
330 447
330 448
330 449
330 450
330 451
330 453
330 454
330 455
330 459
330 461
330 464
330 465
330 468
330 469
330 470
330 474
330 475
330 477
330 478
330 479
330 481
330 482
330 483
330 486
330 490
330 492
330 494
330 496
330 498
330 499
330 502
330 505
330 508
330 509
330 510
330 511
330 512
330 513
330 516
330 518
330 519
330 520
330 521
330 522
330 523
330 524
330 525
330 526
330 527
330 528
330 529
330 531
330 532
330 533
330 534
330 535
330 537
330 539
330 540
330 541
330 542
330 543
330 546
330 548
330 549
330 550
330 551
330 552
330 553
330 554
330 555
330 556
330 557
330 558
330 560
330 561
330 562
330 563
330 564
330 565
330 566
330 567
330 568
330 569
330 570
330 571
330 572
330 573
330 574
330 575
330 576
330 578
330 579
331 332
331 333
331 334
331 335
331 336
331 337
331 338
331 339
331 340
331 341
331 342
331 343
331 344
331 345
331 346
331 347
331 349
331 352
331 354
331 355
331 357
331 358
331 360
331 361
331 362
331 364
331 366
331 367
331 368
331 369
331 370
331 371
331 372
331 373
331 374
331 375
331 376
331 377
331 378
331 380
331 385
331 387
331 390
331 393
331 394
331 395
331 397
331 398
331 400
331 402
331 405
331 406
331 407
331 411
331 412
331 413
331 414
331 415
331 416
331 417
331 418
331 419
331 420
331 421
331 422
331 423
331 425
331 426
331 427
331 432
331 433
331 435
331 436
331 441
331 442
331 443
331 444
331 445
331 446
331 447
331 448
331 449
331 450
331 451
331 452
331 453
331 455
331 456
331 457
331 458
331 459
331 460
331 461
331 462
331 463
331 464
331 465
331 466
331 467
331 468
331 469
331 471
331 472
331 473
331 474
331 475
331 476
331 477
331 478
331 479
331 480
331 481
331 482
331 483
331 484
331 485
331 487
331 488
331 489
331 490
331 491
331 492
331 493
331 494
331 495
331 496
331 497
331 498
331 499
331 500
331 501
331 505
331 508
331 509
331 510
331 511
331 512
331 513
331 516
331 519
331 520
331 521
331 524
331 525
331 528
331 530
331 533
331 534
331 535
331 536
331 537
331 538
331 539
331 540
331 541
331 542
331 543
331 544
331 545
331 547
331 548
331 549
331 550
331 551
331 552
331 553
331 554
331 555
331 556
331 557
331 558
331 559
331 560
331 562
331 563
331 564
331 565
331 566
331 567
331 568
331 569
331 570
331 571
331 572
331 573
331 574
331 575
331 576
331 577
331 578
332 333
332 334
332 335
332 336
332 337
332 338
332 339
332 340
332 341
332 342
332 343
332 344
332 345
332 346
332 347
332 348
332 351
332 354
332 355
332 358
332 359
332 360
332 361
332 362
332 364
332 367
332 368
332 369
332 370
332 371
332 372
332 373
332 374
332 375
332 376
332 377
332 378
332 379
332 380
332 381
332 383
332 384
332 385
332 386
332 387
332 388
332 389
332 390
332 391
332 392
332 393
332 394
332 395
332 396
332 400
332 402
332 403
332 404
332 405
332 406
332 408
332 414
332 415
332 416
332 417
332 419
332 420
332 423
332 424
332 430
332 431
332 432
332 433
332 434
332 435
332 437
332 438
332 442
332 443
332 444
332 445
332 446
332 447
332 448
332 449
332 450
332 451
332 452
332 453
332 454
332 455
332 456
332 458
332 459
332 460
332 461
332 462
332 463
332 464
332 465
332 466
332 467
332 468
332 469
332 470
332 472
332 474
332 476
332 477
332 479
332 483
332 484
332 486
332 488
332 490
332 491
332 492
332 493
332 494
332 495
332 496
332 497
332 498
332 499
332 500
332 501
332 502
332 504
332 509
332 510
332 513
332 514
332 515
332 518
332 520
332 522
332 523
332 525
332 526
332 527
332 530
332 534
332 536
332 537
332 538
332 542
332 546
332 551
332 553
332 554
332 555
332 559
332 561
332 567
332 568
332 569
332 570
332 575
332 576
332 577
332 579
333 334
333 335
333 336
333 337
333 338
333 339
333 340
333 341
333 342
333 343
333 344
333 345
333 346
333 347
333 348
333 349
333 350
333 352
333 353
333 354
333 355
333 356
333 357
333 358
333 359
333 360
333 361
333 362
333 363
333 364
333 365
333 366
333 368
333 370
333 371
333 373
333 377
333 378
333 379
333 381
333 382
333 383
333 385
333 386
333 387
333 388
333 389
333 390
333 391
333 392
333 393
333 394
333 395
333 397
333 398
333 399
333 400
333 401
333 402
333 403
333 404
333 405
333 406
333 407
333 408
333 409
333 410
333 414
333 415
333 416
333 417
333 419
333 420
333 423
333 424
333 430
333 431
333 432
333 433
333 434
333 435
333 437
333 438
333 441
333 445
333 446
333 447
333 452
333 454
333 457
333 459
333 461
333 465
333 466
333 468
333 470
333 471
333 473
333 474
333 475
333 476
333 477
333 478
333 479
333 480
333 481
333 482
333 483
333 484
333 485
333 486
333 487
333 489
333 494
333 497
333 498
333 501
333 502
333 503
333 505
333 506
333 507
333 508
333 509
333 510
333 511
333 512
333 513
333 514
333 515
333 516
333 517
333 519
333 520
333 521
333 522
333 523
333 524
333 525
333 526
333 527
333 528
333 529
333 530
333 531
333 532
333 534
333 536
333 537
333 538
333 542
333 546
333 551
333 553
333 554
333 555
333 559
333 561
333 567
333 568
333 569
333 570
333 575
333 576
333 577
333 579
334 335
334 336
334 337
334 338
334 339
334 340
334 341
334 342
334 343
334 344
334 345
334 346
334 347
334 348
334 349
334 350
334 351
334 352
334 353
334 355
334 356
334 357
334 358
334 359
334 360
334 361
334 362
334 363
334 364
334 365
334 366
334 367
334 369
334 370
334 371
334 372
334 373
334 374
334 375
334 376
334 377
334 378
334 379
334 380
334 381
334 382
334 383
334 384
334 385
334 386
334 388
334 389
334 390
334 391
334 392
334 393
334 394
334 395
334 396
334 397
334 398
334 399
334 401
334 402
334 403
334 404
334 405
334 406
334 407
334 408
334 409
334 410
334 414
334 415
334 416
334 417
334 419
334 420
334 423
334 424
334 430
334 431
334 432
334 433
334 434
334 435
334 437
334 438
334 441
334 445
334 446
334 447
334 452
334 454
334 456
334 457
334 458
334 460
334 461
334 462
334 463
334 464
334 465
334 466
334 467
334 468
334 469
334 470
334 472
334 474
334 476
334 477
334 479
334 483
334 484
334 486
334 489
334 494
334 497
334 498
334 501
334 502
334 504
334 509
334 510
334 513
334 514
334 515
334 518
334 520
334 522
334 523
334 525
334 526
334 527
334 530
334 533
334 535
334 536
334 537
334 538
334 539
334 540
334 541
334 542
334 543
334 544
334 545
334 546
334 547
334 551
334 553
334 554
334 555
334 559
334 561
334 567
334 568
334 569
334 570
334 575
334 576
334 577
334 579
335 336
335 337
335 338
335 339
335 340
335 341
335 342
335 343
335 344
335 345
335 346
335 347
335 348
335 349
335 350
335 351
335 352
335 353
335 354
335 356
335 357
335 358
335 359
335 360
335 361
335 362
335 363
335 364
335 365
335 366
335 368
335 370
335 371
335 373
335 377
335 378
335 379
335 382
335 384
335 387
335 391
335 392
335 393
335 395
335 396
335 397
335 398
335 399
335 400
335 401
335 403
335 404
335 405
335 406
335 407
335 408
335 409
335 410
335 414
335 415
335 416
335 417
335 419
335 420
335 423
335 424
335 430
335 431
335 432
335 433
335 434
335 435
335 437
335 438
335 441
335 445
335 446
335 447
335 452
335 454
335 456
335 457
335 458
335 459
335 460
335 462
335 463
335 464
335 465
335 466
335 467
335 468
335 469
335 470
335 471
335 472
335 473
335 475
335 476
335 477
335 478
335 479
335 480
335 481
335 482
335 483
335 484
335 485
335 486
335 487
335 488
335 489
335 490
335 491
335 492
335 493
335 495
335 496
335 497
335 498
335 499
335 500
335 501
335 502
335 504
335 509
335 510
335 513
335 514
335 515
335 518
335 519
335 521
335 522
335 523
335 524
335 525
335 526
335 527
335 528
335 529
335 530
335 531
335 532
335 534
335 536
335 537
335 538
335 542
335 546
335 548
335 549
335 550
335 552
335 553
335 554
335 555
335 556
335 557
335 558
335 559
335 560
335 561
335 562
335 567
335 568
335 569
335 570
335 575
335 576
335 577
335 579
336 337
336 338
336 339
336 340
336 341
336 342
336 343
336 344
336 345
336 346
336 347
336 348
336 349
336 350
336 351
336 352
336 353
336 354
336 355
336 356
336 357
336 359
336 360
336 361
336 362
336 363
336 364
336 365
336 366
336 367
336 368
336 369
336 371
336 372
336 373
336 374
336 375
336 376
336 377
336 378
336 379
336 380
336 382
336 384
336 387
336 391
336 392
336 393
336 395
336 396
336 400
336 402
336 403
336 404
336 405
336 406
336 408
336 411
336 412
336 413
336 415
336 416
336 417
336 418
336 419
336 420
336 421
336 422
336 423
336 424
336 425
336 430
336 431
336 432
336 433
336 434
336 435
336 437
336 438
336 441
336 445
336 446
336 447
336 452
336 454
336 457
336 459
336 461
336 465
336 466
336 468
336 470
336 472
336 474
336 476
336 477
336 479
336 483
336 484
336 486
336 489
336 494
336 497
336 498
336 501
336 502
336 504
336 509
336 510
336 513
336 514
336 515
336 518
336 520
336 522
336 523
336 525
336 526
336 527
336 530
336 534
336 536
336 537
336 538
336 542
336 546
336 548
336 549
336 550
336 551
336 552
336 554
336 555
336 556
336 557
336 558
336 559
336 560
336 561
336 562
336 563
336 564
336 565
336 566
336 568
336 569
336 570
336 571
336 572
336 573
336 574
336 575
336 576
336 577
336 578
336 579
337 338
337 339
337 340
337 341
337 342
337 343
337 344
337 345
337 346
337 347
337 348
337 349
337 350
337 351
337 352
337 353
337 354
337 355
337 356
337 357
337 358
337 360
337 361
337 362
337 363
337 364
337 365
337 366
337 368
337 370
337 371
337 373
337 377
337 378
337 379
337 381
337 382
337 383
337 384
337 385
337 386
337 387
337 388
337 389
337 390
337 392
337 393
337 394
337 395
337 396
337 397
337 398
337 399
337 400
337 401
337 402
337 404
337 405
337 406
337 407
337 408
337 409
337 410
337 414
337 415
337 416
337 417
337 419
337 420
337 423
337 424
337 426
337 427
337 428
337 429
337 431
337 432
337 433
337 434
337 435
337 436
337 437
337 438
337 439
337 440
337 441
337 442
337 443
337 444
337 446
337 447
337 448
337 449
337 450
337 451
337 452
337 453
337 454
337 455
337 457
337 459
337 461
337 465
337 466
337 468
337 470
337 471
337 472
337 473
337 474
337 475
337 477
337 478
337 479
337 480
337 481
337 482
337 483
337 484
337 485
337 486
337 487
337 488
337 489
337 490
337 491
337 492
337 493
337 494
337 495
337 496
337 498
337 499
337 500
337 501
337 502
337 504
337 509
337 510
337 513
337 514
337 515
337 518
337 519
337 520
337 521
337 523
337 524
337 525
337 526
337 527
337 528
337 529
337 530
337 531
337 532
337 534
337 536
337 537
337 538
337 542
337 546
337 551
337 553
337 554
337 555
337 559
337 561
337 567
337 568
337 569
337 570
337 575
337 576
337 577
337 579
338 339
338 340
338 341
338 342
338 343
338 344
338 345
338 346
338 347
338 348
338 351
338 354
338 355
338 358
338 359
338 360
338 361
338 362
338 364
338 366
338 367
338 368
338 369
338 370
338 372
338 373
338 374
338 375
338 376
338 377
338 378
338 379
338 380
338 382
338 384
338 387
338 391
338 392
338 393
338 395
338 396
338 397
338 398
338 399
338 400
338 401
338 402
338 403
338 405
338 406
338 407
338 408
338 409
338 410
338 414
338 415
338 416
338 417
338 419
338 420
338 423
338 424
338 426
338 427
338 428
338 429
338 430
338 432
338 433
338 434
338 435
338 436
338 437
338 438
338 439
338 440
338 441
338 445
338 446
338 447
338 452
338 454
338 457
338 459
338 461
338 465
338 466
338 468
338 470
338 472
338 474
338 476
338 477
338 479
338 483
338 484
338 486
338 489
338 494
338 497
338 498
338 501
338 502
338 504
338 509
338 510
338 513
338 514
338 515
338 518
338 520
338 522
338 523
338 525
338 526
338 527
338 530
338 533
338 534
338 535
338 537
338 538
338 539
338 540
338 541
338 542
338 543
338 544
338 545
338 546
338 547
338 551
338 553
338 554
338 555
338 559
338 561
338 563
338 564
338 565
338 566
338 567
338 569
338 570
338 571
338 572
338 573
338 574
338 575
338 576
338 577
338 578
338 579
339 340
339 341
339 342
339 343
339 344
339 345
339 346
339 347
339 348
339 351
339 354
339 355
339 358
339 359
339 360
339 361
339 362
339 364
339 366
339 368
339 370
339 371
339 373
339 377
339 378
339 379
339 382
339 384
339 387
339 391
339 392
339 393
339 395
339 396
339 400
339 402
339 403
339 404
339 405
339 406
339 408
339 414
339 415
339 416
339 417
339 419
339 420
339 423
339 424
339 426
339 427
339 428
339 429
339 430
339 431
339 433
339 434
339 435
339 436
339 437
339 438
339 439
339 440
339 441
339 445
339 446
339 447
339 452
339 454
339 456
339 457
339 458
339 459
339 460
339 461
339 462
339 463
339 464
339 466
339 467
339 468
339 469
339 470
339 472
339 474
339 476
339 477
339 479
339 483
339 484
339 486
339 489
339 494
339 497
339 498
339 501
339 502
339 503
339 504
339 505
339 506
339 507
339 508
339 510
339 511
339 512
339 513
339 514
339 515
339 516
339 517
339 518
339 520
339 522
339 523
339 525
339 526
339 527
339 530
339 533
339 534
339 535
339 536
339 538
339 539
339 540
339 541
339 542
339 543
339 544
339 545
339 546
339 547
339 548
339 549
339 550
339 551
339 552
339 553
339 555
339 556
339 557
339 558
339 559
339 560
339 561
339 562
339 567
339 568
339 569
339 570
339 575
339 576
339 577
339 579
340 341
340 342
340 343
340 344
340 345
340 346
340 347
340 348
340 349
340 350
340 351
340 352
340 353
340 354
340 355
340 356
340 357
340 358
340 359
340 361
340 362
340 363
340 364
340 365
340 366
340 368
340 370
340 371
340 373
340 377
340 378
340 379
340 382
340 384
340 387
340 391
340 392
340 393
340 395
340 396
340 400
340 402
340 403
340 404
340 405
340 406
340 408
340 411
340 412
340 413
340 414
340 416
340 417
340 418
340 419
340 420
340 421
340 422
340 423
340 424
340 425
340 426
340 427
340 428
340 429
340 430
340 431
340 432
340 434
340 435
340 436
340 437
340 438
340 439
340 440
340 441
340 442
340 443
340 444
340 445
340 447
340 448
340 449
340 450
340 451
340 452
340 453
340 454
340 455
340 457
340 459
340 461
340 465
340 466
340 468
340 470
340 472
340 474
340 476
340 477
340 479
340 483
340 484
340 486
340 488
340 489
340 490
340 491
340 492
340 493
340 494
340 495
340 496
340 497
340 499
340 500
340 501
340 502
340 503
340 504
340 505
340 506
340 507
340 508
340 509
340 511
340 512
340 513
340 514
340 515
340 516
340 517
340 518
340 520
340 522
340 523
340 525
340 526
340 527
340 530
340 534
340 536
340 537
340 538
340 542
340 546
340 551
340 553
340 554
340 555
340 559
340 561
340 567
340 568
340 569
340 570
340 575
340 576
340 577
340 579
341 342
341 343
341 344
341 345
341 346
341 347
341 348
341 351
341 354
341 355
341 358
341 359
341 360
341 361
341 362
341 364
341 366
341 368
341 370
341 371
341 373
341 377
341 378
341 379
341 381
341 382
341 383
341 384
341 385
341 386
341 387
341 388
341 389
341 390
341 391
341 393
341 394
341 395
341 396
341 400
341 402
341 403
341 404
341 405
341 406
341 408
341 414
341 415
341 416
341 417
341 419
341 420
341 423
341 424
341 426
341 427
341 428
341 429
341 430
341 431
341 432
341 433
341 435
341 436
341 437
341 438
341 439
341 440
341 441
341 445
341 446
341 447
341 452
341 454
341 456
341 457
341 458
341 459
341 460
341 461
341 462
341 463
341 464
341 465
341 467
341 468
341 469
341 470
341 472
341 474
341 476
341 477
341 479
341 483
341 484
341 486
341 489
341 494
341 497
341 498
341 501
341 502
341 504
341 509
341 510
341 513
341 514
341 515
341 518
341 519
341 520
341 521
341 522
341 524
341 525
341 526
341 527
341 528
341 529
341 530
341 531
341 532
341 533
341 534
341 535
341 536
341 537
341 539
341 540
341 541
341 542
341 543
341 544
341 545
341 546
341 547
341 548
341 549
341 550
341 551
341 552
341 553
341 554
341 556
341 557
341 558
341 559
341 560
341 561
341 562
341 563
341 564
341 565
341 566
341 567
341 568
341 570
341 571
341 572
341 573
341 574
341 575
341 576
341 577
341 578
341 579
342 343
342 344
342 345
342 346
342 347
342 348
342 349
342 350
342 351
342 352
342 353
342 354
342 355
342 356
342 357
342 358
342 359
342 360
342 362
342 363
342 364
342 365
342 366
342 368
342 370
342 371
342 373
342 377
342 378
342 379
342 382
342 384
342 387
342 391
342 392
342 393
342 395
342 396
342 397
342 398
342 399
342 400
342 401
342 402
342 403
342 404
342 406
342 407
342 408
342 409
342 410
342 411
342 412
342 413
342 414
342 415
342 417
342 418
342 419
342 420
342 421
342 422
342 423
342 424
342 425
342 426
342 427
342 428
342 429
342 430
342 431
342 432
342 433
342 434
342 436
342 437
342 438
342 439
342 440
342 441
342 442
342 443
342 444
342 445
342 446
342 448
342 449
342 450
342 451
342 452
342 453
342 454
342 455
342 457
342 459
342 461
342 465
342 466
342 468
342 470
342 471
342 472
342 473
342 474
342 475
342 476
342 478
342 479
342 480
342 481
342 482
342 483
342 484
342 485
342 486
342 487
342 489
342 494
342 497
342 498
342 501
342 502
342 504
342 509
342 510
342 513
342 514
342 515
342 518
342 520
342 522
342 523
342 525
342 526
342 527
342 530
342 534
342 536
342 537
342 538
342 542
342 546
342 551
342 553
342 554
342 555
342 559
342 561
342 563
342 564
342 565
342 566
342 567
342 568
342 569
342 571
342 572
342 573
342 574
342 575
342 576
342 577
342 578
342 579
343 344
343 345
343 346
343 347
343 348
343 349
343 350
343 351
343 352
343 353
343 354
343 355
343 356
343 357
343 358
343 359
343 360
343 361
343 363
343 364
343 365
343 366
343 367
343 368
343 369
343 370
343 371
343 372
343 374
343 375
343 376
343 377
343 378
343 379
343 380
343 381
343 382
343 383
343 384
343 385
343 386
343 387
343 388
343 389
343 390
343 391
343 392
343 394
343 395
343 396
343 397
343 398
343 399
343 400
343 401
343 402
343 403
343 404
343 405
343 407
343 408
343 409
343 410
343 411
343 412
343 413
343 414
343 415
343 416
343 418
343 419
343 420
343 421
343 422
343 423
343 424
343 425
343 430
343 431
343 432
343 433
343 434
343 435
343 437
343 438
343 441
343 445
343 446
343 447
343 452
343 454
343 457
343 459
343 461
343 465
343 466
343 468
343 470
343 471
343 472
343 473
343 474
343 475
343 476
343 477
343 478
343 480
343 481
343 482
343 483
343 484
343 485
343 486
343 487
343 489
343 494
343 497
343 498
343 501
343 502
343 504
343 509
343 510
343 513
343 514
343 515
343 518
343 520
343 522
343 523
343 525
343 526
343 527
343 530
343 534
343 536
343 537
343 538
343 542
343 546
343 551
343 553
343 554
343 555
343 559
343 561
343 567
343 568
343 569
343 570
343 575
343 576
343 577
343 579
344 345
344 346
344 347
344 348
344 349
344 350
344 351
344 352
344 353
344 354
344 355
344 356
344 357
344 358
344 359
344 360
344 361
344 362
344 363
344 365
344 366
344 367
344 368
344 369
344 370
344 371
344 372
344 373
344 374
344 375
344 376
344 378
344 379
344 380
344 382
344 384
344 387
344 391
344 392
344 393
344 395
344 396
344 400
344 402
344 403
344 404
344 405
344 406
344 408
344 411
344 412
344 413
344 414
344 415
344 416
344 417
344 418
344 420
344 421
344 422
344 423
344 424
344 425
344 430
344 431
344 432
344 433
344 434
344 435
344 437
344 438
344 441
344 445
344 446
344 447
344 452
344 454
344 456
344 457
344 458
344 459
344 460
344 461
344 462
344 463
344 464
344 465
344 466
344 467
344 469
344 470
344 471
344 472
344 473
344 474
344 475
344 476
344 477
344 478
344 479
344 480
344 481
344 482
344 484
344 485
344 486
344 487
344 489
344 494
344 497
344 498
344 501
344 502
344 503
344 504
344 505
344 506
344 507
344 508
344 509
344 510
344 511
344 512
344 514
344 515
344 516
344 517
344 518
344 519
344 520
344 521
344 522
344 523
344 524
344 526
344 527
344 528
344 529
344 530
344 531
344 532
344 533
344 534
344 535
344 536
344 537
344 538
344 539
344 540
344 541
344 543
344 544
344 545
344 546
344 547
344 551
344 553
344 554
344 555
344 559
344 561
344 567
344 568
344 569
344 570
344 575
344 576
344 577
344 579
345 346
345 347
345 348
345 351
345 354
345 355
345 358
345 359
345 360
345 361
345 362
345 364
345 366
345 367
345 368
345 369
345 370
345 371
345 372
345 373
345 374
345 375
345 376
345 377
345 379
345 380
345 382
345 384
345 387
345 391
345 392
345 393
345 395
345 396
345 400
345 402
345 403
345 404
345 405
345 406
345 408
345 411
345 412
345 413
345 414
345 415
345 416
345 417
345 418
345 419
345 421
345 422
345 423
345 424
345 425
345 426
345 427
345 428
345 429
345 430
345 431
345 432
345 433
345 434
345 435
345 436
345 438
345 439
345 440
345 441
345 445
345 446
345 447
345 452
345 454
345 457
345 459
345 461
345 465
345 466
345 468
345 470
345 472
345 474
345 476
345 477
345 479
345 483
345 484
345 486
345 488
345 489
345 490
345 491
345 492
345 493
345 494
345 495
345 496
345 497
345 498
345 499
345 500
345 502
345 503
345 504
345 505
345 506
345 507
345 508
345 509
345 510
345 511
345 512
345 513
345 515
345 516
345 517
345 518
345 519
345 520
345 521
345 522
345 523
345 524
345 525
345 527
345 528
345 529
345 530
345 531
345 532
345 534
345 536
345 537
345 538
345 542
345 546
345 551
345 553
345 554
345 555
345 559
345 561
345 563
345 564
345 565
345 566
345 567
345 568
345 569
345 570
345 571
345 572
345 573
345 574
345 576
345 577
345 578
345 579
346 347
346 348
346 351
346 354
346 355
346 358
346 359
346 360
346 361
346 362
346 364
346 366
346 368
346 370
346 371
346 373
346 377
346 378
346 379
346 382
346 384
346 387
346 391
346 392
346 393
346 395
346 396
346 397
346 398
346 399
346 400
346 401
346 402
346 403
346 404
346 405
346 406
346 407
346 409
346 410
346 414
346 415
346 416
346 417
346 419
346 420
346 423
346 424
346 426
346 427
346 428
346 429
346 430
346 431
346 432
346 433
346 434
346 435
346 436
346 437
346 439
346 440
346 441
346 445
346 446
346 447
346 452
346 454
346 457
346 459
346 461
346 465
346 466
346 468
346 470
346 471
346 472
346 473
346 474
346 475
346 476
346 477
346 478
346 479
346 480
346 481
346 482
346 483
346 485
346 486
346 487
346 489
346 494
346 497
346 498
346 501
346 502
346 503
346 504
346 505
346 506
346 507
346 508
346 509
346 510
346 511
346 512
346 513
346 514
346 516
346 517
346 518
346 519
346 520
346 521
346 522
346 523
346 524
346 525
346 526
346 528
346 529
346 530
346 531
346 532
346 534
346 536
346 537
346 538
346 542
346 546
346 551
346 553
346 554
346 555
346 559
346 561
346 563
346 564
346 565
346 566
346 567
346 568
346 569
346 570
346 571
346 572
346 573
346 574
346 575
346 577
346 578
346 579
347 348
347 351
347 354
347 355
347 358
347 359
347 360
347 361
347 362
347 364
347 366
347 368
347 370
347 371
347 373
347 377
347 378
347 379
347 381
347 382
347 383
347 384
347 385
347 386
347 387
347 388
347 389
347 390
347 391
347 392
347 393
347 394
347 396
347 400
347 402
347 403
347 404
347 405
347 406
347 408
347 411
347 412
347 413
347 414
347 415
347 416
347 417
347 418
347 419
347 420
347 421
347 422
347 424
347 425
347 430
347 431
347 432
347 433
347 434
347 435
347 437
347 438
347 441
347 442
347 443
347 444
347 445
347 446
347 447
347 448
347 449
347 450
347 451
347 453
347 454
347 455
347 457
347 459
347 461
347 465
347 466
347 468
347 470
347 472
347 474
347 476
347 477
347 479
347 483
347 484
347 486
347 489
347 494
347 497
347 498
347 501
347 502
347 504
347 509
347 510
347 513
347 514
347 515
347 518
347 519
347 520
347 521
347 522
347 523
347 524
347 525
347 526
347 527
347 528
347 529
347 531
347 532
347 534
347 536
347 537
347 538
347 542
347 546
347 548
347 549
347 550
347 551
347 552
347 553
347 554
347 555
347 556
347 557
347 558
347 560
347 561
347 562
347 563
347 564
347 565
347 566
347 567
347 568
347 569
347 570
347 571
347 572
347 573
347 574
347 575
347 576
347 578
347 579
348 351
348 354
348 355
348 358
348 359
348 360
348 361
348 362
348 364
348 366
348 367
348 368
348 369
348 370
348 371
348 372
348 373
348 374
348 375
348 376
348 377
348 378
348 380
348 382
348 384
348 387
348 391
348 392
348 393
348 395
348 396
348 400
348 402
348 403
348 404
348 405
348 406
348 408
348 411
348 412
348 413
348 414
348 415
348 416
348 417
348 418
348 419
348 420
348 421
348 422
348 423
348 425
348 430
348 431
348 432
348 433
348 434
348 435
348 437
348 438
348 441
348 442
348 443
348 444
348 445
348 446
348 447
348 448
348 449
348 450
348 451
348 452
348 453
348 455
348 456
348 457
348 458
348 459
348 460
348 461
348 462
348 463
348 464
348 465
348 466
348 467
348 468
348 469
348 471
348 472
348 473
348 474
348 475
348 476
348 477
348 478
348 479
348 480
348 481
348 482
348 483
348 484
348 485
348 487
348 488
348 489
348 490
348 491
348 492
348 493
348 494
348 495
348 496
348 497
348 498
348 499
348 500
348 501
348 504
348 509
348 510
348 513
348 514
348 515
348 518
348 520
348 522
348 523
348 525
348 526
348 527
348 530
348 533
348 534
348 535
348 536
348 537
348 538
348 539
348 540
348 541
348 542
348 543
348 544
348 545
348 547
348 548
348 549
348 550
348 551
348 552
348 553
348 554
348 555
348 556
348 557
348 558
348 559
348 560
348 562
348 563
348 564
348 565
348 566
348 567
348 568
348 569
348 570
348 571
348 572
348 573
348 574
348 575
348 576
348 577
348 578
349 350
349 351
349 352
349 353
349 354
349 355
349 356
349 357
349 358
349 359
349 360
349 361
349 362
349 363
349 364
349 365
349 368
349 369
349 370
349 373
349 374
349 377
349 383
349 384
349 386
349 387
349 390
349 391
349 393
349 396
349 398
349 399
349 400
349 402
349 403
349 405
349 406
349 411
349 414
349 415
349 416
349 417
349 419
349 427
349 428
349 429
349 430
349 431
349 432
349 433
349 434
349 435
349 436
349 437
349 438
349 439
349 440
349 442
349 443
349 445
349 446
349 447
349 448
349 453
349 458
349 459
349 461
349 462
349 467
349 468
349 472
349 473
349 474
349 475
349 476
349 477
349 479
349 480
349 483
349 485
349 488
349 489
349 491
349 492
349 493
349 494
349 495
349 496
349 497
349 498
349 499
349 500
349 501
349 502
349 504
349 505
349 508
349 510
349 513
349 518
349 519
349 520
349 522
349 525
349 531
349 534
349 535
349 536
349 537
349 538
349 539
349 540
349 541
349 542
349 543
349 544
349 545
349 546
349 547
349 550
349 551
349 553
349 556
349 560
349 563
349 564
349 567
349 570
349 572
349 578
350 351
350 352
350 353
350 354
350 355
350 356
350 357
350 358
350 359
350 360
350 361
350 362
350 363
350 364
350 365
350 368
350 369
350 370
350 373
350 374
350 377
350 381
350 382
350 384
350 385
350 386
350 387
350 388
350 389
350 390
350 391
350 392
350 393
350 394
350 395
350 396
350 398
350 399
350 400
350 402
350 403
350 405
350 406
350 412
350 413
350 414
350 415
350 416
350 417
350 418
350 419
350 420
350 421
350 422
350 423
350 424
350 425
350 426
350 429
350 430
350 433
350 435
350 439
350 442
350 443
350 445
350 446
350 447
350 448
350 453
350 458
350 459
350 461
350 462
350 467
350 468
350 472
350 473
350 474
350 475
350 476
350 477
350 479
350 480
350 483
350 485
350 488
350 489
350 490
350 492
350 493
350 494
350 495
350 496
350 497
350 498
350 499
350 500
350 501
350 502
350 504
350 505
350 508
350 510
350 513
350 518
350 519
350 520
350 522
350 525
350 531
350 533
350 534
350 535
350 542
350 545
350 550
350 551
350 553
350 556
350 560
350 564
350 565
350 566
350 567
350 568
350 569
350 570
350 571
350 572
350 573
350 574
350 575
350 576
350 577
350 578
350 579
351 352
351 353
351 354
351 355
351 356
351 357
351 358
351 359
351 360
351 361
351 362
351 363
351 364
351 365
351 368
351 369
351 370
351 373
351 374
351 377
351 381
351 382
351 383
351 385
351 386
351 387
351 388
351 389
351 390
351 391
351 392
351 393
351 394
351 395
351 397
351 398
351 399
351 400
351 401
351 402
351 403
351 404
351 405
351 406
351 407
351 408
351 409
351 410
351 411
351 414
351 415
351 416
351 417
351 419
351 426
351 429
351 430
351 433
351 435
351 439
351 442
351 443
351 445
351 446
351 447
351 448
351 453
351 458
351 459
351 461
351 462
351 467
351 468
351 471
351 473
351 474
351 475
351 476
351 477
351 478
351 479
351 480
351 481
351 482
351 483
351 484
351 485
351 486
351 487
351 490
351 491
351 494
351 495
351 496
351 497
351 498
351 500
351 503
351 505
351 506
351 507
351 508
351 509
351 510
351 511
351 512
351 513
351 514
351 515
351 516
351 517
351 519
351 520
351 521
351 522
351 523
351 524
351 525
351 526
351 527
351 528
351 529
351 530
351 531
351 532
351 533
351 534
351 535
351 542
351 545
351 550
351 551
351 553
351 556
351 560
351 563
351 564
351 567
351 570
351 572
351 578
352 353
352 354
352 355
352 356
352 357
352 358
352 359
352 360
352 361
352 362
352 363
352 364
352 365
352 368
352 369
352 370
352 373
352 374
352 377
352 383
352 384
352 386
352 387
352 390
352 391
352 393
352 396
352 397
352 399
352 400
352 401
352 402
352 403
352 404
352 405
352 406
352 407
352 408
352 409
352 410
352 411
352 414
352 415
352 416
352 417
352 419
352 426
352 429
352 430
352 433
352 435
352 439
352 442
352 443
352 445
352 446
352 447
352 448
352 453
352 458
352 459
352 461
352 462
352 467
352 468
352 472
352 473
352 474
352 475
352 476
352 477
352 479
352 480
352 483
352 485
352 490
352 491
352 494
352 495
352 496
352 497
352 498
352 500
352 503
352 504
352 506
352 507
352 508
352 509
352 510
352 511
352 512
352 513
352 514
352 515
352 516
352 517
352 518
352 520
352 521
352 522
352 523
352 524
352 525
352 526
352 527
352 528
352 529
352 530
352 531
352 532
352 533
352 534
352 535
352 542
352 545
352 548
352 549
352 551
352 552
352 553
352 554
352 555
352 556
352 557
352 558
352 559
352 560
352 561
352 562
352 563
352 565
352 566
352 567
352 568
352 569
352 570
352 571
352 572
352 573
352 574
352 575
352 576
352 577
352 578
352 579
353 354
353 355
353 356
353 357
353 358
353 359
353 360
353 361
353 362
353 363
353 364
353 365
353 368
353 369
353 370
353 373
353 374
353 377
353 381
353 382
353 383
353 384
353 385
353 387
353 388
353 389
353 390
353 391
353 392
353 393
353 394
353 395
353 396
353 397
353 398
353 400
353 401
353 402
353 403
353 404
353 405
353 406
353 407
353 408
353 409
353 410
353 411
353 414
353 415
353 416
353 417
353 419
353 426
353 429
353 430
353 433
353 435
353 439
353 441
353 443
353 444
353 445
353 446
353 447
353 448
353 449
353 450
353 451
353 452
353 453
353 454
353 455
353 456
353 457
353 459
353 460
353 461
353 462
353 463
353 464
353 465
353 466
353 467
353 468
353 469
353 470
353 471
353 472
353 474
353 475
353 476
353 477
353 478
353 479
353 480
353 481
353 482
353 483
353 484
353 485
353 486
353 487
353 490
353 491
353 494
353 495
353 496
353 497
353 498
353 500
353 504
353 505
353 508
353 510
353 513
353 518
353 519
353 520
353 522
353 525
353 531
353 533
353 534
353 535
353 542
353 545
353 550
353 551
353 553
353 556
353 560
353 563
353 564
353 567
353 570
353 572
353 578
354 355
354 356
354 357
354 358
354 359
354 360
354 361
354 362
354 363
354 364
354 365
354 366
354 367
354 369
354 370
354 371
354 372
354 373
354 374
354 375
354 376
354 377
354 378
354 379
354 380
354 381
354 382
354 383
354 384
354 385
354 386
354 388
354 389
354 390
354 391
354 392
354 393
354 394
354 395
354 396
354 397
354 398
354 399
354 401
354 402
354 403
354 404
354 405
354 406
354 407
354 408
354 409
354 410
354 411
354 414
354 415
354 416
354 417
354 419
354 426
354 429
354 430
354 433
354 435
354 439
354 442
354 443
354 445
354 446
354 447
354 448
354 453
354 456
354 457
354 458
354 460
354 461
354 462
354 463
354 464
354 465
354 466
354 467
354 468
354 469
354 470
354 472
354 473
354 474
354 475
354 476
354 477
354 479
354 480
354 483
354 485
354 490
354 491
354 494
354 495
354 496
354 497
354 498
354 500
354 504
354 505
354 508
354 510
354 513
354 518
354 519
354 520
354 522
354 525
354 531
354 533
354 535
354 536
354 537
354 538
354 539
354 540
354 541
354 542
354 543
354 544
354 545
354 546
354 547
354 550
354 551
354 553
354 556
354 560
354 563
354 564
354 567
354 570
354 572
354 578
355 356
355 357
355 358
355 359
355 360
355 361
355 362
355 363
355 364
355 365
355 368
355 369
355 370
355 373
355 374
355 377
355 383
355 384
355 386
355 387
355 390
355 391
355 393
355 396
355 397
355 398
355 399
355 400
355 401
355 403
355 404
355 405
355 406
355 407
355 408
355 409
355 410
355 411
355 414
355 415
355 416
355 417
355 419
355 426
355 429
355 430
355 433
355 435
355 439
355 442
355 443
355 445
355 446
355 447
355 448
355 453
355 456
355 457
355 458
355 459
355 460
355 462
355 463
355 464
355 465
355 466
355 467
355 468
355 469
355 470
355 471
355 472
355 473
355 475
355 476
355 477
355 478
355 479
355 480
355 481
355 482
355 483
355 484
355 485
355 486
355 487
355 488
355 489
355 490
355 491
355 492
355 493
355 495
355 496
355 497
355 498
355 499
355 500
355 501
355 502
355 504
355 505
355 508
355 510
355 513
355 518
355 519
355 521
355 522
355 523
355 524
355 525
355 526
355 527
355 528
355 529
355 530
355 531
355 532
355 533
355 534
355 535
355 542
355 545
355 548
355 549
355 550
355 552
355 553
355 554
355 555
355 556
355 557
355 558
355 559
355 560
355 561
355 562
355 563
355 564
355 567
355 570
355 572
355 578
356 357
356 358
356 359
356 360
356 361
356 362
356 363
356 364
356 365
356 366
356 367
356 368
356 370
356 371
356 372
356 373
356 374
356 375
356 376
356 377
356 378
356 379
356 380
356 383
356 384
356 386
356 387
356 390
356 391
356 393
356 396
356 398
356 399
356 400
356 402
356 403
356 405
356 406
356 411
356 414
356 415
356 416
356 417
356 419
356 426
356 427
356 428
356 430
356 431
356 432
356 433
356 434
356 435
356 436
356 437
356 438
356 439
356 440
356 441
356 442
356 444
356 445
356 446
356 447
356 448
356 449
356 450
356 451
356 452
356 453
356 454
356 455
356 456
356 457
356 458
356 459
356 460
356 461
356 463
356 464
356 465
356 466
356 467
356 468
356 469
356 470
356 472
356 473
356 474
356 475
356 476
356 477
356 479
356 480
356 483
356 485
356 488
356 489
356 490
356 491
356 492
356 493
356 494
356 496
356 497
356 498
356 499
356 500
356 501
356 502
356 504
356 505
356 508
356 510
356 513
356 518
356 519
356 520
356 522
356 525
356 531
356 533
356 534
356 535
356 542
356 545
356 550
356 551
356 553
356 556
356 560
356 563
356 564
356 567
356 570
356 572
356 578
357 358
357 359
357 360
357 361
357 362
357 363
357 364
357 365
357 368
357 369
357 370
357 373
357 374
357 377
357 381
357 382
357 383
357 384
357 385
357 386
357 387
357 388
357 389
357 391
357 392
357 393
357 394
357 395
357 396
357 398
357 399
357 400
357 402
357 403
357 405
357 406
357 411
357 414
357 415
357 416
357 417
357 419
357 426
357 429
357 430
357 433
357 435
357 439
357 442
357 443
357 445
357 446
357 447
357 448
357 453
357 458
357 459
357 461
357 462
357 467
357 468
357 471
357 472
357 473
357 474
357 476
357 477
357 478
357 479
357 480
357 481
357 482
357 483
357 484
357 485
357 486
357 487
357 488
357 489
357 490
357 491
357 492
357 493
357 494
357 495
357 497
357 498
357 499
357 500
357 501
357 502
357 503
357 504
357 505
357 506
357 507
357 509
357 510
357 511
357 512
357 513
357 514
357 515
357 516
357 517
357 518
357 519
357 520
357 522
357 525
357 531
357 533
357 534
357 536
357 537
357 538
357 539
357 540
357 541
357 542
357 543
357 544
357 545
357 546
357 547
357 550
357 551
357 553
357 556
357 560
357 563
357 564
357 567
357 570
357 572
357 578
358 359
358 360
358 361
358 362
358 363
358 364
358 365
358 366
358 367
358 368
358 369
358 371
358 372
358 373
358 374
358 375
358 376
358 377
358 378
358 379
358 380
358 383
358 384
358 386
358 387
358 390
358 391
358 393
358 396
358 398
358 399
358 400
358 402
358 403
358 405
358 406
358 411
358 412
358 413
358 415
358 416
358 417
358 418
358 419
358 420
358 421
358 422
358 423
358 424
358 425
358 426
358 429
358 430
358 433
358 435
358 439
358 442
358 443
358 445
358 446
358 447
358 448
358 453
358 458
358 459
358 461
358 462
358 467
358 468
358 472
358 473
358 474
358 475
358 476
358 477
358 479
358 480
358 483
358 485
358 490
358 491
358 494
358 495
358 496
358 497
358 498
358 500
358 504
358 505
358 508
358 510
358 513
358 518
358 519
358 520
358 522
358 525
358 531
358 533
358 534
358 535
358 542
358 545
358 548
358 549
358 550
358 551
358 552
358 554
358 555
358 556
358 557
358 558
358 559
358 560
358 561
358 562
358 563
358 564
358 565
358 566
358 568
358 569
358 570
358 571
358 572
358 573
358 574
358 575
358 576
358 577
358 578
358 579
359 360
359 361
359 362
359 363
359 364
359 365
359 368
359 369
359 370
359 373
359 374
359 377
359 381
359 382
359 383
359 384
359 385
359 386
359 387
359 388
359 389
359 390
359 392
359 393
359 394
359 395
359 396
359 397
359 398
359 399
359 400
359 401
359 402
359 404
359 405
359 406
359 407
359 408
359 409
359 410
359 411
359 414
359 415
359 416
359 417
359 419
359 426
359 427
359 428
359 429
359 431
359 432
359 433
359 434
359 435
359 436
359 437
359 438
359 439
359 440
359 441
359 442
359 443
359 444
359 446
359 447
359 448
359 449
359 450
359 451
359 452
359 453
359 454
359 455
359 458
359 459
359 461
359 462
359 467
359 468
359 471
359 472
359 473
359 474
359 475
359 477
359 478
359 479
359 480
359 481
359 482
359 483
359 484
359 485
359 486
359 487
359 488
359 489
359 490
359 491
359 492
359 493
359 494
359 495
359 496
359 498
359 499
359 500
359 501
359 502
359 504
359 505
359 508
359 510
359 513
359 518
359 519
359 520
359 521
359 523
359 524
359 525
359 526
359 527
359 528
359 529
359 530
359 531
359 532
359 533
359 534
359 535
359 542
359 545
359 550
359 551
359 553
359 556
359 560
359 563
359 564
359 567
359 570
359 572
359 578
360 361
360 362
360 363
360 364
360 365
360 368
360 369
360 370
360 373
360 374
360 377
360 383
360 384
360 386
360 387
360 390
360 391
360 393
360 396
360 398
360 399
360 400
360 402
360 403
360 405
360 406
360 411
360 412
360 413
360 414
360 416
360 417
360 418
360 419
360 420
360 421
360 422
360 423
360 424
360 425
360 426
360 427
360 428
360 429
360 430
360 431
360 432
360 434
360 435
360 436
360 437
360 438
360 439
360 440
360 441
360 442
360 443
360 444
360 445
360 447
360 448
360 449
360 450
360 451
360 452
360 453
360 454
360 455
360 458
360 459
360 461
360 462
360 467
360 468
360 472
360 473
360 474
360 475
360 476
360 477
360 479
360 480
360 483
360 485
360 488
360 489
360 490
360 491
360 492
360 493
360 494
360 495
360 496
360 497
360 499
360 500
360 501
360 502
360 503
360 504
360 505
360 506
360 507
360 508
360 509
360 511
360 512
360 513
360 514
360 515
360 516
360 517
360 518
360 519
360 520
360 522
360 525
360 531
360 533
360 534
360 535
360 542
360 545
360 550
360 551
360 553
360 556
360 560
360 563
360 564
360 567
360 570
360 572
360 578
361 362
361 363
361 364
361 365
361 368
361 369
361 370
361 373
361 374
361 377
361 383
361 384
361 386
361 387
361 390
361 391
361 393
361 396
361 397
361 398
361 399
361 400
361 401
361 402
361 403
361 404
361 406
361 407
361 408
361 409
361 410
361 411
361 412
361 413
361 414
361 415
361 417
361 418
361 419
361 420
361 421
361 422
361 423
361 424
361 425
361 426
361 427
361 428
361 429
361 430
361 431
361 432
361 433
361 434
361 436
361 437
361 438
361 439
361 440
361 441
361 442
361 443
361 444
361 445
361 446
361 448
361 449
361 450
361 451
361 452
361 453
361 454
361 455
361 458
361 459
361 461
361 462
361 467
361 468
361 471
361 472
361 473
361 474
361 475
361 476
361 478
361 479
361 480
361 481
361 482
361 483
361 484
361 485
361 486
361 487
361 490
361 491
361 494
361 495
361 496
361 497
361 498
361 500
361 504
361 505
361 508
361 510
361 513
361 518
361 519
361 520
361 522
361 525
361 531
361 533
361 534
361 535
361 542
361 545
361 550
361 551
361 553
361 556
361 560
361 563
361 564
361 565
361 566
361 567
361 568
361 569
361 571
361 572
361 573
361 574
361 575
361 576
361 577
361 578
361 579
362 363
362 364
362 365
362 366
362 367
362 368
362 369
362 370
362 371
362 372
362 374
362 375
362 376
362 377
362 378
362 379
362 380
362 381
362 382
362 383
362 384
362 385
362 386
362 387
362 388
362 389
362 390
362 391
362 392
362 394
362 395
362 396
362 397
362 398
362 399
362 400
362 401
362 402
362 403
362 404
362 405
362 407
362 408
362 409
362 410
362 411
362 412
362 413
362 414
362 415
362 416
362 418
362 419
362 420
362 421
362 422
362 423
362 424
362 425
362 426
362 429
362 430
362 433
362 435
362 439
362 442
362 443
362 445
362 446
362 447
362 448
362 453
362 458
362 459
362 461
362 462
362 467
362 468
362 471
362 472
362 473
362 474
362 475
362 476
362 477
362 478
362 480
362 481
362 482
362 483
362 484
362 485
362 486
362 487
362 490
362 491
362 494
362 495
362 496
362 497
362 498
362 500
362 504
362 505
362 508
362 510
362 513
362 518
362 519
362 520
362 522
362 525
362 531
362 533
362 534
362 535
362 542
362 545
362 550
362 551
362 553
362 556
362 560
362 563
362 564
362 567
362 570
362 572
362 578
363 364
363 365
363 366
363 367
363 368
363 369
363 370
363 371
363 372
363 373
363 375
363 376
363 377
363 378
363 379
363 380
363 383
363 384
363 386
363 387
363 390
363 391
363 393
363 396
363 398
363 399
363 400
363 402
363 403
363 405
363 406
363 411
363 414
363 415
363 416
363 417
363 419
363 426
363 429
363 430
363 433
363 435
363 439
363 441
363 442
363 443
363 444
363 445
363 446
363 447
363 449
363 450
363 451
363 452
363 453
363 454
363 455
363 456
363 457
363 458
363 459
363 460
363 461
363 462
363 463
363 464
363 465
363 466
363 468
363 469
363 470
363 471
363 472
363 473
363 474
363 475
363 476
363 477
363 478
363 479
363 481
363 482
363 483
363 484
363 485
363 486
363 487
363 488
363 489
363 490
363 491
363 492
363 493
363 494
363 495
363 496
363 497
363 498
363 499
363 501
363 502
363 504
363 505
363 508
363 510
363 513
363 518
363 519
363 520
363 522
363 525
363 531
363 533
363 534
363 535
363 542
363 545
363 548
363 549
363 550
363 551
363 552
363 553
363 554
363 555
363 557
363 558
363 559
363 560
363 561
363 562
363 563
363 564
363 565
363 566
363 567
363 568
363 569
363 570
363 571
363 573
363 574
363 575
363 576
363 577
363 578
363 579
364 365
364 366
364 367
364 368
364 369
364 370
364 371
364 372
364 373
364 374
364 375
364 376
364 378
364 379
364 380
364 383
364 384
364 386
364 387
364 390
364 391
364 393
364 396
364 398
364 399
364 400
364 402
364 403
364 405
364 406
364 411
364 412
364 413
364 414
364 415
364 416
364 417
364 418
364 420
364 421
364 422
364 423
364 424
364 425
364 426
364 429
364 430
364 433
364 435
364 439
364 442
364 443
364 445
364 446
364 447
364 448
364 453
364 456
364 457
364 458
364 459
364 460
364 461
364 462
364 463
364 464
364 465
364 466
364 467
364 469
364 470
364 471
364 472
364 473
364 474
364 475
364 476
364 477
364 478
364 479
364 480
364 481
364 482
364 484
364 485
364 486
364 487
364 490
364 491
364 494
364 495
364 496
364 497
364 498
364 500
364 503
364 504
364 505
364 506
364 507
364 508
364 509
364 510
364 511
364 512
364 514
364 515
364 516
364 517
364 518
364 519
364 520
364 521
364 522
364 523
364 524
364 526
364 527
364 528
364 529
364 530
364 531
364 532
364 533
364 534
364 535
364 536
364 537
364 538
364 539
364 540
364 541
364 543
364 544
364 545
364 546
364 547
364 550
364 551
364 553
364 556
364 560
364 563
364 564
364 567
364 570
364 572
364 578
365 368
365 369
365 370
365 373
365 374
365 377
365 383
365 384
365 386
365 387
365 390
365 391
365 393
365 396
365 398
365 399
365 400
365 402
365 403
365 405
365 406
365 411
365 414
365 415
365 416
365 417
365 419
365 426
365 427
365 428
365 429
365 430
365 431
365 432
365 433
365 434
365 435
365 436
365 437
365 438
365 440
365 441
365 442
365 443
365 444
365 445
365 446
365 447
365 448
365 449
365 450
365 451
365 452
365 454
365 455
365 458
365 459
365 461
365 462
365 467
365 468
365 471
365 472
365 473
365 474
365 475
365 476
365 477
365 478
365 479
365 480
365 481
365 482
365 483
365 484
365 486
365 487
365 490
365 491
365 494
365 495
365 496
365 497
365 498
365 500
365 504
365 505
365 508
365 510
365 513
365 518
365 519
365 520
365 521
365 522
365 523
365 524
365 525
365 526
365 527
365 528
365 529
365 530
365 532
365 533
365 534
365 535
365 536
365 537
365 538
365 539
365 540
365 541
365 542
365 543
365 544
365 546
365 547
365 548
365 549
365 550
365 551
365 552
365 553
365 554
365 555
365 556
365 557
365 558
365 559
365 561
365 562
365 563
365 564
365 565
365 566
365 567
365 568
365 569
365 570
365 571
365 572
365 573
365 574
365 575
365 576
365 577
365 579
366 367
366 368
366 369
366 370
366 371
366 372
366 373
366 374
366 375
366 376
366 377
366 378
366 379
366 380
366 381
366 383
366 384
366 385
366 386
366 387
366 388
366 389
366 390
366 391
366 392
366 393
366 394
366 395
366 397
366 400
366 404
366 406
366 407
366 410
366 414
366 417
366 418
366 419
366 420
366 424
366 425
366 427
366 429
366 431
366 436
366 437
366 440
366 442
366 443
366 444
366 445
366 446
366 447
366 448
366 449
366 450
366 451
366 452
366 453
366 454
366 455
366 456
366 458
366 459
366 460
366 461
366 462
366 463
366 464
366 465
366 466
366 467
366 468
366 469
366 470
366 478
366 479
366 480
366 481
366 482
366 483
366 486
366 487
366 488
366 490
366 491
366 492
366 493
366 494
366 495
366 496
366 497
366 498
366 499
366 500
366 501
366 502
366 511
366 512
366 513
366 514
366 524
366 525
366 526
366 532
366 534
366 536
366 539
366 540
366 541
366 542
366 546
366 547
366 549
366 553
366 556
366 557
366 561
366 562
366 567
366 568
366 571
366 572
366 573
366 574
366 575
366 579
367 368
367 369
367 370
367 371
367 372
367 373
367 374
367 375
367 376
367 377
367 378
367 379
367 380
367 381
367 382
367 383
367 384
367 386
367 387
367 388
367 389
367 390
367 391
367 392
367 393
367 394
367 395
367 396
367 398
367 399
367 400
367 401
367 402
367 403
367 404
367 405
367 406
367 407
367 408
367 409
367 410
367 414
367 417
367 418
367 419
367 420
367 424
367 425
367 426
367 428
367 429
367 430
367 431
367 432
367 433
367 434
367 435
367 436
367 437
367 438
367 439
367 440
367 441
367 443
367 448
367 449
367 450
367 454
367 455
367 457
367 459
367 462
367 467
367 468
367 470
367 478
367 479
367 480
367 481
367 482
367 483
367 486
367 487
367 488
367 489
367 490
367 491
367 493
367 494
367 495
367 496
367 497
367 498
367 499
367 500
367 501
367 502
367 511
367 512
367 513
367 514
367 524
367 525
367 526
367 532
367 534
367 536
367 539
367 540
367 541
367 542
367 546
367 547
367 548
367 550
367 551
367 552
367 553
367 554
367 555
367 556
367 557
367 558
367 559
367 560
367 561
367 562
367 567
367 568
367 571
367 572
367 573
367 574
367 575
367 579
368 369
368 370
368 371
368 372
368 373
368 374
368 375
368 376
368 377
368 378
368 379
368 380
368 381
368 382
368 383
368 384
368 385
368 386
368 388
368 389
368 390
368 391
368 392
368 393
368 394
368 395
368 396
368 397
368 398
368 399
368 401
368 402
368 403
368 404
368 405
368 406
368 407
368 408
368 409
368 410
368 414
368 417
368 418
368 419
368 420
368 424
368 425
368 427
368 429
368 431
368 436
368 437
368 440
368 441
368 443
368 448
368 449
368 450
368 454
368 455
368 456
368 457
368 458
368 460
368 461
368 462
368 463
368 464
368 465
368 466
368 467
368 468
368 469
368 470
368 478
368 479
368 480
368 481
368 482
368 483
368 486
368 487
368 489
368 492
368 495
368 499
368 500
368 501
368 502
368 511
368 512
368 513
368 514
368 524
368 525
368 526
368 532
368 533
368 535
368 536
368 537
368 538
368 539
368 540
368 541
368 542
368 543
368 544
368 545
368 546
368 547
368 549
368 553
368 556
368 557
368 561
368 562
368 567
368 568
368 571
368 572
368 573
368 574
368 575
368 579
369 370
369 371
369 372
369 373
369 374
369 375
369 376
369 377
369 378
369 379
369 380
369 382
369 385
369 387
369 393
369 394
369 397
369 400
369 404
369 406
369 407
369 410
369 414
369 417
369 418
369 419
369 420
369 424
369 425
369 426
369 427
369 428
369 430
369 431
369 432
369 433
369 434
369 435
369 436
369 437
369 438
369 439
369 440
369 441
369 442
369 444
369 445
369 446
369 447
369 448
369 449
369 450
369 451
369 452
369 453
369 454
369 455
369 456
369 457
369 458
369 459
369 460
369 461
369 463
369 464
369 465
369 466
369 467
369 468
369 469
369 470
369 478
369 479
369 480
369 481
369 482
369 483
369 486
369 487
369 488
369 489
369 490
369 491
369 492
369 493
369 494
369 496
369 497
369 498
369 499
369 500
369 501
369 502
369 511
369 512
369 513
369 514
369 524
369 525
369 526
369 532
369 534
369 536
369 539
369 540
369 541
369 542
369 546
369 547
369 549
369 553
369 556
369 557
369 561
369 562
369 567
369 568
369 571
369 572
369 573
369 574
369 575
369 579
370 371
370 372
370 373
370 374
370 375
370 376
370 377
370 378
370 379
370 380
370 382
370 385
370 387
370 393
370 394
370 397
370 400
370 404
370 406
370 407
370 410
370 411
370 412
370 413
370 415
370 416
370 417
370 418
370 419
370 420
370 421
370 422
370 423
370 424
370 425
370 427
370 429
370 431
370 436
370 437
370 440
370 441
370 443
370 448
370 449
370 450
370 454
370 455
370 457
370 459
370 462
370 467
370 468
370 470
370 478
370 479
370 480
370 481
370 482
370 483
370 486
370 487
370 489
370 492
370 495
370 499
370 500
370 501
370 502
370 511
370 512
370 513
370 514
370 524
370 525
370 526
370 532
370 534
370 536
370 539
370 540
370 541
370 542
370 546
370 547
370 548
370 549
370 550
370 551
370 552
370 554
370 555
370 556
370 557
370 558
370 559
370 560
370 561
370 562
370 563
370 564
370 565
370 566
370 568
370 569
370 570
370 571
370 572
370 573
370 574
370 575
370 576
370 577
370 578
370 579
371 372
371 373
371 374
371 375
371 376
371 377
371 378
371 379
371 380
371 382
371 385
371 387
371 393
371 394
371 396
371 397
371 398
371 399
371 400
371 401
371 402
371 403
371 405
371 406
371 407
371 408
371 409
371 410
371 414
371 417
371 418
371 419
371 420
371 424
371 425
371 426
371 427
371 428
371 429
371 430
371 432
371 433
371 434
371 435
371 436
371 437
371 438
371 439
371 440
371 441
371 443
371 448
371 449
371 450
371 454
371 455
371 457
371 459
371 462
371 467
371 468
371 470
371 478
371 479
371 480
371 481
371 482
371 483
371 486
371 487
371 489
371 492
371 495
371 499
371 500
371 501
371 502
371 511
371 512
371 513
371 514
371 524
371 525
371 526
371 532
371 533
371 534
371 535
371 537
371 538
371 539
371 540
371 541
371 542
371 543
371 544
371 545
371 546
371 547
371 549
371 553
371 556
371 557
371 561
371 562
371 563
371 564
371 565
371 566
371 567
371 569
371 570
371 571
371 572
371 573
371 574
371 575
371 576
371 577
371 578
371 579
372 373
372 374
372 375
372 376
372 377
372 378
372 379
372 380
372 382
372 385
372 387
372 393
372 394
372 397
372 400
372 404
372 406
372 407
372 410
372 414
372 417
372 418
372 419
372 420
372 424
372 425
372 426
372 427
372 428
372 429
372 430
372 431
372 432
372 433
372 434
372 435
372 437
372 438
372 439
372 440
372 441
372 443
372 448
372 449
372 450
372 454
372 455
372 457
372 459
372 462
372 467
372 468
372 470
372 471
372 472
372 473
372 474
372 475
372 476
372 477
372 479
372 480
372 481
372 482
372 483
372 484
372 485
372 486
372 487
372 488
372 489
372 490
372 491
372 492
372 493
372 494
372 495
372 496
372 497
372 498
372 500
372 501
372 502
372 511
372 512
372 513
372 514
372 518
372 519
372 520
372 521
372 522
372 523
372 525
372 526
372 527
372 528
372 529
372 530
372 531
372 532
372 533
372 534
372 535
372 536
372 537
372 538
372 540
372 541
372 542
372 543
372 544
372 545
372 546
372 547
372 549
372 553
372 556
372 557
372 561
372 562
372 563
372 564
372 565
372 566
372 567
372 568
372 569
372 570
372 572
372 573
372 574
372 575
372 576
372 577
372 578
372 579
373 374
373 375
373 376
373 377
373 378
373 379
373 380
373 381
373 382
373 383
373 384
373 385
373 386
373 387
373 388
373 389
373 390
373 391
373 392
373 394
373 395
373 396
373 397
373 398
373 399
373 400
373 401
373 402
373 403
373 404
373 405
373 407
373 408
373 409
373 410
373 411
373 412
373 413
373 414
373 415
373 416
373 418
373 419
373 420
373 421
373 422
373 423
373 424
373 425
373 427
373 429
373 431
373 436
373 437
373 440
373 441
373 443
373 448
373 449
373 450
373 454
373 455
373 457
373 459
373 462
373 467
373 468
373 470
373 471
373 472
373 473
373 474
373 475
373 476
373 477
373 478
373 480
373 481
373 482
373 483
373 484
373 485
373 486
373 487
373 489
373 492
373 495
373 499
373 500
373 501
373 502
373 511
373 512
373 513
373 514
373 524
373 525
373 526
373 532
373 534
373 536
373 539
373 540
373 541
373 542
373 546
373 547
373 549
373 553
373 556
373 557
373 561
373 562
373 567
373 568
373 571
373 572
373 573
373 574
373 575
373 579
374 375
374 376
374 377
374 378
374 379
374 380
374 382
374 385
374 387
374 393
374 394
374 397
374 400
374 404
374 406
374 407
374 410
374 414
374 417
374 418
374 419
374 420
374 424
374 425
374 427
374 429
374 431
374 436
374 437
374 440
374 441
374 442
374 443
374 444
374 445
374 446
374 447
374 449
374 450
374 451
374 452
374 453
374 454
374 455
374 456
374 457
374 458
374 459
374 460
374 461
374 462
374 463
374 464
374 465
374 466
374 468
374 469
374 470
374 471
374 472
374 473
374 474
374 475
374 476
374 477
374 478
374 479
374 481
374 482
374 483
374 484
374 485
374 486
374 487
374 488
374 489
374 490
374 491
374 492
374 493
374 494
374 495
374 496
374 497
374 498
374 499
374 501
374 502
374 511
374 512
374 513
374 514
374 524
374 525
374 526
374 532
374 534
374 536
374 539
374 540
374 541
374 542
374 546
374 547
374 548
374 549
374 550
374 551
374 552
374 553
374 554
374 555
374 557
374 558
374 559
374 560
374 561
374 562
374 563
374 564
374 565
374 566
374 567
374 568
374 569
374 570
374 571
374 573
374 574
374 575
374 576
374 577
374 578
374 579
375 376
375 377
375 378
375 379
375 380
375 382
375 385
375 387
375 393
375 394
375 397
375 400
375 404
375 406
375 407
375 410
375 414
375 417
375 418
375 419
375 420
375 424
375 425
375 427
375 429
375 431
375 436
375 437
375 440
375 441
375 442
375 443
375 444
375 445
375 446
375 447
375 448
375 450
375 451
375 452
375 453
375 454
375 455
375 457
375 459
375 462
375 467
375 468
375 470
375 471
375 472
375 473
375 474
375 475
375 476
375 477
375 478
375 479
375 480
375 482
375 483
375 484
375 485
375 486
375 487
375 489
375 492
375 495
375 499
375 500
375 501
375 502
375 503
375 504
375 505
375 506
375 507
375 508
375 509
375 510
375 512
375 513
375 514
375 515
375 516
375 517
375 524
375 525
375 526
375 532
375 533
375 534
375 535
375 536
375 537
375 538
375 539
375 541
375 542
375 543
375 544
375 545
375 546
375 547
375 548
375 549
375 550
375 551
375 552
375 553
375 554
375 555
375 556
375 558
375 559
375 560
375 561
375 562
375 563
375 564
375 565
375 566
375 567
375 568
375 569
375 570
375 571
375 572
375 574
375 575
375 576
375 577
375 578
375 579
376 377
376 378
376 379
376 380
376 381
376 382
376 383
376 384
376 385
376 386
376 387
376 388
376 389
376 390
376 391
376 392
376 393
376 395
376 396
376 397
376 398
376 399
376 400
376 401
376 402
376 403
376 404
376 405
376 406
376 408
376 409
376 410
376 411
376 412
376 413
376 414
376 415
376 416
376 417
376 419
376 420
376 421
376 422
376 423
376 424
376 425
376 427
376 429
376 431
376 436
376 437
376 440
376 441
376 442
376 443
376 444
376 445
376 446
376 447
376 448
376 449
376 451
376 452
376 453
376 454
376 455
376 457
376 459
376 462
376 467
376 468
376 470
376 471
376 472
376 473
376 474
376 475
376 476
376 477
376 478
376 479
376 480
376 481
376 483
376 484
376 485
376 486
376 487
376 489
376 492
376 495
376 499
376 500
376 501
376 502
376 503
376 504
376 505
376 506
376 507
376 508
376 509
376 510
376 511
376 513
376 514
376 515
376 516
376 517
376 524
376 525
376 526
376 532
376 533
376 534
376 535
376 536
376 537
376 538
376 539
376 540
376 542
376 543
376 544
376 545
376 546
376 547
376 549
376 553
376 556
376 557
376 561
376 562
376 563
376 564
376 565
376 566
376 567
376 568
376 569
376 570
376 571
376 572
376 573
376 575
376 576
376 577
376 578
376 579
377 378
377 379
377 380
377 382
377 385
377 387
377 393
377 394
377 397
377 400
377 404
377 406
377 407
377 410
377 411
377 412
377 413
377 414
377 415
377 416
377 417
377 418
377 420
377 421
377 422
377 423
377 424
377 425
377 427
377 429
377 431
377 436
377 437
377 440
377 441
377 443
377 448
377 449
377 450
377 454
377 455
377 456
377 457
377 458
377 459
377 460
377 461
377 462
377 463
377 464
377 465
377 466
377 467
377 469
377 470
377 471
377 472
377 473
377 474
377 475
377 476
377 477
377 478
377 479
377 480
377 481
377 482
377 484
377 485
377 486
377 487
377 489
377 492
377 495
377 499
377 500
377 501
377 502
377 503
377 504
377 505
377 506
377 507
377 508
377 509
377 510
377 511
377 512
377 514
377 515
377 516
377 517
377 518
377 519
377 520
377 521
377 522
377 523
377 524
377 526
377 527
377 528
377 529
377 530
377 531
377 532
377 533
377 534
377 535
377 536
377 537
377 538
377 539
377 540
377 541
377 543
377 544
377 545
377 546
377 547
377 549
377 553
377 556
377 557
377 561
377 562
377 567
377 568
377 571
377 572
377 573
377 574
377 575
377 579
378 379
378 380
378 382
378 385
378 387
378 393
378 394
378 397
378 400
378 404
378 406
378 407
378 410
378 411
378 412
378 413
378 414
378 415
378 416
378 417
378 418
378 419
378 421
378 422
378 423
378 424
378 425
378 426
378 427
378 428
378 429
378 430
378 431
378 432
378 433
378 434
378 435
378 436
378 438
378 439
378 440
378 441
378 443
378 448
378 449
378 450
378 454
378 455
378 457
378 459
378 462
378 467
378 468
378 470
378 478
378 479
378 480
378 481
378 482
378 483
378 486
378 487
378 488
378 489
378 490
378 491
378 492
378 493
378 494
378 495
378 496
378 497
378 498
378 499
378 500
378 502
378 503
378 504
378 505
378 506
378 507
378 508
378 509
378 510
378 511
378 512
378 513
378 515
378 516
378 517
378 518
378 519
378 520
378 521
378 522
378 523
378 524
378 525
378 527
378 528
378 529
378 530
378 531
378 532
378 534
378 536
378 539
378 540
378 541
378 542
378 546
378 547
378 549
378 553
378 556
378 557
378 561
378 562
378 563
378 564
378 565
378 566
378 567
378 568
378 569
378 570
378 571
378 572
378 573
378 574
378 576
378 577
378 578
378 579
379 380
379 382
379 385
379 387
379 393
379 394
379 397
379 400
379 404
379 406
379 407
379 410
379 411
379 412
379 413
379 414
379 415
379 416
379 417
379 418
379 419
379 420
379 421
379 422
379 423
379 425
379 427
379 429
379 431
379 436
379 437
379 440
379 441
379 442
379 443
379 444
379 445
379 446
379 447
379 448
379 449
379 450
379 451
379 452
379 453
379 455
379 456
379 457
379 458
379 459
379 460
379 461
379 462
379 463
379 464
379 465
379 466
379 467
379 468
379 469
379 471
379 472
379 473
379 474
379 475
379 476
379 477
379 478
379 479
379 480
379 481
379 482
379 483
379 484
379 485
379 487
379 488
379 489
379 490
379 491
379 492
379 493
379 494
379 495
379 496
379 497
379 498
379 499
379 500
379 501
379 511
379 512
379 513
379 514
379 524
379 525
379 526
379 532
379 533
379 534
379 535
379 536
379 537
379 538
379 539
379 540
379 541
379 542
379 543
379 544
379 545
379 547
379 548
379 549
379 550
379 551
379 552
379 553
379 554
379 555
379 556
379 557
379 558
379 559
379 560
379 562
379 563
379 564
379 565
379 566
379 567
379 568
379 569
379 570
379 571
379 572
379 573
379 574
379 575
379 576
379 577
379 578
380 382
380 385
380 387
380 393
380 394
380 396
380 397
380 398
380 399
380 400
380 401
380 402
380 403
380 404
380 405
380 406
380 407
380 408
380 409
380 411
380 412
380 413
380 414
380 415
380 416
380 417
380 418
380 419
380 420
380 421
380 422
380 423
380 424
380 426
380 427
380 428
380 429
380 430
380 431
380 432
380 433
380 434
380 435
380 436
380 437
380 438
380 439
380 441
380 442
380 443
380 444
380 445
380 446
380 447
380 448
380 449
380 450
380 451
380 452
380 453
380 454
380 457
380 459
380 462
380 467
380 468
380 470
380 471
380 472
380 473
380 474
380 475
380 476
380 477
380 478
380 479
380 480
380 481
380 482
380 483
380 484
380 485
380 486
380 489
380 492
380 495
380 499
380 500
380 501
380 502
380 511
380 512
380 513
380 514
380 518
380 519
380 520
380 521
380 522
380 523
380 524
380 525
380 526
380 527
380 528
380 529
380 530
380 531
380 533
380 534
380 535
380 536
380 537
380 538
380 539
380 540
380 541
380 542
380 543
380 544
380 545
380 546
380 548
380 549
380 550
380 551
380 552
380 553
380 554
380 555
380 556
380 557
380 558
380 559
380 560
380 561
380 567
380 568
380 571
380 572
380 573
380 574
380 575
380 579
381 382
381 383
381 384
381 385
381 386
381 387
381 388
381 389
381 390
381 391
381 392
381 393
381 394
381 395
381 396
381 397
381 399
381 400
381 401
381 403
381 406
381 407
381 411
381 412
381 413
381 417
381 418
381 423
381 427
381 428
381 430
381 434
381 441
381 442
381 445
381 450
381 452
381 457
381 458
381 459
381 460
381 461
381 462
381 463
381 464
381 465
381 466
381 467
381 468
381 469
381 470
381 472
381 473
381 474
381 475
381 476
381 477
381 478
381 479
381 480
381 481
381 482
381 483
381 484
381 485
381 486
381 487
381 489
381 490
381 491
381 492
381 493
381 494
381 495
381 496
381 497
381 498
381 499
381 500
381 501
381 502
381 504
381 505
381 506
381 507
381 508
381 509
381 510
381 511
381 512
381 513
381 514
381 515
381 516
381 517
381 518
381 522
381 523
381 530
381 534
381 535
381 538
381 541
381 549
381 550
381 551
381 552
381 553
381 554
381 555
381 556
381 557
381 558
381 559
381 560
381 561
381 562
381 563
381 565
381 569
381 574
381 577
382 383
382 384
382 385
382 386
382 387
382 388
382 389
382 390
382 391
382 392
382 393
382 394
382 395
382 396
382 397
382 399
382 400
382 401
382 403
382 406
382 407
382 411
382 412
382 413
382 417
382 418
382 423
382 427
382 428
382 430
382 434
382 442
382 443
382 444
382 445
382 446
382 447
382 448
382 449
382 450
382 451
382 452
382 453
382 454
382 455
382 456
382 458
382 459
382 460
382 461
382 462
382 463
382 464
382 465
382 466
382 467
382 468
382 469
382 470
382 471
382 472
382 473
382 475
382 476
382 479
382 482
382 488
382 490
382 491
382 492
382 493
382 494
382 495
382 496
382 497
382 498
382 499
382 500
382 501
382 502
382 503
382 504
382 506
382 507
382 508
382 512
382 518
382 522
382 523
382 530
382 534
382 535
382 538
382 541
382 548
382 549
382 552
382 555
382 559
382 563
382 565
382 569
382 574
382 577
383 384
383 385
383 386
383 387
383 388
383 389
383 390
383 391
383 392
383 393
383 394
383 395
383 396
383 397
383 399
383 400
383 401
383 403
383 406
383 407
383 412
383 413
383 414
383 415
383 416
383 417
383 418
383 419
383 420
383 421
383 422
383 423
383 424
383 425
383 427
383 428
383 430
383 434
383 441
383 442
383 445
383 450
383 452
383 456
383 457
383 458
383 459
383 460
383 463
383 466
383 471
383 472
383 473
383 475
383 476
383 479
383 482
383 488
383 489
383 490
383 492
383 493
383 494
383 495
383 496
383 497
383 498
383 499
383 500
383 501
383 502
383 503
383 504
383 506
383 507
383 508
383 512
383 518
383 522
383 523
383 530
383 534
383 535
383 538
383 541
383 548
383 549
383 552
383 555
383 559
383 564
383 565
383 566
383 567
383 568
383 569
383 570
383 571
383 572
383 573
383 574
383 575
383 576
383 577
383 578
383 579
384 385
384 386
384 387
384 388
384 389
384 390
384 391
384 392
384 393
384 394
384 395
384 397
384 398
384 399
384 400
384 401
384 402
384 403
384 404
384 405
384 406
384 407
384 408
384 409
384 410
384 411
384 412
384 413
384 417
384 418
384 423
384 427
384 428
384 430
384 434
384 441
384 442
384 445
384 450
384 452
384 456
384 457
384 458
384 459
384 460
384 463
384 466
384 471
384 473
384 474
384 475
384 476
384 477
384 478
384 479
384 480
384 481
384 482
384 483
384 484
384 485
384 486
384 487
384 488
384 489
384 491
384 492
384 493
384 496
384 497
384 503
384 505
384 506
384 507
384 508
384 509
384 510
384 511
384 512
384 513
384 514
384 515
384 516
384 517
384 519
384 520
384 521
384 522
384 523
384 524
384 525
384 526
384 527
384 528
384 529
384 530
384 531
384 532
384 534
384 535
384 538
384 541
384 548
384 549
384 552
384 555
384 559
384 563
384 565
384 569
384 574
384 577
385 386
385 387
385 388
385 389
385 390
385 391
385 392
385 393
385 394
385 395
385 396
385 398
385 399
385 400
385 401
385 402
385 403
385 404
385 405
385 406
385 407
385 408
385 409
385 410
385 411
385 412
385 413
385 417
385 418
385 423
385 426
385 428
385 429
385 430
385 431
385 432
385 433
385 434
385 435
385 436
385 437
385 438
385 439
385 440
385 441
385 442
385 445
385 450
385 452
385 456
385 457
385 458
385 459
385 460
385 463
385 466
385 471
385 472
385 473
385 475
385 476
385 479
385 482
385 488
385 489
385 490
385 491
385 493
385 494
385 495
385 496
385 497
385 498
385 499
385 500
385 501
385 502
385 503
385 504
385 506
385 507
385 508
385 512
385 518
385 522
385 523
385 530
385 534
385 535
385 538
385 541
385 548
385 550
385 551
385 552
385 553
385 554
385 555
385 556
385 557
385 558
385 559
385 560
385 561
385 562
385 563
385 565
385 569
385 574
385 577
386 387
386 388
386 389
386 390
386 391
386 392
386 393
386 394
386 395
386 396
386 397
386 398
386 400
386 401
386 402
386 403
386 404
386 405
386 406
386 407
386 408
386 409
386 410
386 411
386 412
386 413
386 417
386 418
386 423
386 427
386 428
386 430
386 434
386 441
386 443
386 444
386 445
386 446
386 447
386 448
386 449
386 450
386 451
386 452
386 453
386 454
386 455
386 456
386 457
386 459
386 460
386 461
386 462
386 463
386 464
386 465
386 466
386 467
386 468
386 469
386 470
386 471
386 472
386 474
386 475
386 476
386 477
386 478
386 479
386 480
386 481
386 482
386 483
386 484
386 485
386 486
386 487
386 488
386 489
386 491
386 492
386 493
386 496
386 497
386 503
386 504
386 506
386 507
386 508
386 512
386 518
386 522
386 523
386 530
386 534
386 535
386 538
386 541
386 548
386 549
386 552
386 555
386 559
386 563
386 565
386 569
386 574
386 577
387 388
387 389
387 390
387 391
387 392
387 393
387 394
387 395
387 396
387 397
387 398
387 399
387 401
387 402
387 403
387 404
387 405
387 406
387 407
387 408
387 409
387 410
387 411
387 412
387 413
387 417
387 418
387 423
387 427
387 428
387 430
387 434
387 441
387 442
387 445
387 450
387 452
387 456
387 457
387 458
387 460
387 461
387 462
387 463
387 464
387 465
387 466
387 467
387 468
387 469
387 470
387 471
387 472
387 473
387 475
387 476
387 479
387 482
387 488
387 489
387 491
387 492
387 493
387 496
387 497
387 503
387 504
387 506
387 507
387 508
387 512
387 518
387 522
387 523
387 530
387 533
387 535
387 536
387 537
387 538
387 539
387 540
387 541
387 542
387 543
387 544
387 545
387 546
387 547
387 548
387 549
387 552
387 555
387 559
387 563
387 565
387 569
387 574
387 577
388 389
388 390
388 391
388 392
388 393
388 394
388 395
388 396
388 397
388 398
388 399
388 400
388 402
388 403
388 404
388 405
388 406
388 407
388 408
388 409
388 410
388 411
388 413
388 414
388 415
388 416
388 417
388 418
388 419
388 420
388 421
388 422
388 423
388 424
388 425
388 426
388 427
388 429
388 430
388 431
388 432
388 433
388 434
388 435
388 436
388 437
388 438
388 439
388 440
388 441
388 442
388 445
388 450
388 452
388 456
388 457
388 458
388 459
388 461
388 462
388 463
388 464
388 465
388 466
388 467
388 468
388 469
388 470
388 471
388 472
388 473
388 475
388 476
388 479
388 482
388 488
388 489
388 490
388 491
388 492
388 494
388 495
388 496
388 497
388 498
388 499
388 500
388 501
388 502
388 503
388 504
388 505
388 507
388 508
388 509
388 510
388 511
388 512
388 513
388 514
388 515
388 516
388 517
388 518
388 522
388 523
388 530
388 534
388 535
388 538
388 541
388 548
388 549
388 552
388 555
388 559
388 563
388 564
388 566
388 567
388 568
388 569
388 570
388 571
388 572
388 573
388 574
388 575
388 576
388 577
388 578
388 579
389 390
389 391
389 392
389 393
389 394
389 395
389 396
389 397
389 399
389 400
389 401
389 403
389 406
389 407
389 411
389 412
389 414
389 415
389 416
389 417
389 418
389 419
389 420
389 421
389 422
389 423
389 424
389 425
389 427
389 428
389 430
389 434
389 441
389 442
389 445
389 450
389 452
389 456
389 457
389 458
389 459
389 460
389 461
389 462
389 464
389 465
389 466
389 467
389 468
389 469
389 470
389 471
389 472
389 473
389 475
389 476
389 479
389 482
389 488
389 489
389 491
389 492
389 493
389 496
389 497
389 503
389 504
389 505
389 506
389 508
389 509
389 510
389 511
389 512
389 513
389 514
389 515
389 516
389 517
389 518
389 522
389 523
389 530
389 534
389 535
389 538
389 541
389 548
389 549
389 550
389 551
389 553
389 554
389 555
389 556
389 557
389 558
389 559
389 560
389 561
389 562
389 563
389 565
389 569
389 574
389 577
390 391
390 392
390 393
390 394
390 395
390 396
390 397
390 399
390 400
390 401
390 403
390 406
390 407
390 411
390 412
390 413
390 417
390 418
390 423
390 427
390 428
390 430
390 434
390 441
390 442
390 445
390 450
390 452
390 456
390 457
390 458
390 459
390 460
390 463
390 466
390 471
390 472
390 473
390 474
390 476
390 477
390 478
390 479
390 480
390 481
390 482
390 483
390 484
390 485
390 486
390 487
390 488
390 489
390 490
390 491
390 492
390 493
390 494
390 495
390 497
390 498
390 499
390 500
390 501
390 502
390 503
390 504
390 505
390 506
390 507
390 509
390 510
390 511
390 512
390 513
390 514
390 515
390 516
390 517
390 518
390 522
390 523
390 530
390 533
390 534
390 536
390 537
390 538
390 539
390 540
390 541
390 542
390 543
390 544
390 545
390 546
390 547
390 548
390 549
390 552
390 555
390 559
390 563
390 565
390 569
390 574
390 577
391 392
391 393
391 394
391 395
391 396
391 397
391 398
391 399
391 400
391 401
391 402
391 404
391 405
391 406
391 407
391 408
391 409
391 410
391 411
391 412
391 413
391 417
391 418
391 423
391 426
391 427
391 428
391 429
391 431
391 432
391 433
391 434
391 435
391 436
391 437
391 438
391 439
391 440
391 441
391 442
391 443
391 444
391 446
391 447
391 448
391 449
391 450
391 451
391 452
391 453
391 454
391 455
391 456
391 457
391 458
391 459
391 460
391 463
391 466
391 471
391 472
391 473
391 474
391 475
391 477
391 478
391 479
391 480
391 481
391 482
391 483
391 484
391 485
391 486
391 487
391 488
391 489
391 490
391 491
391 492
391 493
391 494
391 495
391 496
391 498
391 499
391 500
391 501
391 502
391 503
391 504
391 506
391 507
391 508
391 512
391 518
391 519
391 520
391 521
391 523
391 524
391 525
391 526
391 527
391 528
391 529
391 530
391 531
391 532
391 534
391 535
391 538
391 541
391 548
391 549
391 552
391 555
391 559
391 563
391 565
391 569
391 574
391 577
392 393
392 394
392 395
392 396
392 397
392 399
392 400
392 401
392 403
392 406
392 407
392 411
392 412
392 413
392 417
392 418
392 423
392 426
392 427
392 428
392 429
392 430
392 431
392 432
392 433
392 435
392 436
392 437
392 438
392 439
392 440
392 441
392 442
392 445
392 450
392 452
392 456
392 457
392 458
392 459
392 460
392 461
392 462
392 463
392 464
392 465
392 467
392 468
392 469
392 470
392 471
392 472
392 473
392 475
392 476
392 479
392 482
392 488
392 489
392 491
392 492
392 493
392 496
392 497
392 503
392 504
392 506
392 507
392 508
392 512
392 518
392 519
392 520
392 521
392 522
392 524
392 525
392 526
392 527
392 528
392 529
392 530
392 531
392 532
392 533
392 534
392 535
392 536
392 537
392 539
392 540
392 541
392 542
392 543
392 544
392 545
392 546
392 547
392 548
392 549
392 550
392 551
392 552
392 553
392 554
392 556
392 557
392 558
392 559
392 560
392 561
392 562
392 563
392 564
392 565
392 566
392 567
392 568
392 570
392 571
392 572
392 573
392 574
392 575
392 576
392 577
392 578
392 579
393 394
393 395
393 396
393 397
393 398
393 399
393 400
393 401
393 402
393 403
393 404
393 405
393 407
393 408
393 409
393 410
393 411
393 412
393 413
393 414
393 415
393 416
393 418
393 419
393 420
393 421
393 422
393 423
393 424
393 425
393 427
393 428
393 430
393 434
393 441
393 442
393 445
393 450
393 452
393 456
393 457
393 458
393 459
393 460
393 463
393 466
393 471
393 472
393 473
393 474
393 475
393 476
393 477
393 478
393 480
393 481
393 482
393 483
393 484
393 485
393 486
393 487
393 488
393 489
393 491
393 492
393 493
393 496
393 497
393 503
393 504
393 506
393 507
393 508
393 512
393 518
393 522
393 523
393 530
393 534
393 535
393 538
393 541
393 548
393 549
393 552
393 555
393 559
393 563
393 565
393 569
393 574
393 577
394 395
394 396
394 397
394 398
394 399
394 400
394 401
394 402
394 403
394 404
394 405
394 406
394 408
394 409
394 410
394 411
394 412
394 413
394 414
394 415
394 416
394 417
394 419
394 420
394 421
394 422
394 423
394 424
394 425
394 427
394 428
394 430
394 434
394 441
394 442
394 443
394 444
394 445
394 446
394 447
394 448
394 449
394 451
394 452
394 453
394 454
394 455
394 456
394 457
394 458
394 459
394 460
394 463
394 466
394 471
394 472
394 473
394 474
394 475
394 476
394 477
394 478
394 479
394 480
394 481
394 483
394 484
394 485
394 486
394 487
394 488
394 489
394 491
394 492
394 493
394 496
394 497
394 503
394 504
394 505
394 506
394 507
394 508
394 509
394 510
394 511
394 513
394 514
394 515
394 516
394 517
394 518
394 522
394 523
394 530
394 533
394 534
394 535
394 536
394 537
394 538
394 539
394 540
394 542
394 543
394 544
394 545
394 546
394 547
394 548
394 549
394 552
394 555
394 559
394 563
394 564
394 565
394 566
394 567
394 568
394 569
394 570
394 571
394 572
394 573
394 575
394 576
394 577
394 578
394 579
395 396
395 397
395 399
395 400
395 401
395 403
395 406
395 407
395 411
395 412
395 413
395 414
395 415
395 416
395 417
395 418
395 419
395 420
395 421
395 422
395 424
395 425
395 427
395 428
395 430
395 434
395 441
395 442
395 443
395 444
395 445
395 446
395 447
395 448
395 449
395 450
395 451
395 453
395 454
395 455
395 456
395 457
395 458
395 459
395 460
395 463
395 466
395 471
395 472
395 473
395 475
395 476
395 479
395 482
395 488
395 489
395 491
395 492
395 493
395 496
395 497
395 503
395 504
395 506
395 507
395 508
395 512
395 518
395 519
395 520
395 521
395 522
395 523
395 524
395 525
395 526
395 527
395 528
395 529
395 531
395 532
395 534
395 535
395 538
395 541
395 548
395 549
395 550
395 551
395 552
395 553
395 554
395 555
395 556
395 557
395 558
395 560
395 561
395 562
395 563
395 564
395 565
395 566
395 567
395 568
395 569
395 570
395 571
395 572
395 573
395 574
395 575
395 576
395 578
395 579
396 397
396 398
396 399
396 400
396 401
396 402
396 403
396 404
396 405
396 406
396 407
396 408
396 409
396 410
396 412
396 416
396 417
396 418
396 422
396 425
396 427
396 428
396 430
396 431
396 435
396 438
396 440
396 442
396 445
396 447
396 450
396 455
396 458
396 459
396 460
396 461
396 471
396 473
396 474
396 475
396 476
396 477
396 478
396 479
396 480
396 481
396 482
396 483
396 484
396 485
396 486
396 487
396 492
396 493
396 494
396 497
396 503
396 505
396 506
396 507
396 508
396 509
396 510
396 511
396 512
396 513
396 514
396 515
396 516
396 517
396 519
396 520
396 521
396 522
396 523
396 524
396 525
396 526
396 527
396 528
396 529
396 530
396 531
396 532
396 534
396 536
396 541
396 544
396 547
396 549
396 550
396 551
396 558
396 562
396 564
396 565
396 568
396 570
396 574
396 576
397 398
397 399
397 400
397 401
397 402
397 403
397 404
397 405
397 406
397 407
397 408
397 409
397 410
397 412
397 416
397 417
397 418
397 422
397 425
397 426
397 428
397 429
397 430
397 431
397 432
397 433
397 434
397 435
397 436
397 437
397 438
397 439
397 440
397 442
397 445
397 447
397 450
397 455
397 458
397 459
397 460
397 461
397 472
397 473
397 474
397 476
397 477
397 479
397 482
397 484
397 487
397 488
397 489
397 490
397 491
397 493
397 494
397 495
397 496
397 497
397 498
397 499
397 500
397 501
397 502
397 504
397 505
397 506
397 512
397 515
397 517
397 518
397 519
397 520
397 522
397 527
397 529
397 532
397 534
397 536
397 541
397 544
397 547
397 548
397 550
397 551
397 552
397 553
397 554
397 555
397 556
397 557
397 558
397 559
397 560
397 561
397 562
397 564
397 565
397 568
397 570
397 574
397 576
398 399
398 400
398 401
398 402
398 403
398 404
398 405
398 406
398 407
398 408
398 409
398 410
398 412
398 416
398 417
398 418
398 422
398 425
398 427
398 428
398 430
398 431
398 435
398 438
398 440
398 442
398 445
398 447
398 450
398 455
398 458
398 459
398 460
398 461
398 472
398 473
398 474
398 476
398 477
398 479
398 482
398 484
398 487
398 492
398 493
398 494
398 497
398 503
398 504
398 506
398 507
398 508
398 509
398 510
398 511
398 512
398 513
398 514
398 515
398 516
398 517
398 518
398 520
398 521
398 522
398 523
398 524
398 525
398 526
398 527
398 528
398 529
398 530
398 531
398 532
398 534
398 536
398 541
398 544
398 547
398 548
398 549
398 551
398 552
398 553
398 554
398 555
398 556
398 557
398 558
398 559
398 560
398 561
398 562
398 563
398 565
398 566
398 567
398 568
398 569
398 570
398 571
398 572
398 573
398 574
398 575
398 576
398 577
398 578
398 579
399 400
399 401
399 402
399 403
399 404
399 405
399 406
399 407
399 408
399 409
399 410
399 412
399 416
399 417
399 418
399 422
399 425
399 427
399 428
399 430
399 431
399 435
399 438
399 440
399 441
399 443
399 444
399 445
399 446
399 447
399 448
399 449
399 450
399 451
399 452
399 453
399 454
399 455
399 456
399 457
399 459
399 460
399 461
399 462
399 463
399 464
399 465
399 466
399 467
399 468
399 469
399 470
399 471
399 472
399 474
399 475
399 476
399 477
399 478
399 479
399 480
399 481
399 482
399 483
399 484
399 485
399 486
399 487
399 492
399 493
399 494
399 497
399 504
399 505
399 506
399 512
399 515
399 517
399 518
399 519
399 520
399 522
399 527
399 529
399 532
399 534
399 536
399 541
399 544
399 547
399 549
399 550
399 551
399 558
399 562
399 564
399 565
399 568
399 570
399 574
399 576
400 401
400 402
400 403
400 404
400 405
400 406
400 407
400 408
400 409
400 410
400 412
400 416
400 417
400 418
400 422
400 425
400 427
400 428
400 430
400 431
400 435
400 438
400 440
400 442
400 445
400 447
400 450
400 455
400 456
400 457
400 458
400 460
400 461
400 462
400 463
400 464
400 465
400 466
400 467
400 468
400 469
400 470
400 472
400 473
400 474
400 476
400 477
400 479
400 482
400 484
400 487
400 492
400 493
400 494
400 497
400 504
400 505
400 506
400 512
400 515
400 517
400 518
400 519
400 520
400 522
400 527
400 529
400 532
400 533
400 535
400 536
400 537
400 538
400 539
400 540
400 541
400 542
400 543
400 544
400 545
400 546
400 547
400 549
400 550
400 551
400 558
400 562
400 564
400 565
400 568
400 570
400 574
400 576
401 402
401 403
401 404
401 405
401 406
401 407
401 408
401 409
401 410
401 411
401 413
401 414
401 415
401 416
401 417
401 418
401 419
401 420
401 421
401 422
401 423
401 424
401 425
401 426
401 427
401 429
401 430
401 431
401 432
401 433
401 434
401 435
401 436
401 437
401 438
401 439
401 440
401 442
401 445
401 447
401 450
401 455
401 456
401 457
401 458
401 459
401 461
401 462
401 463
401 464
401 465
401 466
401 467
401 468
401 469
401 470
401 472
401 473
401 474
401 476
401 477
401 479
401 482
401 484
401 487
401 488
401 489
401 490
401 491
401 492
401 494
401 495
401 496
401 497
401 498
401 499
401 500
401 501
401 502
401 503
401 504
401 505
401 507
401 508
401 509
401 510
401 511
401 512
401 513
401 514
401 515
401 516
401 517
401 518
401 519
401 520
401 522
401 527
401 529
401 532
401 534
401 536
401 541
401 544
401 547
401 549
401 550
401 551
401 558
401 562
401 563
401 564
401 566
401 567
401 568
401 569
401 570
401 571
401 572
401 573
401 574
401 575
401 576
401 577
401 578
401 579
402 403
402 404
402 405
402 406
402 407
402 408
402 409
402 410
402 412
402 416
402 417
402 418
402 422
402 425
402 427
402 428
402 430
402 431
402 435
402 438
402 440
402 442
402 445
402 447
402 450
402 455
402 456
402 457
402 458
402 459
402 460
402 462
402 463
402 464
402 465
402 466
402 467
402 468
402 469
402 470
402 471
402 472
402 473
402 475
402 476
402 477
402 478
402 479
402 480
402 481
402 482
402 483
402 484
402 485
402 486
402 487
402 488
402 489
402 490
402 491
402 492
402 493
402 495
402 496
402 497
402 498
402 499
402 500
402 501
402 502
402 504
402 505
402 506
402 512
402 515
402 517
402 518
402 519
402 521
402 522
402 523
402 524
402 525
402 526
402 527
402 528
402 529
402 530
402 531
402 532
402 534
402 536
402 541
402 544
402 547
402 548
402 549
402 550
402 552
402 553
402 554
402 555
402 556
402 557
402 558
402 559
402 560
402 561
402 562
402 564
402 565
402 568
402 570
402 574
402 576
403 404
403 405
403 406
403 407
403 408
403 409
403 410
403 412
403 416
403 417
403 418
403 422
403 425
403 426
403 427
403 428
403 429
403 431
403 432
403 433
403 434
403 435
403 436
403 437
403 438
403 439
403 440
403 441
403 442
403 443
403 444
403 446
403 447
403 448
403 449
403 450
403 451
403 452
403 453
403 454
403 455
403 458
403 459
403 460
403 461
403 471
403 472
403 473
403 474
403 475
403 477
403 478
403 479
403 480
403 481
403 482
403 483
403 484
403 485
403 486
403 487
403 488
403 489
403 490
403 491
403 492
403 493
403 494
403 495
403 496
403 498
403 499
403 500
403 501
403 502
403 504
403 505
403 506
403 512
403 515
403 517
403 518
403 519
403 520
403 521
403 523
403 524
403 525
403 526
403 527
403 528
403 529
403 530
403 531
403 532
403 534
403 536
403 541
403 544
403 547
403 549
403 550
403 551
403 558
403 562
403 564
403 565
403 568
403 570
403 574
403 576
404 405
404 406
404 407
404 408
404 409
404 410
404 412
404 416
404 417
404 418
404 422
404 425
404 426
404 427
404 428
404 429
404 430
404 432
404 433
404 434
404 435
404 436
404 437
404 438
404 439
404 440
404 442
404 445
404 447
404 450
404 455
404 458
404 459
404 460
404 461
404 472
404 473
404 474
404 476
404 477
404 479
404 482
404 484
404 487
404 492
404 493
404 494
404 497
404 504
404 505
404 506
404 512
404 515
404 517
404 518
404 519
404 520
404 522
404 527
404 529
404 532
404 533
404 534
404 535
404 537
404 538
404 539
404 540
404 541
404 542
404 543
404 544
404 545
404 546
404 547
404 549
404 550
404 551
404 558
404 562
404 563
404 564
404 565
404 566
404 567
404 569
404 570
404 571
404 572
404 573
404 574
404 575
404 576
404 577
404 578
404 579
405 406
405 407
405 408
405 409
405 410
405 411
405 412
405 413
405 414
405 415
405 417
405 418
405 419
405 420
405 421
405 422
405 423
405 424
405 425
405 426
405 427
405 428
405 429
405 430
405 431
405 432
405 433
405 434
405 436
405 437
405 438
405 439
405 440
405 441
405 442
405 443
405 444
405 445
405 446
405 448
405 449
405 450
405 451
405 452
405 453
405 454
405 455
405 458
405 459
405 460
405 461
405 471
405 472
405 473
405 474
405 475
405 476
405 478
405 479
405 480
405 481
405 482
405 483
405 484
405 485
405 486
405 487
405 492
405 493
405 494
405 497
405 504
405 505
405 506
405 512
405 515
405 517
405 518
405 519
405 520
405 522
405 527
405 529
405 532
405 534
405 536
405 541
405 544
405 547
405 549
405 550
405 551
405 558
405 562
405 563
405 564
405 565
405 566
405 567
405 568
405 569
405 571
405 572
405 573
405 574
405 575
405 576
405 577
405 578
405 579
406 407
406 408
406 409
406 410
406 411
406 412
406 413
406 414
406 415
406 416
406 418
406 419
406 420
406 421
406 422
406 423
406 424
406 425
406 427
406 428
406 430
406 431
406 435
406 438
406 440
406 442
406 445
406 447
406 450
406 455
406 458
406 459
406 460
406 461
406 471
406 472
406 473
406 474
406 475
406 476
406 477
406 478
406 480
406 481
406 482
406 483
406 484
406 485
406 486
406 487
406 492
406 493
406 494
406 497
406 504
406 505
406 506
406 512
406 515
406 517
406 518
406 519
406 520
406 522
406 527
406 529
406 532
406 534
406 536
406 541
406 544
406 547
406 549
406 550
406 551
406 558
406 562
406 564
406 565
406 568
406 570
406 574
406 576
407 408
407 409
407 410
407 411
407 412
407 413
407 414
407 415
407 416
407 417
407 419
407 420
407 421
407 422
407 423
407 424
407 425
407 427
407 428
407 430
407 431
407 435
407 438
407 440
407 441
407 442
407 443
407 444
407 445
407 446
407 447
407 448
407 449
407 451
407 452
407 453
407 454
407 455
407 458
407 459
407 460
407 461
407 471
407 472
407 473
407 474
407 475
407 476
407 477
407 478
407 479
407 480
407 481
407 483
407 484
407 485
407 486
407 487
407 492
407 493
407 494
407 497
407 503
407 504
407 505
407 506
407 507
407 508
407 509
407 510
407 511
407 513
407 514
407 515
407 516
407 517
407 518
407 519
407 520
407 522
407 527
407 529
407 532
407 533
407 534
407 535
407 536
407 537
407 538
407 539
407 540
407 542
407 543
407 544
407 545
407 546
407 547
407 549
407 550
407 551
407 558
407 562
407 563
407 564
407 565
407 566
407 567
407 568
407 569
407 570
407 571
407 572
407 573
407 575
407 576
407 577
407 578
407 579
408 409
408 410
408 412
408 416
408 417
408 418
408 422
408 425
408 426
408 427
408 428
408 429
408 430
408 431
408 432
408 433
408 434
408 435
408 436
408 437
408 439
408 440
408 442
408 445
408 447
408 450
408 455
408 458
408 459
408 460
408 461
408 471
408 472
408 473
408 474
408 475
408 476
408 477
408 478
408 479
408 480
408 481
408 482
408 483
408 485
408 486
408 487
408 492
408 493
408 494
408 497
408 503
408 504
408 505
408 506
408 507
408 508
408 509
408 510
408 511
408 512
408 513
408 514
408 516
408 517
408 518
408 519
408 520
408 521
408 522
408 523
408 524
408 525
408 526
408 528
408 529
408 530
408 531
408 532
408 534
408 536
408 541
408 544
408 547
408 549
408 550
408 551
408 558
408 562
408 563
408 564
408 565
408 566
408 567
408 568
408 569
408 570
408 571
408 572
408 573
408 574
408 575
408 577
408 578
408 579
409 410
409 411
409 412
409 413
409 414
409 415
409 416
409 417
409 418
409 419
409 420
409 421
409 423
409 424
409 425
409 427
409 428
409 430
409 431
409 435
409 438
409 440
409 442
409 445
409 447
409 450
409 455
409 458
409 459
409 460
409 461
409 472
409 473
409 474
409 476
409 477
409 479
409 482
409 484
409 487
409 492
409 493
409 494
409 497
409 503
409 504
409 505
409 506
409 507
409 508
409 509
409 510
409 511
409 512
409 513
409 514
409 515
409 516
409 518
409 519
409 520
409 521
409 522
409 523
409 524
409 525
409 526
409 527
409 528
409 530
409 531
409 532
409 533
409 534
409 535
409 536
409 537
409 538
409 539
409 540
409 541
409 542
409 543
409 545
409 546
409 547
409 548
409 549
409 550
409 551
409 552
409 553
409 554
409 555
409 556
409 557
409 559
409 560
409 561
409 562
409 564
409 565
409 568
409 570
409 574
409 576
410 411
410 412
410 413
410 414
410 415
410 416
410 417
410 418
410 419
410 420
410 421
410 422
410 423
410 424
410 426
410 427
410 428
410 429
410 430
410 431
410 432
410 433
410 434
410 435
410 436
410 437
410 438
410 439
410 441
410 442
410 443
410 444
410 445
410 446
410 447
410 448
410 449
410 450
410 451
410 452
410 453
410 454
410 458
410 459
410 460
410 461
410 471
410 472
410 473
410 474
410 475
410 476
410 477
410 478
410 479
410 480
410 481
410 482
410 483
410 484
410 485
410 486
410 492
410 493
410 494
410 497
410 504
410 505
410 506
410 512
410 515
410 517
410 518
410 519
410 520
410 521
410 522
410 523
410 524
410 525
410 526
410 527
410 528
410 529
410 530
410 531
410 533
410 534
410 535
410 536
410 537
410 538
410 539
410 540
410 541
410 542
410 543
410 544
410 545
410 546
410 548
410 549
410 550
410 551
410 552
410 553
410 554
410 555
410 556
410 557
410 558
410 559
410 560
410 561
410 564
410 565
410 568
410 570
410 574
410 576
411 412
411 413
411 414
411 415
411 416
411 417
411 418
411 419
411 420
411 421
411 422
411 423
411 424
411 425
411 428
411 433
411 435
411 437
411 440
411 446
411 447
411 450
411 451
411 452
411 454
411 455
411 460
411 463
411 468
411 469
411 470
411 477
411 479
411 482
411 483
411 486
411 487
411 488
411 489
411 490
411 492
411 493
411 494
411 495
411 496
411 497
411 498
411 499
411 500
411 501
411 502
411 506
411 507
411 510
411 512
411 513
411 514
411 516
411 517
411 525
411 526
411 528
411 529
411 530
411 532
411 541
411 542
411 543
411 544
411 546
411 547
411 552
411 553
411 558
411 559
411 561
411 562
411 564
411 565
411 566
411 567
411 568
411 569
411 570
411 571
411 572
411 573
411 574
411 575
411 576
411 577
411 578
411 579
412 413
412 414
412 415
412 416
412 417
412 418
412 419
412 420
412 421
412 422
412 423
412 424
412 425
412 426
412 427
412 429
412 430
412 431
412 432
412 433
412 434
412 435
412 436
412 437
412 438
412 439
412 440
412 446
412 447
412 450
412 451
412 452
412 454
412 455
412 456
412 457
412 458
412 459
412 461
412 462
412 463
412 464
412 465
412 466
412 467
412 468
412 469
412 470
412 477
412 479
412 482
412 483
412 486
412 487
412 488
412 489
412 490
412 491
412 492
412 494
412 495
412 496
412 497
412 498
412 499
412 500
412 501
412 502
412 503
412 504
412 505
412 507
412 508
412 509
412 510
412 511
412 512
412 513
412 514
412 515
412 516
412 517
412 525
412 526
412 528
412 529
412 530
412 532
412 541
412 542
412 543
412 544
412 546
412 547
412 552
412 553
412 558
412 559
412 561
412 562
412 563
412 564
412 566
412 567
412 568
412 569
412 570
412 571
412 572
412 573
412 574
412 575
412 576
412 577
412 578
412 579
413 414
413 415
413 416
413 417
413 418
413 419
413 420
413 421
413 422
413 423
413 424
413 425
413 428
413 433
413 435
413 437
413 440
413 446
413 447
413 450
413 451
413 452
413 454
413 455
413 456
413 457
413 458
413 459
413 460
413 461
413 462
413 464
413 465
413 466
413 467
413 468
413 469
413 470
413 477
413 479
413 482
413 483
413 486
413 487
413 491
413 493
413 498
413 501
413 502
413 503
413 504
413 505
413 506
413 508
413 509
413 510
413 511
413 512
413 513
413 514
413 515
413 516
413 517
413 525
413 526
413 528
413 529
413 530
413 532
413 541
413 542
413 543
413 544
413 546
413 547
413 548
413 549
413 550
413 551
413 553
413 554
413 555
413 556
413 557
413 558
413 559
413 560
413 561
413 562
413 563
413 565
413 567
413 570
413 574
413 575
413 577
413 579
414 415
414 416
414 417
414 418
414 419
414 420
414 421
414 422
414 423
414 424
414 425
414 428
414 433
414 435
414 437
414 440
414 446
414 447
414 450
414 451
414 452
414 454
414 455
414 460
414 463
414 468
414 469
414 470
414 477
414 479
414 482
414 483
414 486
414 487
414 491
414 493
414 498
414 501
414 502
414 506
414 507
414 510
414 512
414 513
414 514
414 516
414 517
414 525
414 526
414 528
414 529
414 530
414 532
414 541
414 542
414 543
414 544
414 546
414 547
414 548
414 549
414 550
414 551
414 552
414 554
414 555
414 556
414 557
414 558
414 559
414 560
414 561
414 562
414 563
414 564
414 565
414 566
414 568
414 569
414 570
414 571
414 572
414 573
414 574
414 575
414 576
414 577
414 578
414 579
415 416
415 417
415 418
415 419
415 420
415 421
415 422
415 423
415 424
415 425
415 426
415 427
415 428
415 429
415 430
415 431
415 432
415 434
415 435
415 436
415 437
415 438
415 439
415 440
415 441
415 442
415 443
415 444
415 445
415 447
415 448
415 449
415 450
415 451
415 452
415 453
415 454
415 455
415 460
415 463
415 468
415 469
415 470
415 477
415 479
415 482
415 483
415 486
415 487
415 488
415 489
415 490
415 491
415 492
415 493
415 494
415 495
415 496
415 497
415 499
415 500
415 501
415 502
415 503
415 504
415 505
415 506
415 507
415 508
415 509
415 511
415 512
415 513
415 514
415 515
415 516
415 517
415 525
415 526
415 528
415 529
415 530
415 532
415 541
415 542
415 543
415 544
415 546
415 547
415 552
415 553
415 558
415 559
415 561
415 562
415 563
415 565
415 567
415 570
415 574
415 575
415 577
415 579
416 417
416 418
416 419
416 420
416 421
416 422
416 423
416 424
416 425
416 426
416 427
416 428
416 429
416 430
416 431
416 432
416 433
416 434
416 436
416 437
416 438
416 439
416 440
416 441
416 442
416 443
416 444
416 445
416 446
416 448
416 449
416 450
416 451
416 452
416 453
416 454
416 455
416 460
416 463
416 468
416 469
416 470
416 471
416 472
416 473
416 474
416 475
416 476
416 478
416 479
416 480
416 481
416 482
416 483
416 484
416 485
416 486
416 487
416 491
416 493
416 498
416 501
416 502
416 506
416 507
416 510
416 512
416 513
416 514
416 516
416 517
416 525
416 526
416 528
416 529
416 530
416 532
416 541
416 542
416 543
416 544
416 546
416 547
416 552
416 553
416 558
416 559
416 561
416 562
416 563
416 564
416 565
416 566
416 567
416 568
416 569
416 571
416 572
416 573
416 574
416 575
416 576
416 577
416 578
416 579
417 418
417 419
417 420
417 421
417 422
417 423
417 424
417 425
417 428
417 433
417 435
417 437
417 440
417 446
417 447
417 450
417 451
417 452
417 454
417 455
417 460
417 463
417 468
417 469
417 470
417 471
417 472
417 473
417 474
417 475
417 476
417 477
417 478
417 480
417 481
417 482
417 483
417 484
417 485
417 486
417 487
417 491
417 493
417 498
417 501
417 502
417 506
417 507
417 510
417 512
417 513
417 514
417 516
417 517
417 525
417 526
417 528
417 529
417 530
417 532
417 541
417 542
417 543
417 544
417 546
417 547
417 552
417 553
417 558
417 559
417 561
417 562
417 563
417 565
417 567
417 570
417 574
417 575
417 577
417 579
418 419
418 420
418 421
418 422
418 423
418 424
418 425
418 428
418 433
418 435
418 437
418 440
418 441
418 442
418 443
418 444
418 445
418 446
418 447
418 448
418 449
418 451
418 452
418 453
418 454
418 455
418 460
418 463
418 468
418 469
418 470
418 471
418 472
418 473
418 474
418 475
418 476
418 477
418 478
418 479
418 480
418 481
418 483
418 484
418 485
418 486
418 487
418 491
418 493
418 498
418 501
418 502
418 503
418 504
418 505
418 506
418 507
418 508
418 509
418 510
418 511
418 513
418 514
418 515
418 516
418 517
418 525
418 526
418 528
418 529
418 530
418 532
418 533
418 534
418 535
418 536
418 537
418 538
418 539
418 540
418 542
418 543
418 544
418 545
418 546
418 547
418 552
418 553
418 558
418 559
418 561
418 562
418 563
418 564
418 565
418 566
418 567
418 568
418 569
418 570
418 571
418 572
418 573
418 575
418 576
418 577
418 578
418 579
419 420
419 421
419 422
419 423
419 424
419 425
419 428
419 433
419 435
419 437
419 440
419 446
419 447
419 450
419 451
419 452
419 454
419 455
419 456
419 457
419 458
419 459
419 460
419 461
419 462
419 463
419 464
419 465
419 466
419 467
419 469
419 470
419 471
419 472
419 473
419 474
419 475
419 476
419 477
419 478
419 479
419 480
419 481
419 482
419 484
419 485
419 486
419 487
419 491
419 493
419 498
419 501
419 502
419 503
419 504
419 505
419 506
419 507
419 508
419 509
419 510
419 511
419 512
419 514
419 515
419 516
419 517
419 518
419 519
419 520
419 521
419 522
419 523
419 524
419 526
419 527
419 528
419 529
419 530
419 531
419 532
419 533
419 534
419 535
419 536
419 537
419 538
419 539
419 540
419 541
419 543
419 544
419 545
419 546
419 547
419 552
419 553
419 558
419 559
419 561
419 562
419 563
419 565
419 567
419 570
419 574
419 575
419 577
419 579
420 421
420 422
420 423
420 424
420 425
420 426
420 427
420 428
420 429
420 430
420 431
420 432
420 433
420 434
420 435
420 436
420 438
420 439
420 440
420 446
420 447
420 450
420 451
420 452
420 454
420 455
420 460
420 463
420 468
420 469
420 470
420 477
420 479
420 482
420 483
420 486
420 487
420 488
420 489
420 490
420 491
420 492
420 493
420 494
420 495
420 496
420 497
420 498
420 499
420 500
420 502
420 503
420 504
420 505
420 506
420 507
420 508
420 509
420 510
420 511
420 512
420 513
420 515
420 516
420 517
420 518
420 519
420 520
420 521
420 522
420 523
420 524
420 525
420 527
420 528
420 529
420 530
420 531
420 532
420 541
420 542
420 543
420 544
420 546
420 547
420 552
420 553
420 558
420 559
420 561
420 562
420 563
420 564
420 565
420 566
420 567
420 568
420 569
420 570
420 571
420 572
420 573
420 574
420 576
420 577
420 578
420 579
421 422
421 423
421 424
421 425
421 428
421 433
421 435
421 437
421 440
421 441
421 442
421 443
421 444
421 445
421 446
421 447
421 448
421 449
421 450
421 452
421 453
421 454
421 455
421 456
421 457
421 458
421 459
421 460
421 461
421 462
421 463
421 464
421 465
421 466
421 467
421 468
421 470
421 477
421 479
421 482
421 483
421 486
421 487
421 491
421 493
421 498
421 501
421 502
421 503
421 504
421 505
421 506
421 507
421 508
421 509
421 510
421 511
421 512
421 513
421 514
421 515
421 517
421 518
421 519
421 520
421 521
421 522
421 523
421 524
421 525
421 526
421 527
421 529
421 530
421 531
421 532
421 533
421 534
421 535
421 536
421 537
421 538
421 539
421 540
421 541
421 542
421 544
421 545
421 546
421 547
421 552
421 553
421 558
421 559
421 561
421 562
421 563
421 565
421 567
421 570
421 574
421 575
421 577
421 579
422 423
422 424
422 425
422 428
422 433
422 435
422 437
422 440
422 446
422 447
422 450
422 451
422 452
422 454
422 455
422 460
422 463
422 468
422 469
422 470
422 477
422 479
422 482
422 483
422 486
422 487
422 491
422 493
422 498
422 501
422 502
422 503
422 504
422 505
422 506
422 507
422 508
422 509
422 510
422 511
422 512
422 513
422 514
422 515
422 516
422 518
422 519
422 520
422 521
422 522
422 523
422 524
422 525
422 526
422 527
422 528
422 530
422 531
422 532
422 533
422 534
422 535
422 536
422 537
422 538
422 539
422 540
422 541
422 542
422 543
422 545
422 546
422 547
422 548
422 549
422 550
422 551
422 552
422 553
422 554
422 555
422 556
422 557
422 559
422 560
422 561
422 562
422 563
422 565
422 567
422 570
422 574
422 575
422 577
422 579
423 424
423 425
423 428
423 433
423 435
423 437
423 440
423 441
423 442
423 443
423 444
423 445
423 446
423 447
423 448
423 449
423 450
423 451
423 453
423 454
423 455
423 460
423 463
423 468
423 469
423 470
423 477
423 479
423 482
423 483
423 486
423 487
423 491
423 493
423 498
423 501
423 502
423 506
423 507
423 510
423 512
423 513
423 514
423 516
423 517
423 518
423 519
423 520
423 521
423 522
423 523
423 524
423 525
423 526
423 527
423 528
423 529
423 531
423 532
423 541
423 542
423 543
423 544
423 546
423 547
423 548
423 549
423 550
423 551
423 552
423 553
423 554
423 555
423 556
423 557
423 558
423 560
423 561
423 562
423 563
423 564
423 565
423 566
423 567
423 568
423 569
423 570
423 571
423 572
423 573
423 574
423 575
423 576
423 578
423 579
424 425
424 428
424 433
424 435
424 437
424 440
424 441
424 442
424 443
424 444
424 445
424 446
424 447
424 448
424 449
424 450
424 451
424 452
424 453
424 455
424 456
424 457
424 458
424 459
424 460
424 461
424 462
424 463
424 464
424 465
424 466
424 467
424 468
424 469
424 471
424 472
424 473
424 474
424 475
424 476
424 477
424 478
424 479
424 480
424 481
424 482
424 483
424 484
424 485
424 487
424 488
424 489
424 490
424 491
424 492
424 493
424 494
424 495
424 496
424 497
424 498
424 499
424 500
424 501
424 506
424 507
424 510
424 512
424 513
424 514
424 516
424 517
424 525
424 526
424 528
424 529
424 530
424 532
424 533
424 534
424 535
424 536
424 537
424 538
424 539
424 540
424 541
424 542
424 543
424 544
424 545
424 547
424 548
424 549
424 550
424 551
424 552
424 553
424 554
424 555
424 556
424 557
424 558
424 559
424 560
424 562
424 563
424 564
424 565
424 566
424 567
424 568
424 569
424 570
424 571
424 572
424 573
424 574
424 575
424 576
424 577
424 578
425 426
425 427
425 428
425 429
425 430
425 431
425 432
425 433
425 434
425 435
425 436
425 437
425 438
425 439
425 441
425 442
425 443
425 444
425 445
425 446
425 447
425 448
425 449
425 450
425 451
425 452
425 453
425 454
425 460
425 463
425 468
425 469
425 470
425 471
425 472
425 473
425 474
425 475
425 476
425 477
425 478
425 479
425 480
425 481
425 482
425 483
425 484
425 485
425 486
425 491
425 493
425 498
425 501
425 502
425 506
425 507
425 510
425 512
425 513
425 514
425 516
425 517
425 518
425 519
425 520
425 521
425 522
425 523
425 524
425 525
425 526
425 527
425 528
425 529
425 530
425 531
425 533
425 534
425 535
425 536
425 537
425 538
425 539
425 540
425 541
425 542
425 543
425 544
425 545
425 546
425 548
425 549
425 550
425 551
425 552
425 553
425 554
425 555
425 556
425 557
425 558
425 559
425 560
425 561
425 563
425 565
425 567
425 570
425 574
425 575
425 577
425 579
426 427
426 428
426 429
426 430
426 431
426 432
426 433
426 434
426 435
426 436
426 437
426 438
426 439
426 440
426 443
426 445
426 446
426 447
426 453
426 455
426 460
426 462
426 465
426 466
426 476
426 477
426 478
426 484
426 485
426 487
426 488
426 489
426 491
426 492
426 493
426 494
426 495
426 496
426 497
426 498
426 499
426 500
426 501
426 502
426 506
426 509
426 510
426 514
426 515
426 522
426 523
426 524
426 526
426 527
426 531
426 532
426 534
426 535
426 536
426 537
426 538
426 539
426 540
426 541
426 542
426 543
426 544
426 545
426 546
426 547
426 549
426 554
426 555
426 560
426 562
426 565
426 568
426 569
426 570
426 571
426 575
426 576
426 578
427 428
427 429
427 430
427 431
427 432
427 433
427 434
427 435
427 436
427 437
427 438
427 439
427 440
427 443
427 445
427 446
427 447
427 453
427 455
427 460
427 462
427 465
427 466
427 476
427 477
427 478
427 484
427 485
427 487
427 488
427 489
427 490
427 491
427 493
427 494
427 495
427 496
427 497
427 498
427 499
427 500
427 501
427 502
427 506
427 509
427 510
427 514
427 515
427 522
427 523
427 524
427 526
427 527
427 531
427 532
427 533
427 536
427 537
427 538
427 539
427 545
427 547
427 548
427 550
427 551
427 552
427 553
427 554
427 555
427 556
427 557
427 558
427 559
427 560
427 561
427 562
427 565
427 568
427 569
427 570
427 571
427 575
427 576
427 578
428 429
428 430
428 431
428 432
428 433
428 434
428 435
428 436
428 437
428 438
428 439
428 440
428 443
428 445
428 446
428 447
428 453
428 455
428 456
428 457
428 458
428 459
428 461
428 462
428 463
428 464
428 465
428 466
428 467
428 468
428 469
428 470
428 476
428 477
428 478
428 484
428 485
428 487
428 488
428 489
428 490
428 491
428 492
428 494
428 495
428 496
428 497
428 498
428 499
428 500
428 501
428 502
428 503
428 504
428 505
428 507
428 508
428 509
428 510
428 511
428 512
428 513
428 514
428 515
428 516
428 517
428 522
428 523
428 524
428 526
428 527
428 531
428 532
428 533
428 536
428 537
428 538
428 539
428 545
428 547
428 549
428 554
428 555
428 560
428 562
428 563
428 564
428 566
428 567
428 568
428 569
428 570
428 571
428 572
428 573
428 574
428 575
428 576
428 577
428 578
428 579
429 430
429 431
429 432
429 433
429 434
429 435
429 436
429 437
429 438
429 439
429 440
429 441
429 442
429 444
429 445
429 446
429 447
429 448
429 449
429 450
429 451
429 452
429 453
429 454
429 455
429 456
429 457
429 458
429 459
429 460
429 461
429 463
429 464
429 465
429 466
429 467
429 468
429 469
429 470
429 476
429 477
429 478
429 484
429 485
429 487
429 488
429 489
429 490
429 491
429 492
429 493
429 494
429 496
429 497
429 498
429 499
429 500
429 501
429 502
429 506
429 509
429 510
429 514
429 515
429 522
429 523
429 524
429 526
429 527
429 531
429 532
429 533
429 536
429 537
429 538
429 539
429 545
429 547
429 549
429 554
429 555
429 560
429 562
429 565
429 568
429 569
429 570
429 571
429 575
429 576
429 578
430 431
430 432
430 433
430 434
430 435
430 436
430 437
430 438
430 439
430 440
430 441
430 442
430 443
430 444
430 446
430 447
430 448
430 449
430 450
430 451
430 452
430 453
430 454
430 455
430 460
430 462
430 465
430 466
430 471
430 472
430 473
430 474
430 475
430 477
430 478
430 479
430 480
430 481
430 482
430 483
430 484
430 485
430 486
430 487
430 488
430 489
430 490
430 491
430 492
430 493
430 494
430 495
430 496
430 498
430 499
430 500
430 501
430 502
430 506
430 509
430 510
430 514
430 515
430 518
430 519
430 520
430 521
430 523
430 524
430 525
430 526
430 527
430 528
430 529
430 530
430 531
430 532
430 533
430 536
430 537
430 538
430 539
430 545
430 547
430 549
430 554
430 555
430 560
430 562
430 565
430 568
430 569
430 570
430 571
430 575
430 576
430 578
431 432
431 433
431 434
431 435
431 436
431 437
431 438
431 439
431 440
431 443
431 445
431 446
431 447
431 453
431 455
431 460
431 462
431 465
431 466
431 476
431 477
431 478
431 484
431 485
431 487
431 490
431 492
431 493
431 495
431 497
431 498
431 499
431 501
431 506
431 509
431 510
431 514
431 515
431 522
431 523
431 524
431 526
431 527
431 531
431 532
431 533
431 534
431 535
431 537
431 538
431 539
431 540
431 541
431 542
431 543
431 544
431 545
431 546
431 547
431 549
431 554
431 555
431 560
431 562
431 563
431 564
431 565
431 566
431 567
431 569
431 570
431 571
431 572
431 573
431 574
431 575
431 576
431 577
431 578
431 579
432 433
432 434
432 435
432 436
432 437
432 438
432 439
432 440
432 443
432 445
432 446
432 447
432 453
432 455
432 456
432 457
432 458
432 459
432 460
432 461
432 462
432 463
432 464
432 466
432 467
432 468
432 469
432 470
432 476
432 477
432 478
432 484
432 485
432 487
432 490
432 492
432 493
432 495
432 497
432 498
432 499
432 501
432 503
432 504
432 505
432 506
432 507
432 508
432 510
432 511
432 512
432 513
432 514
432 515
432 516
432 517
432 522
432 523
432 524
432 526
432 527
432 531
432 532
432 533
432 534
432 535
432 536
432 538
432 539
432 540
432 541
432 542
432 543
432 544
432 545
432 546
432 547
432 548
432 549
432 550
432 551
432 552
432 553
432 555
432 556
432 557
432 558
432 559
432 560
432 561
432 562
432 565
432 568
432 569
432 570
432 571
432 575
432 576
432 578
433 434
433 435
433 436
433 437
433 438
433 439
433 440
433 441
433 442
433 443
433 444
433 445
433 447
433 448
433 449
433 450
433 451
433 452
433 453
433 454
433 455
433 460
433 462
433 465
433 466
433 476
433 477
433 478
433 484
433 485
433 487
433 488
433 489
433 490
433 491
433 492
433 493
433 494
433 495
433 496
433 497
433 499
433 500
433 501
433 502
433 503
433 504
433 505
433 506
433 507
433 508
433 509
433 511
433 512
433 513
433 514
433 515
433 516
433 517
433 522
433 523
433 524
433 526
433 527
433 531
433 532
433 533
433 536
433 537
433 538
433 539
433 545
433 547
433 549
433 554
433 555
433 560
433 562
433 565
433 568
433 569
433 570
433 571
433 575
433 576
433 578
434 435
434 436
434 437
434 438
434 439
434 440
434 443
434 445
434 446
434 447
434 453
434 455
434 456
434 457
434 458
434 459
434 460
434 461
434 462
434 463
434 464
434 465
434 467
434 468
434 469
434 470
434 476
434 477
434 478
434 484
434 485
434 487
434 490
434 492
434 493
434 495
434 497
434 498
434 499
434 501
434 506
434 509
434 510
434 514
434 515
434 518
434 519
434 520
434 521
434 522
434 524
434 525
434 526
434 527
434 528
434 529
434 530
434 531
434 532
434 533
434 534
434 535
434 536
434 537
434 539
434 540
434 541
434 542
434 543
434 544
434 545
434 546
434 547
434 548
434 549
434 550
434 551
434 552
434 553
434 554
434 556
434 557
434 558
434 559
434 560
434 561
434 562
434 563
434 564
434 565
434 566
434 567
434 568
434 570
434 571
434 572
434 573
434 574
434 575
434 576
434 577
434 578
434 579
435 436
435 437
435 438
435 439
435 440
435 441
435 442
435 443
435 444
435 445
435 446
435 448
435 449
435 450
435 451
435 452
435 453
435 454
435 455
435 460
435 462
435 465
435 466
435 471
435 472
435 473
435 474
435 475
435 476
435 478
435 479
435 480
435 481
435 482
435 483
435 484
435 485
435 486
435 487
435 490
435 492
435 493
435 495
435 497
435 498
435 499
435 501
435 506
435 509
435 510
435 514
435 515
435 522
435 523
435 524
435 526
435 527
435 531
435 532
435 533
435 536
435 537
435 538
435 539
435 545
435 547
435 549
435 554
435 555
435 560
435 562
435 563
435 564
435 565
435 566
435 567
435 568
435 569
435 571
435 572
435 573
435 574
435 575
435 576
435 577
435 578
435 579
436 437
436 438
436 439
436 440
436 443
436 445
436 446
436 447
436 453
436 455
436 460
436 462
436 465
436 466
436 471
436 472
436 473
436 474
436 475
436 476
436 477
436 479
436 480
436 481
436 482
436 483
436 484
436 485
436 486
436 487
436 488
436 489
436 490
436 491
436 492
436 493
436 494
436 495
436 496
436 497
436 498
436 500
436 501
436 502
436 506
436 509
436 510
436 514
436 515
436 518
436 519
436 520
436 521
436 522
436 523
436 525
436 526
436 527
436 528
436 529
436 530
436 531
436 532
436 533
436 534
436 535
436 536
436 537
436 538
436 540
436 541
436 542
436 543
436 544
436 545
436 546
436 547
436 549
436 554
436 555
436 560
436 562
436 563
436 564
436 565
436 566
436 567
436 568
436 569
436 570
436 572
436 573
436 574
436 575
436 576
436 577
436 578
436 579
437 438
437 439
437 440
437 443
437 445
437 446
437 447
437 453
437 455
437 460
437 462
437 465
437 466
437 476
437 477
437 478
437 484
437 485
437 487
437 488
437 489
437 490
437 491
437 492
437 493
437 494
437 495
437 496
437 497
437 498
437 499
437 500
437 502
437 503
437 504
437 505
437 506
437 507
437 508
437 509
437 510
437 511
437 512
437 513
437 515
437 516
437 517
437 518
437 519
437 520
437 521
437 522
437 523
437 524
437 525
437 527
437 528
437 529
437 530
437 531
437 532
437 533
437 536
437 537
437 538
437 539
437 545
437 547
437 549
437 554
437 555
437 560
437 562
437 563
437 564
437 565
437 566
437 567
437 568
437 569
437 570
437 571
437 572
437 573
437 574
437 576
437 577
437 578
437 579
438 439
438 440
438 443
438 445
438 446
438 447
438 453
438 455
438 460
438 462
438 465
438 466
438 471
438 472
438 473
438 474
438 475
438 476
438 477
438 478
438 479
438 480
438 481
438 482
438 483
438 485
438 486
438 487
438 490
438 492
438 493
438 495
438 497
438 498
438 499
438 501
438 503
438 504
438 505
438 506
438 507
438 508
438 509
438 510
438 511
438 512
438 513
438 514
438 516
438 517
438 518
438 519
438 520
438 521
438 522
438 523
438 524
438 525
438 526
438 528
438 529
438 530
438 531
438 532
438 533
438 536
438 537
438 538
438 539
438 545
438 547
438 549
438 554
438 555
438 560
438 562
438 563
438 564
438 565
438 566
438 567
438 568
438 569
438 570
438 571
438 572
438 573
438 574
438 575
438 577
438 578
438 579
439 440
439 441
439 442
439 443
439 444
439 445
439 446
439 447
439 448
439 449
439 450
439 451
439 452
439 454
439 455
439 460
439 462
439 465
439 466
439 471
439 472
439 473
439 474
439 475
439 476
439 477
439 478
439 479
439 480
439 481
439 482
439 483
439 484
439 486
439 487
439 490
439 492
439 493
439 495
439 497
439 498
439 499
439 501
439 506
439 509
439 510
439 514
439 515
439 518
439 519
439 520
439 521
439 522
439 523
439 524
439 525
439 526
439 527
439 528
439 529
439 530
439 532
439 533
439 534
439 535
439 536
439 537
439 538
439 539
439 540
439 541
439 542
439 543
439 544
439 546
439 547
439 548
439 549
439 550
439 551
439 552
439 553
439 554
439 555
439 556
439 557
439 558
439 559
439 561
439 562
439 563
439 564
439 565
439 566
439 567
439 568
439 569
439 570
439 571
439 572
439 573
439 574
439 575
439 576
439 577
439 579
440 441
440 442
440 443
440 444
440 445
440 446
440 447
440 448
440 449
440 450
440 451
440 452
440 453
440 454
440 460
440 462
440 465
440 466
440 471
440 472
440 473
440 474
440 475
440 476
440 477
440 478
440 479
440 480
440 481
440 482
440 483
440 484
440 485
440 486
440 490
440 492
440 493
440 495
440 497
440 498
440 499
440 501
440 506
440 509
440 510
440 514
440 515
440 518
440 519
440 520
440 521
440 522
440 523
440 524
440 525
440 526
440 527
440 528
440 529
440 530
440 531
440 533
440 534
440 535
440 536
440 537
440 538
440 539
440 540
440 541
440 542
440 543
440 544
440 545
440 546
440 548
440 549
440 550
440 551
440 552
440 553
440 554
440 555
440 556
440 557
440 558
440 559
440 560
440 561
440 565
440 568
440 569
440 570
440 571
440 575
440 576
440 578
441 442
441 443
441 444
441 445
441 446
441 447
441 448
441 449
441 450
441 451
441 452
441 453
441 454
441 455
441 456
441 458
441 459
441 460
441 461
441 462
441 463
441 464
441 465
441 466
441 467
441 468
441 469
441 470
441 473
441 476
441 477
441 480
441 481
441 482
441 485
441 486
441 487
441 488
441 490
441 491
441 492
441 493
441 494
441 495
441 496
441 497
441 498
441 499
441 500
441 501
441 502
441 510
441 511
441 512
441 516
441 521
441 522
441 528
441 530
441 531
441 532
441 540
441 541
441 543
441 545
441 546
441 547
441 556
441 557
441 559
441 560
441 561
441 562
441 566
441 570
441 572
441 573
441 574
441 577
441 578
441 579
442 443
442 444
442 445
442 446
442 447
442 448
442 449
442 450
442 451
442 452
442 453
442 454
442 455
442 456
442 457
442 459
442 460
442 461
442 462
442 463
442 464
442 465
442 466
442 467
442 468
442 469
442 470
442 471
442 472
442 474
442 475
442 476
442 477
442 478
442 479
442 480
442 481
442 482
442 483
442 484
442 485
442 486
442 487
442 489
442 495
442 497
442 498
442 500
442 502
442 510
442 511
442 512
442 516
442 521
442 522
442 528
442 530
442 531
442 532
442 540
442 541
442 543
442 545
442 546
442 547
442 556
442 557
442 559
442 560
442 561
442 562
442 566
442 570
442 572
442 573
442 574
442 577
442 578
442 579
443 444
443 445
443 446
443 447
443 448
443 449
443 450
443 451
443 452
443 453
443 454
443 455
443 456
443 457
443 458
443 459
443 460
443 461
443 463
443 464
443 465
443 466
443 467
443 468
443 469
443 470
443 473
443 476
443 477
443 480
443 481
443 482
443 485
443 486
443 487
443 488
443 489
443 490
443 491
443 492
443 493
443 494
443 496
443 497
443 498
443 499
443 500
443 501
443 502
443 510
443 511
443 512
443 516
443 521
443 522
443 528
443 530
443 531
443 532
443 540
443 541
443 543
443 545
443 546
443 547
443 556
443 557
443 559
443 560
443 561
443 562
443 566
443 570
443 572
443 573
443 574
443 577
443 578
443 579
444 445
444 446
444 447
444 448
444 449
444 450
444 451
444 452
444 453
444 454
444 455
444 456
444 457
444 458
444 459
444 460
444 461
444 462
444 463
444 465
444 466
444 467
444 468
444 469
444 470
444 473
444 476
444 477
444 480
444 481
444 482
444 485
444 486
444 487
444 489
444 495
444 497
444 498
444 500
444 502
444 510
444 511
444 512
444 516
444 518
444 519
444 520
444 522
444 523
444 524
444 525
444 526
444 527
444 528
444 529
444 530
444 531
444 532
444 540
444 541
444 543
444 545
444 546
444 547
444 556
444 557
444 559
444 560
444 561
444 562
444 563
444 564
444 565
444 567
444 568
444 569
444 570
444 571
444 572
444 573
444 574
444 575
444 576
444 577
444 578
444 579
445 446
445 447
445 448
445 449
445 450
445 451
445 452
445 453
445 454
445 455
445 457
445 458
445 462
445 464
445 467
445 469
445 470
445 471
445 472
445 473
445 474
445 475
445 477
445 478
445 479
445 480
445 481
445 482
445 483
445 484
445 485
445 486
445 487
445 488
445 489
445 490
445 491
445 492
445 493
445 494
445 495
445 496
445 498
445 499
445 500
445 501
445 502
445 510
445 511
445 512
445 516
445 518
445 519
445 520
445 521
445 523
445 524
445 525
445 526
445 527
445 528
445 529
445 530
445 531
445 532
445 540
445 541
445 543
445 545
445 546
445 547
445 556
445 557
445 559
445 560
445 561
445 562
445 566
445 570
445 572
445 573
445 574
445 577
445 578
445 579
446 447
446 448
446 449
446 450
446 451
446 452
446 453
446 454
446 455
446 457
446 458
446 462
446 464
446 467
446 469
446 470
446 473
446 476
446 477
446 480
446 481
446 482
446 485
446 486
446 487
446 488
446 489
446 490
446 491
446 492
446 493
446 494
446 495
446 496
446 497
446 499
446 500
446 501
446 502
446 503
446 504
446 505
446 506
446 507
446 508
446 509
446 511
446 512
446 513
446 514
446 515
446 516
446 517
446 521
446 522
446 528
446 530
446 531
446 532
446 540
446 541
446 543
446 545
446 546
446 547
446 556
446 557
446 559
446 560
446 561
446 562
446 566
446 570
446 572
446 573
446 574
446 577
446 578
446 579
447 448
447 449
447 450
447 451
447 452
447 453
447 454
447 455
447 457
447 458
447 462
447 464
447 467
447 469
447 470
447 471
447 472
447 473
447 474
447 475
447 476
447 478
447 479
447 480
447 481
447 482
447 483
447 484
447 485
447 486
447 487
447 489
447 495
447 497
447 498
447 500
447 502
447 510
447 511
447 512
447 516
447 521
447 522
447 528
447 530
447 531
447 532
447 540
447 541
447 543
447 545
447 546
447 547
447 556
447 557
447 559
447 560
447 561
447 562
447 563
447 564
447 565
447 566
447 567
447 568
447 569
447 571
447 572
447 573
447 574
447 575
447 576
447 577
447 578
447 579
448 449
448 450
448 451
448 452
448 453
448 454
448 455
448 456
448 457
448 458
448 459
448 460
448 461
448 462
448 463
448 464
448 465
448 466
448 468
448 469
448 470
448 471
448 472
448 473
448 474
448 475
448 476
448 477
448 478
448 479
448 481
448 482
448 483
448 484
448 485
448 486
448 487
448 488
448 489
448 490
448 491
448 492
448 493
448 494
448 495
448 496
448 497
448 498
448 499
448 501
448 502
448 510
448 511
448 512
448 516
448 521
448 522
448 528
448 530
448 531
448 532
448 540
448 541
448 543
448 545
448 546
448 547
448 548
448 549
448 550
448 551
448 552
448 553
448 554
448 555
448 557
448 558
448 559
448 560
448 561
448 562
448 563
448 564
448 565
448 566
448 567
448 568
448 569
448 570
448 571
448 573
448 574
448 575
448 576
448 577
448 578
448 579
449 450
449 451
449 452
449 453
449 454
449 455
449 457
449 458
449 462
449 464
449 467
449 469
449 470
449 471
449 472
449 473
449 474
449 475
449 476
449 477
449 478
449 479
449 480
449 482
449 483
449 484
449 485
449 486
449 487
449 489
449 495
449 497
449 498
449 500
449 502
449 503
449 504
449 505
449 506
449 507
449 508
449 509
449 510
449 512
449 513
449 514
449 515
449 516
449 517
449 521
449 522
449 528
449 530
449 531
449 532
449 533
449 534
449 535
449 536
449 537
449 538
449 539
449 541
449 542
449 543
449 544
449 545
449 546
449 547
449 548
449 549
449 550
449 551
449 552
449 553
449 554
449 555
449 556
449 558
449 559
449 560
449 561
449 562
449 563
449 564
449 565
449 566
449 567
449 568
449 569
449 570
449 571
449 572
449 574
449 575
449 576
449 577
449 578
449 579
450 451
450 452
450 453
450 454
450 455
450 457
450 458
450 462
450 464
450 467
450 469
450 470
450 471
450 472
450 473
450 474
450 475
450 476
450 477
450 478
450 479
450 480
450 481
450 483
450 484
450 485
450 486
450 487
450 489
450 495
450 497
450 498
450 500
450 502
450 503
450 504
450 505
450 506
450 507
450 508
450 509
450 510
450 511
450 513
450 514
450 515
450 516
450 517
450 521
450 522
450 528
450 530
450 531
450 532
450 533
450 534
450 535
450 536
450 537
450 538
450 539
450 540
450 542
450 543
450 544
450 545
450 546
450 547
450 556
450 557
450 559
450 560
450 561
450 562
450 563
450 564
450 565
450 566
450 567
450 568
450 569
450 570
450 571
450 572
450 573
450 575
450 576
450 577
450 578
450 579
451 452
451 453
451 454
451 455
451 456
451 457
451 458
451 459
451 460
451 461
451 462
451 463
451 464
451 465
451 466
451 467
451 468
451 470
451 473
451 476
451 477
451 480
451 481
451 482
451 485
451 486
451 487
451 489
451 495
451 497
451 498
451 500
451 502
451 503
451 504
451 505
451 506
451 507
451 508
451 509
451 510
451 511
451 512
451 513
451 514
451 515
451 517
451 518
451 519
451 520
451 521
451 522
451 523
451 524
451 525
451 526
451 527
451 529
451 530
451 531
451 532
451 533
451 534
451 535
451 536
451 537
451 538
451 539
451 540
451 541
451 542
451 544
451 545
451 546
451 547
451 556
451 557
451 559
451 560
451 561
451 562
451 566
451 570
451 572
451 573
451 574
451 577
451 578
451 579
452 453
452 454
452 455
452 457
452 458
452 462
452 464
452 467
452 469
452 470
452 473
452 476
452 477
452 480
452 481
452 482
452 485
452 486
452 487
452 489
452 495
452 497
452 498
452 500
452 502
452 510
452 511
452 512
452 516
452 518
452 519
452 520
452 521
452 522
452 523
452 524
452 525
452 526
452 527
452 528
452 529
452 531
452 532
452 540
452 541
452 543
452 545
452 546
452 547
452 548
452 549
452 550
452 551
452 552
452 553
452 554
452 555
452 556
452 557
452 558
452 560
452 561
452 562
452 563
452 564
452 565
452 566
452 567
452 568
452 569
452 570
452 571
452 572
452 573
452 574
452 575
452 576
452 578
452 579
453 454
453 455
453 457
453 458
453 462
453 464
453 467
453 469
453 470
453 471
453 472
453 473
453 474
453 475
453 476
453 477
453 478
453 479
453 480
453 481
453 482
453 483
453 484
453 486
453 487
453 489
453 495
453 497
453 498
453 500
453 502
453 510
453 511
453 512
453 516
453 518
453 519
453 520
453 521
453 522
453 523
453 524
453 525
453 526
453 527
453 528
453 529
453 530
453 532
453 533
453 534
453 535
453 536
453 537
453 538
453 539
453 540
453 541
453 542
453 543
453 544
453 546
453 547
453 548
453 549
453 550
453 551
453 552
453 553
453 554
453 555
453 556
453 557
453 558
453 559
453 561
453 562
453 563
453 564
453 565
453 566
453 567
453 568
453 569
453 570
453 571
453 572
453 573
453 574
453 575
453 576
453 577
453 579
454 455
454 456
454 457
454 458
454 459
454 460
454 461
454 462
454 463
454 464
454 465
454 466
454 467
454 468
454 469
454 471
454 472
454 473
454 474
454 475
454 476
454 477
454 478
454 479
454 480
454 481
454 482
454 483
454 484
454 485
454 487
454 488
454 489
454 490
454 491
454 492
454 493
454 494
454 495
454 496
454 497
454 498
454 499
454 500
454 501
454 510
454 511
454 512
454 516
454 521
454 522
454 528
454 530
454 531
454 532
454 533
454 534
454 535
454 536
454 537
454 538
454 539
454 540
454 541
454 542
454 543
454 544
454 545
454 547
454 548
454 549
454 550
454 551
454 552
454 553
454 554
454 555
454 556
454 557
454 558
454 559
454 560
454 562
454 563
454 564
454 565
454 566
454 567
454 568
454 569
454 570
454 571
454 572
454 573
454 574
454 575
454 576
454 577
454 578
455 457
455 458
455 462
455 464
455 467
455 469
455 470
455 471
455 472
455 473
455 474
455 475
455 476
455 477
455 478
455 479
455 480
455 481
455 482
455 483
455 484
455 485
455 486
455 489
455 495
455 497
455 498
455 500
455 502
455 510
455 511
455 512
455 516
455 518
455 519
455 520
455 521
455 522
455 523
455 524
455 525
455 526
455 527
455 528
455 529
455 530
455 531
455 533
455 534
455 535
455 536
455 537
455 538
455 539
455 540
455 541
455 542
455 543
455 544
455 545
455 546
455 548
455 549
455 550
455 551
455 552
455 553
455 554
455 555
455 556
455 557
455 558
455 559
455 560
455 561
455 566
455 570
455 572
455 573
455 574
455 577
455 578
455 579
456 457
456 458
456 459
456 460
456 461
456 462
456 463
456 464
456 465
456 466
456 467
456 468
456 469
456 470
456 472
456 473
456 474
456 475
456 476
456 477
456 478
456 479
456 480
456 481
456 482
456 483
456 484
456 485
456 486
456 487
456 489
456 490
456 491
456 492
456 493
456 494
456 495
456 496
456 497
456 498
456 499
456 500
456 501
456 502
456 504
456 505
456 506
456 507
456 508
456 509
456 510
456 511
456 512
456 513
456 514
456 515
456 516
456 517
456 520
456 521
456 523
456 525
456 528
456 534
456 537
456 538
456 542
456 543
456 546
456 549
456 550
456 551
456 552
456 553
456 554
456 555
456 556
456 557
456 558
456 559
456 560
456 561
456 562
456 565
456 566
456 569
456 572
456 579
457 458
457 459
457 460
457 461
457 462
457 463
457 464
457 465
457 466
457 467
457 468
457 469
457 470
457 471
457 473
457 474
457 480
457 483
457 486
457 488
457 490
457 491
457 492
457 493
457 494
457 495
457 496
457 497
457 498
457 499
457 500
457 501
457 502
457 503
457 506
457 507
457 509
457 513
457 516
457 520
457 521
457 523
457 525
457 528
457 534
457 537
457 538
457 542
457 543
457 546
457 548
457 551
457 552
457 554
457 555
457 556
457 561
457 565
457 566
457 569
457 572
457 579
458 459
458 460
458 461
458 462
458 463
458 464
458 465
458 466
458 467
458 468
458 469
458 470
458 471
458 472
458 474
458 475
458 476
458 477
458 478
458 479
458 480
458 481
458 482
458 483
458 484
458 485
458 486
458 487
458 488
458 489
458 493
458 494
458 495
458 500
458 502
458 503
458 506
458 507
458 509
458 513
458 516
458 520
458 521
458 523
458 525
458 528
458 534
458 537
458 538
458 542
458 543
458 546
458 548
458 551
458 552
458 554
458 555
458 556
458 561
458 565
458 566
458 569
458 572
458 579
459 460
459 461
459 462
459 463
459 464
459 465
459 466
459 467
459 468
459 469
459 470
459 471
459 473
459 474
459 480
459 483
459 486
459 488
459 489
459 493
459 494
459 495
459 500
459 502
459 503
459 506
459 507
459 509
459 513
459 516
459 520
459 521
459 523
459 525
459 528
459 533
459 535
459 536
459 537
459 538
459 539
459 540
459 541
459 542
459 543
459 544
459 545
459 546
459 547
459 548
459 551
459 552
459 554
459 555
459 556
459 561
459 565
459 566
459 569
459 572
459 579
460 461
460 462
460 463
460 464
460 465
460 466
460 467
460 468
460 469
460 470
460 471
460 473
460 474
460 480
460 483
460 486
460 488
460 489
460 490
460 491
460 492
460 494
460 495
460 496
460 497
460 498
460 499
460 500
460 501
460 502
460 503
460 504
460 505
460 507
460 508
460 509
460 510
460 511
460 512
460 513
460 514
460 515
460 516
460 517
460 520
460 521
460 523
460 525
460 528
460 534
460 537
460 538
460 542
460 543
460 546
460 548
460 551
460 552
460 554
460 555
460 556
460 561
460 563
460 564
460 566
460 567
460 568
460 569
460 570
460 571
460 572
460 573
460 574
460 575
460 576
460 577
460 578
460 579
461 462
461 463
461 464
461 465
461 466
461 467
461 468
461 469
461 470
461 471
461 472
461 473
461 475
461 476
461 477
461 478
461 479
461 480
461 481
461 482
461 483
461 484
461 485
461 486
461 487
461 488
461 489
461 490
461 491
461 492
461 493
461 495
461 496
461 497
461 498
461 499
461 500
461 501
461 502
461 503
461 506
461 507
461 509
461 513
461 516
461 518
461 519
461 521
461 522
461 523
461 524
461 525
461 526
461 527
461 528
461 529
461 530
461 531
461 532
461 534
461 537
461 538
461 542
461 543
461 546
461 548
461 549
461 550
461 552
461 553
461 554
461 555
461 556
461 557
461 558
461 559
461 560
461 561
461 562
461 565
461 566
461 569
461 572
461 579
462 463
462 464
462 465
462 466
462 467
462 468
462 469
462 470
462 471
462 473
462 474
462 480
462 483
462 486
462 488
462 489
462 490
462 491
462 492
462 493
462 494
462 496
462 497
462 498
462 499
462 500
462 501
462 502
462 503
462 506
462 507
462 509
462 513
462 516
462 520
462 521
462 523
462 525
462 528
462 534
462 537
462 538
462 542
462 543
462 546
462 548
462 551
462 552
462 554
462 555
462 556
462 561
462 565
462 566
462 569
462 572
462 579
463 464
463 465
463 466
463 467
463 468
463 469
463 470
463 471
463 473
463 474
463 480
463 483
463 486
463 488
463 489
463 493
463 494
463 495
463 500
463 502
463 503
463 504
463 505
463 506
463 508
463 509
463 510
463 511
463 512
463 513
463 514
463 515
463 516
463 517
463 520
463 521
463 523
463 525
463 528
463 534
463 537
463 538
463 542
463 543
463 546
463 548
463 549
463 550
463 551
463 553
463 554
463 555
463 556
463 557
463 558
463 559
463 560
463 561
463 562
463 565
463 566
463 569
463 572
463 579
464 465
464 466
464 467
464 468
464 469
464 470
464 471
464 473
464 474
464 480
464 483
464 486
464 488
464 489
464 493
464 494
464 495
464 500
464 502
464 503
464 506
464 507
464 509
464 513
464 516
464 518
464 519
464 520
464 522
464 523
464 524
464 525
464 526
464 527
464 528
464 529
464 530
464 531
464 532
464 534
464 537
464 538
464 542
464 543
464 546
464 548
464 551
464 552
464 554
464 555
464 556
464 561
464 563
464 564
464 565
464 567
464 568
464 569
464 570
464 571
464 572
464 573
464 574
464 575
464 576
464 577
464 578
464 579
465 466
465 467
465 468
465 469
465 470
465 471
465 473
465 474
465 480
465 483
465 486
465 488
465 489
465 493
465 494
465 495
465 500
465 502
465 503
465 504
465 505
465 506
465 507
465 508
465 510
465 511
465 512
465 513
465 514
465 515
465 516
465 517
465 520
465 521
465 523
465 525
465 528
465 533
465 534
465 535
465 536
465 538
465 539
465 540
465 541
465 542
465 543
465 544
465 545
465 546
465 547
465 548
465 549
465 550
465 551
465 552
465 553
465 555
465 556
465 557
465 558
465 559
465 560
465 561
465 562
465 565
465 566
465 569
465 572
465 579
466 467
466 468
466 469
466 470
466 471
466 473
466 474
466 480
466 483
466 486
466 488
466 489
466 493
466 494
466 495
466 500
466 502
466 503
466 506
466 507
466 509
466 513
466 516
466 518
466 519
466 520
466 521
466 522
466 524
466 525
466 526
466 527
466 528
466 529
466 530
466 531
466 532
466 533
466 534
466 535
466 536
466 537
466 539
466 540
466 541
466 542
466 543
466 544
466 545
466 546
466 547
466 548
466 549
466 550
466 551
466 552
466 553
466 554
466 556
466 557
466 558
466 559
466 560
466 561
466 562
466 563
466 564
466 565
466 566
466 567
466 568
466 570
466 571
466 572
466 573
466 574
466 575
466 576
466 577
466 578
466 579
467 468
467 469
467 470
467 471
467 472
467 473
467 474
467 475
467 476
467 477
467 478
467 479
467 481
467 482
467 483
467 484
467 485
467 486
467 487
467 488
467 489
467 490
467 491
467 492
467 493
467 494
467 495
467 496
467 497
467 498
467 499
467 501
467 502
467 503
467 506
467 507
467 509
467 513
467 516
467 520
467 521
467 523
467 525
467 528
467 534
467 537
467 538
467 542
467 543
467 546
467 548
467 549
467 550
467 551
467 552
467 553
467 554
467 555
467 557
467 558
467 559
467 560
467 561
467 562
467 563
467 564
467 565
467 566
467 567
467 568
467 569
467 570
467 571
467 573
467 574
467 575
467 576
467 577
467 578
467 579
468 469
468 470
468 471
468 472
468 473
468 474
468 475
468 476
468 477
468 478
468 479
468 480
468 481
468 482
468 484
468 485
468 486
468 487
468 488
468 489
468 493
468 494
468 495
468 500
468 502
468 503
468 504
468 505
468 506
468 507
468 508
468 509
468 510
468 511
468 512
468 514
468 515
468 516
468 517
468 518
468 519
468 520
468 521
468 522
468 523
468 524
468 526
468 527
468 528
468 529
468 530
468 531
468 532
468 533
468 534
468 535
468 536
468 537
468 538
468 539
468 540
468 541
468 543
468 544
468 545
468 546
468 547
468 548
468 551
468 552
468 554
468 555
468 556
468 561
468 565
468 566
468 569
468 572
468 579
469 470
469 471
469 473
469 474
469 480
469 483
469 486
469 488
469 489
469 493
469 494
469 495
469 500
469 502
469 503
469 504
469 505
469 506
469 507
469 508
469 509
469 510
469 511
469 512
469 513
469 514
469 515
469 517
469 518
469 519
469 520
469 521
469 522
469 523
469 524
469 525
469 526
469 527
469 529
469 530
469 531
469 532
469 533
469 534
469 535
469 536
469 537
469 538
469 539
469 540
469 541
469 542
469 544
469 545
469 546
469 547
469 548
469 551
469 552
469 554
469 555
469 556
469 561
469 565
469 566
469 569
469 572
469 579
470 471
470 472
470 473
470 474
470 475
470 476
470 477
470 478
470 479
470 480
470 481
470 482
470 483
470 484
470 485
470 487
470 488
470 489
470 490
470 491
470 492
470 493
470 494
470 495
470 496
470 497
470 498
470 499
470 500
470 501
470 503
470 506
470 507
470 509
470 513
470 516
470 520
470 521
470 523
470 525
470 528
470 533
470 534
470 535
470 536
470 537
470 538
470 539
470 540
470 541
470 542
470 543
470 544
470 545
470 547
470 548
470 549
470 550
470 551
470 552
470 553
470 554
470 555
470 556
470 557
470 558
470 559
470 560
470 562
470 563
470 564
470 565
470 566
470 567
470 568
470 569
470 570
470 571
470 572
470 573
470 574
470 575
470 576
470 577
470 578
471 472
471 473
471 474
471 475
471 476
471 477
471 478
471 479
471 480
471 481
471 482
471 483
471 484
471 485
471 486
471 487
471 489
471 490
471 491
471 492
471 493
471 494
471 495
471 496
471 497
471 498
471 499
471 500
471 501
471 502
471 504
471 505
471 506
471 507
471 508
471 509
471 510
471 511
471 512
471 513
471 514
471 515
471 516
471 517
471 518
471 520
471 522
471 524
471 525
471 527
471 531
471 532
471 535
471 539
471 540
471 541
471 542
471 545
471 546
471 547
471 549
471 550
471 551
471 552
471 553
471 554
471 555
471 556
471 557
471 558
471 559
471 560
471 561
471 562
471 570
471 571
471 572
471 573
471 574
471 576
471 578
471 579
472 473
472 474
472 475
472 476
472 477
472 478
472 479
472 480
472 481
472 482
472 483
472 484
472 485
472 486
472 487
472 488
472 494
472 496
472 497
472 499
472 500
472 502
472 503
472 505
472 506
472 507
472 508
472 509
472 510
472 511
472 512
472 513
472 514
472 515
472 516
472 517
472 519
472 520
472 521
472 522
472 523
472 524
472 525
472 526
472 527
472 528
472 529
472 530
472 531
472 532
472 535
472 539
472 540
472 541
472 542
472 545
472 546
472 547
472 548
472 551
472 556
472 557
472 560
472 561
472 562
472 570
472 571
472 572
472 573
472 574
472 576
472 578
472 579
473 474
473 475
473 476
473 477
473 478
473 479
473 480
473 481
473 482
473 483
473 484
473 485
473 486
473 487
473 488
473 494
473 496
473 497
473 499
473 500
473 502
473 503
473 504
473 508
473 511
473 512
473 513
473 515
473 518
473 520
473 522
473 524
473 525
473 527
473 531
473 532
473 535
473 539
473 540
473 541
473 542
473 545
473 546
473 547
473 548
473 551
473 556
473 557
473 560
473 561
473 562
473 570
473 571
473 572
473 573
473 574
473 576
473 578
473 579
474 475
474 476
474 477
474 478
474 479
474 480
474 481
474 482
474 483
474 484
474 485
474 486
474 487
474 488
474 489
474 490
474 491
474 492
474 493
474 495
474 496
474 497
474 498
474 499
474 500
474 501
474 502
474 503
474 504
474 508
474 511
474 512
474 513
474 515
474 518
474 519
474 521
474 522
474 523
474 524
474 525
474 526
474 527
474 528
474 529
474 530
474 531
474 532
474 535
474 539
474 540
474 541
474 542
474 545
474 546
474 547
474 548
474 549
474 550
474 552
474 553
474 554
474 555
474 556
474 557
474 558
474 559
474 560
474 561
474 562
474 570
474 571
474 572
474 573
474 574
474 576
474 578
474 579
475 476
475 477
475 478
475 479
475 480
475 481
475 482
475 483
475 484
475 485
475 486
475 487
475 488
475 489
475 490
475 491
475 492
475 493
475 494
475 495
475 497
475 498
475 499
475 500
475 501
475 502
475 503
475 504
475 505
475 506
475 507
475 509
475 510
475 511
475 512
475 513
475 514
475 515
475 516
475 517
475 518
475 520
475 522
475 524
475 525
475 527
475 531
475 532
475 533
475 534
475 536
475 537
475 538
475 539
475 540
475 541
475 542
475 543
475 544
475 545
475 546
475 547
475 548
475 551
475 556
475 557
475 560
475 561
475 562
475 570
475 571
475 572
475 573
475 574
475 576
475 578
475 579
476 477
476 478
476 479
476 480
476 481
476 482
476 483
476 484
476 485
476 486
476 487
476 488
476 489
476 490
476 491
476 492
476 493
476 494
476 495
476 496
476 498
476 499
476 500
476 501
476 502
476 503
476 504
476 508
476 511
476 512
476 513
476 515
476 518
476 519
476 520
476 521
476 523
476 524
476 525
476 526
476 527
476 528
476 529
476 530
476 531
476 532
476 535
476 539
476 540
476 541
476 542
476 545
476 546
476 547
476 548
476 551
476 556
476 557
476 560
476 561
476 562
476 570
476 571
476 572
476 573
476 574
476 576
476 578
476 579
477 478
477 479
477 480
477 481
477 482
477 483
477 484
477 485
477 486
477 487
477 488
477 494
477 496
477 497
477 499
477 500
477 502
477 503
477 504
477 508
477 511
477 512
477 513
477 515
477 518
477 520
477 522
477 524
477 525
477 527
477 531
477 532
477 535
477 539
477 540
477 541
477 542
477 545
477 546
477 547
477 548
477 551
477 556
477 557
477 560
477 561
477 562
477 563
477 564
477 565
477 566
477 567
477 568
477 569
477 571
477 572
477 573
477 574
477 575
477 576
477 577
477 578
477 579
478 479
478 480
478 481
478 482
478 483
478 484
478 485
478 486
478 487
478 488
478 489
478 490
478 491
478 492
478 493
478 494
478 495
478 496
478 497
478 498
478 500
478 501
478 502
478 503
478 504
478 508
478 511
478 512
478 513
478 515
478 518
478 519
478 520
478 521
478 522
478 523
478 525
478 526
478 527
478 528
478 529
478 530
478 531
478 532
478 533
478 534
478 535
478 536
478 537
478 538
478 540
478 541
478 542
478 543
478 544
478 545
478 546
478 547
478 548
478 551
478 556
478 557
478 560
478 561
478 562
478 563
478 564
478 565
478 566
478 567
478 568
478 569
478 570
478 572
478 573
478 574
478 575
478 576
478 577
478 578
478 579
479 480
479 481
479 482
479 483
479 484
479 485
479 486
479 487
479 488
479 494
479 496
479 497
479 499
479 500
479 502
479 503
479 504
479 508
479 511
479 512
479 513
479 515
479 518
479 520
479 522
479 524
479 525
479 527
479 531
479 532
479 535
479 539
479 540
479 541
479 542
479 545
479 546
479 547
479 548
479 551
479 556
479 557
479 560
479 561
479 562
479 570
479 571
479 572
479 573
479 574
479 576
479 578
479 579
480 481
480 482
480 483
480 484
480 485
480 486
480 487
480 488
480 489
480 490
480 491
480 492
480 493
480 494
480 495
480 496
480 497
480 498
480 499
480 501
480 502
480 503
480 504
480 508
480 511
480 512
480 513
480 515
480 518
480 520
480 522
480 524
480 525
480 527
480 531
480 532
480 535
480 539
480 540
480 541
480 542
480 545
480 546
480 547
480 548
480 549
480 550
480 551
480 552
480 553
480 554
480 555
480 557
480 558
480 559
480 560
480 561
480 562
480 563
480 564
480 565
480 566
480 567
480 568
480 569
480 570
480 571
480 573
480 574
480 575
480 576
480 577
480 578
480 579
481 482
481 483
481 484
481 485
481 486
481 487
481 488
481 494
481 496
481 497
481 499
481 500
481 502
481 503
481 504
481 505
481 506
481 507
481 508
481 509
481 510
481 512
481 513
481 514
481 515
481 516
481 517
481 518
481 520
481 522
481 524
481 525
481 527
481 531
481 532
481 533
481 534
481 535
481 536
481 537
481 538
481 539
481 541
481 542
481 543
481 544
481 545
481 546
481 547
481 548
481 549
481 550
481 551
481 552
481 553
481 554
481 555
481 556
481 558
481 559
481 560
481 561
481 562
481 563
481 564
481 565
481 566
481 567
481 568
481 569
481 570
481 571
481 572
481 574
481 575
481 576
481 577
481 578
481 579
482 483
482 484
482 485
482 486
482 487
482 488
482 494
482 496
482 497
482 499
482 500
482 502
482 503
482 504
482 505
482 506
482 507
482 508
482 509
482 510
482 511
482 513
482 514
482 515
482 516
482 517
482 518
482 520
482 522
482 524
482 525
482 527
482 531
482 532
482 533
482 534
482 535
482 536
482 537
482 538
482 539
482 540
482 542
482 543
482 544
482 545
482 546
482 547
482 548
482 551
482 556
482 557
482 560
482 561
482 562
482 563
482 564
482 565
482 566
482 567
482 568
482 569
482 570
482 571
482 572
482 573
482 575
482 576
482 577
482 578
482 579
483 484
483 485
483 486
483 487
483 488
483 494
483 496
483 497
483 499
483 500
483 502
483 503
483 504
483 505
483 506
483 507
483 508
483 509
483 510
483 511
483 512
483 514
483 515
483 516
483 517
483 518
483 519
483 520
483 521
483 522
483 523
483 524
483 526
483 527
483 528
483 529
483 530
483 531
483 532
483 533
483 534
483 535
483 536
483 537
483 538
483 539
483 540
483 541
483 543
483 544
483 545
483 546
483 547
483 548
483 551
483 556
483 557
483 560
483 561
483 562
483 570
483 571
483 572
483 573
483 574
483 576
483 578
483 579
484 485
484 486
484 487
484 488
484 494
484 496
484 497
484 499
484 500
484 502
484 503
484 504
484 505
484 506
484 507
484 508
484 509
484 510
484 511
484 512
484 513
484 514
484 516
484 517
484 518
484 519
484 520
484 521
484 522
484 523
484 524
484 525
484 526
484 528
484 529
484 530
484 531
484 532
484 535
484 539
484 540
484 541
484 542
484 545
484 546
484 547
484 548
484 551
484 556
484 557
484 560
484 561
484 562
484 563
484 564
484 565
484 566
484 567
484 568
484 569
484 570
484 571
484 572
484 573
484 574
484 575
484 577
484 578
484 579
485 486
485 487
485 488
485 494
485 496
485 497
485 499
485 500
485 502
485 503
485 504
485 508
485 511
485 512
485 513
485 515
485 518
485 519
485 520
485 521
485 522
485 523
485 524
485 525
485 526
485 527
485 528
485 529
485 530
485 532
485 533
485 534
485 535
485 536
485 537
485 538
485 539
485 540
485 541
485 542
485 543
485 544
485 546
485 547
485 548
485 549
485 550
485 551
485 552
485 553
485 554
485 555
485 556
485 557
485 558
485 559
485 561
485 562
485 563
485 564
485 565
485 566
485 567
485 568
485 569
485 570
485 571
485 572
485 573
485 574
485 575
485 576
485 577
485 579
486 487
486 488
486 489
486 490
486 491
486 492
486 493
486 494
486 495
486 496
486 497
486 498
486 499
486 500
486 501
486 503
486 504
486 508
486 511
486 512
486 513
486 515
486 518
486 520
486 522
486 524
486 525
486 527
486 531
486 532
486 533
486 534
486 535
486 536
486 537
486 538
486 539
486 540
486 541
486 542
486 543
486 544
486 545
486 547
486 548
486 549
486 550
486 551
486 552
486 553
486 554
486 555
486 556
486 557
486 558
486 559
486 560
486 562
486 563
486 564
486 565
486 566
486 567
486 568
486 569
486 570
486 571
486 572
486 573
486 574
486 575
486 576
486 577
486 578
487 488
487 494
487 496
487 497
487 499
487 500
487 502
487 503
487 504
487 508
487 511
487 512
487 513
487 515
487 518
487 519
487 520
487 521
487 522
487 523
487 524
487 525
487 526
487 527
487 528
487 529
487 530
487 531
487 533
487 534
487 535
487 536
487 537
487 538
487 539
487 540
487 541
487 542
487 543
487 544
487 545
487 546
487 548
487 549
487 550
487 551
487 552
487 553
487 554
487 555
487 556
487 557
487 558
487 559
487 560
487 561
487 570
487 571
487 572
487 573
487 574
487 576
487 578
487 579
488 489
488 490
488 491
488 492
488 493
488 494
488 495
488 496
488 497
488 498
488 499
488 500
488 501
488 502
488 504
488 505
488 506
488 507
488 508
488 509
488 510
488 511
488 512
488 513
488 514
488 515
488 516
488 517
488 520
488 522
488 524
488 526
488 533
488 535
488 539
488 546
488 549
488 550
488 551
488 552
488 553
488 554
488 555
488 556
488 557
488 558
488 559
488 560
488 561
488 562
488 563
488 565
488 571
488 572
488 575
488 579
489 490
489 491
489 492
489 493
489 494
489 495
489 496
489 497
489 498
489 499
489 500
489 501
489 502
489 503
489 506
489 508
489 510
489 514
489 520
489 522
489 524
489 526
489 533
489 535
489 539
489 546
489 548
489 549
489 551
489 556
489 561
489 563
489 565
489 571
489 572
489 575
489 579
490 491
490 492
490 493
490 494
490 495
490 496
490 497
490 498
490 499
490 500
490 501
490 502
490 503
490 506
490 508
490 510
490 514
490 520
490 522
490 524
490 526
490 534
490 535
490 536
490 537
490 538
490 539
490 540
490 541
490 542
490 543
490 544
490 545
490 546
490 547
490 548
490 549
490 551
490 556
490 561
490 563
490 565
490 571
490 572
490 575
490 579
491 492
491 493
491 494
491 495
491 496
491 497
491 498
491 499
491 500
491 501
491 502
491 503
491 506
491 508
491 510
491 514
491 520
491 522
491 524
491 526
491 533
491 535
491 539
491 546
491 548
491 549
491 551
491 556
491 561
491 564
491 565
491 566
491 567
491 568
491 569
491 570
491 571
491 572
491 573
491 574
491 575
491 576
491 577
491 578
491 579
492 493
492 494
492 495
492 496
492 497
492 498
492 499
492 500
492 501
492 502
492 503
492 506
492 508
492 510
492 514
492 520
492 522
492 524
492 526
492 533
492 535
492 539
492 546
492 548
492 550
492 551
492 552
492 553
492 554
492 555
492 556
492 557
492 558
492 559
492 560
492 561
492 562
492 563
492 565
492 571
492 572
492 575
492 579
493 494
493 495
493 496
493 497
493 498
493 499
493 500
493 501
493 502
493 503
493 504
493 505
493 507
493 508
493 509
493 510
493 511
493 512
493 513
493 514
493 515
493 516
493 517
493 520
493 522
493 524
493 526
493 533
493 535
493 539
493 546
493 548
493 549
493 551
493 556
493 561
493 563
493 564
493 566
493 567
493 568
493 569
493 570
493 571
493 572
493 573
493 574
493 575
493 576
493 577
493 578
493 579
494 495
494 496
494 497
494 498
494 499
494 500
494 501
494 502
494 503
494 506
494 508
494 510
494 514
494 518
494 519
494 521
494 522
494 523
494 524
494 525
494 526
494 527
494 528
494 529
494 530
494 531
494 532
494 533
494 535
494 539
494 546
494 548
494 549
494 550
494 552
494 553
494 554
494 555
494 556
494 557
494 558
494 559
494 560
494 561
494 562
494 563
494 565
494 571
494 572
494 575
494 579
495 496
495 497
495 498
495 499
495 500
495 501
495 502
495 503
495 506
495 508
495 510
495 514
495 520
495 522
495 524
495 526
495 533
495 535
495 539
495 546
495 548
495 549
495 551
495 556
495 561
495 563
495 565
495 571
495 572
495 575
495 579
496 497
496 498
496 499
496 500
496 501
496 502
496 503
496 504
496 505
496 506
496 507
496 509
496 510
496 511
496 512
496 513
496 514
496 515
496 516
496 517
496 520
496 522
496 524
496 526
496 533
496 534
496 536
496 537
496 538
496 539
496 540
496 541
496 542
496 543
496 544
496 545
496 546
496 547
496 548
496 549
496 551
496 556
496 561
496 563
496 565
496 571
496 572
496 575
496 579
497 498
497 499
497 500
497 501
497 502
497 503
497 506
497 508
497 510
497 514
497 518
497 519
497 520
497 521
497 523
497 524
497 525
497 526
497 527
497 528
497 529
497 530
497 531
497 532
497 533
497 535
497 539
497 546
497 548
497 549
497 551
497 556
497 561
497 563
497 565
497 571
497 572
497 575
497 579
498 499
498 500
498 501
498 502
498 503
498 504
498 505
498 506
498 507
498 508
498 509
498 511
498 512
498 513
498 514
498 515
498 516
498 517
498 520
498 522
498 524
498 526
498 533
498 535
498 539
498 546
498 548
498 549
498 551
498 556
498 561
498 563
498 565
498 571
498 572
498 575
498 579
499 500
499 501
499 502
499 503
499 506
499 508
499 510
499 514
499 518
499 519
499 520
499 521
499 522
499 523
499 525
499 526
499 527
499 528
499 529
499 530
499 531
499 532
499 533
499 534
499 535
499 536
499 537
499 538
499 540
499 541
499 542
499 543
499 544
499 545
499 546
499 547
499 548
499 549
499 551
499 556
499 561
499 563
499 564
499 565
499 566
499 567
499 568
499 569
499 570
499 572
499 573
499 574
499 575
499 576
499 577
499 578
499 579
500 501
500 502
500 503
500 506
500 508
500 510
500 514
500 520
500 522
500 524
500 526
500 533
500 535
500 539
500 546
500 548
500 549
500 550
500 551
500 552
500 553
500 554
500 555
500 557
500 558
500 559
500 560
500 561
500 562
500 563
500 564
500 565
500 566
500 567
500 568
500 569
500 570
500 571
500 573
500 574
500 575
500 576
500 577
500 578
500 579
501 502
501 503
501 504
501 505
501 506
501 507
501 508
501 509
501 510
501 511
501 512
501 513
501 515
501 516
501 517
501 518
501 519
501 520
501 521
501 522
501 523
501 524
501 525
501 527
501 528
501 529
501 530
501 531
501 532
501 533
501 535
501 539
501 546
501 548
501 549
501 551
501 556
501 561
501 563
501 564
501 565
501 566
501 567
501 568
501 569
501 570
501 571
501 572
501 573
501 574
501 576
501 577
501 578
501 579
502 503
502 506
502 508
502 510
502 514
502 520
502 522
502 524
502 526
502 533
502 534
502 535
502 536
502 537
502 538
502 539
502 540
502 541
502 542
502 543
502 544
502 545
502 547
502 548
502 549
502 550
502 551
502 552
502 553
502 554
502 555
502 556
502 557
502 558
502 559
502 560
502 562
502 563
502 564
502 565
502 566
502 567
502 568
502 569
502 570
502 571
502 572
502 573
502 574
502 575
502 576
502 577
502 578
503 504
503 505
503 506
503 507
503 508
503 509
503 510
503 511
503 512
503 513
503 514
503 515
503 516
503 517
503 518
503 519
503 525
503 526
503 527
503 528
503 529
503 535
503 537
503 540
503 541
503 542
503 543
503 544
503 549
503 550
503 551
503 552
503 553
503 554
503 555
503 556
503 557
503 558
503 559
503 560
503 561
503 562
503 564
503 565
503 573
503 574
503 575
503 576
504 505
504 506
504 507
504 508
504 509
504 510
504 511
504 512
504 513
504 514
504 515
504 516
504 517
504 519
504 520
504 521
504 522
504 523
504 524
504 525
504 526
504 527
504 528
504 529
504 530
504 531
504 532
504 535
504 537
504 540
504 541
504 542
504 543
504 544
504 548
504 550
504 552
504 554
504 557
504 558
504 564
504 565
504 573
504 574
504 575
504 576
505 506
505 507
505 508
505 509
505 510
505 511
505 512
505 513
505 514
505 515
505 516
505 517
505 518
505 520
505 521
505 522
505 523
505 524
505 525
505 526
505 527
505 528
505 529
505 530
505 531
505 532
505 535
505 537
505 540
505 541
505 542
505 543
505 544
505 548
505 549
505 551
505 552
505 553
505 554
505 555
505 556
505 557
505 558
505 559
505 560
505 561
505 562
505 563
505 565
505 566
505 567
505 568
505 569
505 570
505 571
505 572
505 573
505 574
505 575
505 576
505 577
505 578
505 579
506 507
506 508
506 509
506 510
506 511
506 512
506 513
506 514
506 515
506 516
506 517
506 518
506 519
506 525
506 526
506 527
506 528
506 529
506 535
506 537
506 540
506 541
506 542
506 543
506 544
506 548
506 550
506 552
506 554
506 557
506 558
506 563
506 564
506 566
506 567
506 568
506 569
506 570
506 571
506 572
506 573
506 574
506 575
506 576
506 577
506 578
506 579
507 508
507 509
507 510
507 511
507 512
507 513
507 514
507 515
507 516
507 517
507 518
507 519
507 525
507 526
507 527
507 528
507 529
507 535
507 537
507 540
507 541
507 542
507 543
507 544
507 548
507 549
507 550
507 551
507 553
507 554
507 555
507 556
507 557
507 558
507 559
507 560
507 561
507 562
507 564
507 565
507 573
507 574
507 575
507 576
508 509
508 510
508 511
508 512
508 513
508 514
508 515
508 516
508 517
508 518
508 519
508 525
508 526
508 527
508 528
508 529
508 533
508 534
508 536
508 537
508 538
508 539
508 540
508 541
508 542
508 543
508 544
508 545
508 546
508 547
508 548
508 550
508 552
508 554
508 557
508 558
508 564
508 565
508 573
508 574
508 575
508 576
509 510
509 511
509 512
509 513
509 514
509 515
509 516
509 517
509 518
509 519
509 525
509 526
509 527
509 528
509 529
509 533
509 534
509 535
509 536
509 538
509 539
509 540
509 541
509 542
509 543
509 544
509 545
509 546
509 547
509 548
509 549
509 550
509 551
509 552
509 553
509 555
509 556
509 557
509 558
509 559
509 560
509 561
509 562
509 564
509 565
509 573
509 574
509 575
509 576
510 511
510 512
510 513
510 514
510 515
510 516
510 517
510 518
510 519
510 525
510 526
510 527
510 528
510 529
510 535
510 537
510 540
510 541
510 542
510 543
510 544
510 548
510 550
510 552
510 554
510 557
510 558
510 564
510 565
510 573
510 574
510 575
510 576
511 512
511 513
511 514
511 515
511 516
511 517
511 518
511 519
511 525
511 526
511 527
511 528
511 529
511 533
511 534
511 535
511 536
511 537
511 538
511 539
511 541
511 542
511 543
511 544
511 545
511 546
511 547
511 548
511 549
511 550
511 551
511 552
511 553
511 554
511 555
511 556
511 558
511 559
511 560
511 561
511 562
511 563
511 564
511 565
511 566
511 567
511 568
511 569
511 570
511 571
511 572
511 574
511 575
511 576
511 577
511 578
511 579
512 513
512 514
512 515
512 516
512 517
512 518
512 519
512 525
512 526
512 527
512 528
512 529
512 533
512 534
512 535
512 536
512 537
512 538
512 539
512 540
512 542
512 543
512 544
512 545
512 546
512 547
512 548
512 550
512 552
512 554
512 557
512 558
512 563
512 564
512 565
512 566
512 567
512 568
512 569
512 570
512 571
512 572
512 573
512 575
512 576
512 577
512 578
512 579
513 514
513 515
513 516
513 517
513 518
513 519
513 520
513 521
513 522
513 523
513 524
513 526
513 527
513 528
513 529
513 530
513 531
513 532
513 533
513 534
513 535
513 536
513 537
513 538
513 539
513 540
513 541
513 543
513 544
513 545
513 546
513 547
513 548
513 550
513 552
513 554
513 557
513 558
513 564
513 565
513 573
513 574
513 575
513 576
514 515
514 516
514 517
514 518
514 519
514 520
514 521
514 522
514 523
514 524
514 525
514 527
514 528
514 529
514 530
514 531
514 532
514 535
514 537
514 540
514 541
514 542
514 543
514 544
514 548
514 550
514 552
514 554
514 557
514 558
514 563
514 564
514 565
514 566
514 567
514 568
514 569
514 570
514 571
514 572
514 573
514 574
514 576
514 577
514 578
514 579
515 516
515 517
515 518
515 519
515 520
515 521
515 522
515 523
515 524
515 525
515 526
515 528
515 529
515 530
515 531
515 532
515 535
515 537
515 540
515 541
515 542
515 543
515 544
515 548
515 550
515 552
515 554
515 557
515 558
515 563
515 564
515 565
515 566
515 567
515 568
515 569
515 570
515 571
515 572
515 573
515 574
515 575
515 577
515 578
515 579
516 517
516 518
516 519
516 520
516 521
516 522
516 523
516 524
516 525
516 526
516 527
516 529
516 530
516 531
516 532
516 533
516 534
516 535
516 536
516 537
516 538
516 539
516 540
516 541
516 542
516 544
516 545
516 546
516 547
516 548
516 550
516 552
516 554
516 557
516 558
516 564
516 565
516 573
516 574
516 575
516 576
517 518
517 519
517 520
517 521
517 522
517 523
517 524
517 525
517 526
517 527
517 528
517 530
517 531
517 532
517 533
517 534
517 535
517 536
517 537
517 538
517 539
517 540
517 541
517 542
517 543
517 545
517 546
517 547
517 548
517 549
517 550
517 551
517 552
517 553
517 554
517 555
517 556
517 557
517 559
517 560
517 561
517 562
517 564
517 565
517 573
517 574
517 575
517 576
518 519
518 520
518 521
518 522
518 523
518 524
518 525
518 526
518 527
518 528
518 529
518 530
518 531
518 532
518 538
518 539
518 542
518 543
518 544
518 545
518 547
518 550
518 551
518 555
518 558
518 559
518 560
518 562
518 564
518 566
518 569
518 571
518 575
518 576
518 577
518 578
519 520
519 521
519 522
519 523
519 524
519 525
519 526
519 527
519 528
519 529
519 530
519 531
519 532
519 538
519 539
519 542
519 543
519 544
519 545
519 547
519 548
519 549
519 551
519 552
519 553
519 554
519 555
519 556
519 557
519 558
519 559
519 560
519 561
519 562
519 563
519 565
519 566
519 567
519 568
519 569
519 570
519 571
519 572
519 573
519 574
519 575
519 576
519 577
519 578
519 579
520 521
520 522
520 523
520 524
520 525
520 526
520 527
520 528
520 529
520 530
520 531
520 532
520 538
520 539
520 542
520 543
520 544
520 545
520 547
520 548
520 549
520 550
520 552
520 553
520 554
520 555
520 556
520 557
520 558
520 559
520 560
520 561
520 562
520 564
520 566
520 569
520 571
520 575
520 576
520 577
520 578
521 522
521 523
521 524
521 525
521 526
521 527
521 528
521 529
521 530
521 531
521 532
521 538
521 539
521 542
521 543
521 544
521 545
521 547
521 550
521 551
521 555
521 558
521 559
521 560
521 562
521 563
521 564
521 565
521 567
521 568
521 569
521 570
521 571
521 572
521 573
521 574
521 575
521 576
521 577
521 578
521 579
522 523
522 524
522 525
522 526
522 527
522 528
522 529
522 530
522 531
522 532
522 538
522 539
522 542
522 543
522 544
522 545
522 547
522 550
522 551
522 555
522 558
522 559
522 560
522 562
522 564
522 566
522 569
522 571
522 575
522 576
522 577
522 578
523 524
523 525
523 526
523 527
523 528
523 529
523 530
523 531
523 532
523 533
523 534
523 535
523 536
523 537
523 539
523 540
523 541
523 542
523 543
523 544
523 545
523 546
523 547
523 548
523 549
523 550
523 551
523 552
523 553
523 554
523 556
523 557
523 558
523 559
523 560
523 561
523 562
523 563
523 564
523 565
523 566
523 567
523 568
523 570
523 571
523 572
523 573
523 574
523 575
523 576
523 577
523 578
523 579
524 525
524 526
524 527
524 528
524 529
524 530
524 531
524 532
524 533
524 534
524 535
524 536
524 537
524 538
524 540
524 541
524 542
524 543
524 544
524 545
524 546
524 547
524 550
524 551
524 555
524 558
524 559
524 560
524 562
524 563
524 564
524 565
524 566
524 567
524 568
524 569
524 570
524 572
524 573
524 574
524 575
524 576
524 577
524 578
524 579
525 526
525 527
525 528
525 529
525 530
525 531
525 532
525 533
525 534
525 535
525 536
525 537
525 538
525 539
525 540
525 541
525 543
525 544
525 545
525 546
525 547
525 550
525 551
525 555
525 558
525 559
525 560
525 562
525 564
525 566
525 569
525 571
525 575
525 576
525 577
525 578
526 527
526 528
526 529
526 530
526 531
526 532
526 538
526 539
526 542
526 543
526 544
526 545
526 547
526 550
526 551
526 555
526 558
526 559
526 560
526 562
526 563
526 564
526 565
526 566
526 567
526 568
526 569
526 570
526 571
526 572
526 573
526 574
526 576
526 577
526 578
526 579
527 528
527 529
527 530
527 531
527 532
527 538
527 539
527 542
527 543
527 544
527 545
527 547
527 550
527 551
527 555
527 558
527 559
527 560
527 562
527 563
527 564
527 565
527 566
527 567
527 568
527 569
527 570
527 571
527 572
527 573
527 574
527 575
527 577
527 578
527 579
528 529
528 530
528 531
528 532
528 533
528 534
528 535
528 536
528 537
528 538
528 539
528 540
528 541
528 542
528 544
528 545
528 546
528 547
528 550
528 551
528 555
528 558
528 559
528 560
528 562
528 564
528 566
528 569
528 571
528 575
528 576
528 577
528 578
529 530
529 531
529 532
529 533
529 534
529 535
529 536
529 537
529 538
529 539
529 540
529 541
529 542
529 543
529 545
529 546
529 547
529 548
529 549
529 550
529 551
529 552
529 553
529 554
529 555
529 556
529 557
529 559
529 560
529 561
529 562
529 564
529 566
529 569
529 571
529 575
529 576
529 577
529 578
530 531
530 532
530 538
530 539
530 542
530 543
530 544
530 545
530 547
530 548
530 549
530 550
530 551
530 552
530 553
530 554
530 555
530 556
530 557
530 558
530 560
530 561
530 562
530 563
530 564
530 565
530 566
530 567
530 568
530 569
530 570
530 571
530 572
530 573
530 574
530 575
530 576
530 578
530 579
531 532
531 533
531 534
531 535
531 536
531 537
531 538
531 539
531 540
531 541
531 542
531 543
531 544
531 546
531 547
531 548
531 549
531 550
531 551
531 552
531 553
531 554
531 555
531 556
531 557
531 558
531 559
531 561
531 562
531 563
531 564
531 565
531 566
531 567
531 568
531 569
531 570
531 571
531 572
531 573
531 574
531 575
531 576
531 577
531 579
532 533
532 534
532 535
532 536
532 537
532 538
532 539
532 540
532 541
532 542
532 543
532 544
532 545
532 546
532 548
532 549
532 550
532 551
532 552
532 553
532 554
532 555
532 556
532 557
532 558
532 559
532 560
532 561
532 564
532 566
532 569
532 571
532 575
532 576
532 577
532 578
533 534
533 535
533 536
533 537
533 538
533 539
533 540
533 541
533 542
533 543
533 544
533 545
533 546
533 547
533 554
533 555
533 557
533 558
533 560
533 561
533 562
533 568
533 569
533 571
533 573
533 574
533 578
533 579
534 535
534 536
534 537
534 538
534 539
534 540
534 541
534 542
534 543
534 544
534 545
534 546
534 547
534 554
534 555
534 557
534 558
534 560
534 561
534 562
534 568
534 569
534 571
534 573
534 574
534 578
534 579
535 536
535 537
535 538
535 539
535 540
535 541
535 542
535 543
535 544
535 545
535 546
535 547
535 554
535 555
535 557
535 558
535 560
535 561
535 562
535 568
535 569
535 571
535 573
535 574
535 578
535 579
536 537
536 538
536 539
536 540
536 541
536 542
536 543
536 544
536 545
536 546
536 547
536 554
536 555
536 557
536 558
536 560
536 561
536 562
536 563
536 564
536 565
536 566
536 567
536 569
536 570
536 571
536 572
536 573
536 574
536 575
536 576
536 577
536 578
536 579
537 538
537 539
537 540
537 541
537 542
537 543
537 544
537 545
537 546
537 547
537 548
537 549
537 550
537 551
537 552
537 553
537 555
537 556
537 557
537 558
537 559
537 560
537 561
537 562
537 568
537 569
537 571
537 573
537 574
537 578
537 579
538 539
538 540
538 541
538 542
538 543
538 544
538 545
538 546
538 547
538 548
538 549
538 550
538 551
538 552
538 553
538 554
538 556
538 557
538 558
538 559
538 560
538 561
538 562
538 563
538 564
538 565
538 566
538 567
538 568
538 570
538 571
538 572
538 573
538 574
538 575
538 576
538 577
538 578
538 579
539 540
539 541
539 542
539 543
539 544
539 545
539 546
539 547
539 554
539 555
539 557
539 558
539 560
539 561
539 562
539 563
539 564
539 565
539 566
539 567
539 568
539 569
539 570
539 572
539 573
539 574
539 575
539 576
539 577
539 578
539 579
540 541
540 542
540 543
540 544
540 545
540 546
540 547
540 548
540 549
540 550
540 551
540 552
540 553
540 554
540 555
540 556
540 558
540 559
540 560
540 561
540 562
540 563
540 564
540 565
540 566
540 567
540 568
540 569
540 570
540 571
540 572
540 574
540 575
540 576
540 577
540 578
540 579
541 542
541 543
541 544
541 545
541 546
541 547
541 554
541 555
541 557
541 558
541 560
541 561
541 562
541 563
541 564
541 565
541 566
541 567
541 568
541 569
541 570
541 571
541 572
541 573
541 575
541 576
541 577
541 578
541 579
542 543
542 544
542 545
542 546
542 547
542 554
542 555
542 557
542 558
542 560
542 561
542 562
542 568
542 569
542 571
542 573
542 574
542 578
542 579
543 544
543 545
543 546
543 547
543 554
543 555
543 557
543 558
543 560
543 561
543 562
543 568
543 569
543 571
543 573
543 574
543 578
543 579
544 545
544 546
544 547
544 548
544 549
544 550
544 551
544 552
544 553
544 554
544 555
544 556
544 557
544 559
544 560
544 561
544 562
544 568
544 569
544 571
544 573
544 574
544 578
544 579
545 546
545 547
545 548
545 549
545 550
545 551
545 552
545 553
545 554
545 555
545 556
545 557
545 558
545 559
545 561
545 562
545 563
545 564
545 565
545 566
545 567
545 568
545 569
545 570
545 571
545 572
545 573
545 574
545 575
545 576
545 577
545 579
546 547
546 548
546 549
546 550
546 551
546 552
546 553
546 554
546 555
546 556
546 557
546 558
546 559
546 560
546 562
546 563
546 564
546 565
546 566
546 567
546 568
546 569
546 570
546 571
546 572
546 573
546 574
546 575
546 576
546 577
546 578
547 548
547 549
547 550
547 551
547 552
547 553
547 554
547 555
547 556
547 557
547 558
547 559
547 560
547 561
547 568
547 569
547 571
547 573
547 574
547 578
547 579
548 549
548 550
548 551
548 552
548 553
548 554
548 555
548 556
548 557
548 558
548 559
548 560
548 561
548 562
548 564
548 567
548 569
548 572
548 573
548 577
548 578
548 579
549 550
549 551
549 552
549 553
549 554
549 555
549 556
549 557
549 558
549 559
549 560
549 561
549 562
549 564
549 567
549 569
549 572
549 573
549 577
549 578
549 579
550 551
550 552
550 553
550 554
550 555
550 556
550 557
550 558
550 559
550 560
550 561
550 562
550 563
550 565
550 566
550 567
550 568
550 569
550 570
550 571
550 572
550 573
550 574
550 575
550 576
550 577
550 578
550 579
551 552
551 553
551 554
551 555
551 556
551 557
551 558
551 559
551 560
551 561
551 562
551 564
551 567
551 569
551 572
551 573
551 577
551 578
551 579
552 553
552 554
552 555
552 556
552 557
552 558
552 559
552 560
552 561
552 562
552 564
552 567
552 569
552 572
552 573
552 577
552 578
552 579
553 554
553 555
553 556
553 557
553 558
553 559
553 560
553 561
553 562
553 563
553 564
553 565
553 566
553 568
553 569
553 570
553 571
553 572
553 573
553 574
553 575
553 576
553 577
553 578
553 579
554 555
554 556
554 557
554 558
554 559
554 560
554 561
554 562
554 564
554 567
554 569
554 572
554 573
554 577
554 578
554 579
555 556
555 557
555 558
555 559
555 560
555 561
555 562
555 563
555 564
555 565
555 566
555 567
555 568
555 570
555 571
555 572
555 573
555 574
555 575
555 576
555 577
555 578
555 579
556 557
556 558
556 559
556 560
556 561
556 562
556 563
556 564
556 565
556 566
556 567
556 568
556 569
556 570
556 571
556 573
556 574
556 575
556 576
556 577
556 578
556 579
557 558
557 559
557 560
557 561
557 562
557 563
557 564
557 565
557 566
557 567
557 568
557 569
557 570
557 571
557 572
557 574
557 575
557 576
557 577
557 578
557 579
558 559
558 560
558 561
558 562
558 564
558 567
558 569
558 572
558 573
558 577
558 578
558 579
559 560
559 561
559 562
559 563
559 564
559 565
559 566
559 567
559 568
559 569
559 570
559 571
559 572
559 573
559 574
559 575
559 576
559 578
559 579
560 561
560 562
560 563
560 564
560 565
560 566
560 567
560 568
560 569
560 570
560 571
560 572
560 573
560 574
560 575
560 576
560 577
560 579
561 562
561 563
561 564
561 565
561 566
561 567
561 568
561 569
561 570
561 571
561 572
561 573
561 574
561 575
561 576
561 577
561 578
562 564
562 567
562 569
562 572
562 573
562 577
562 578
562 579
563 564
563 565
563 566
563 567
563 568
563 569
563 570
563 571
563 572
563 573
563 574
563 575
563 576
563 577
563 578
563 579
564 565
564 566
564 567
564 568
564 569
564 570
564 571
564 572
564 573
564 574
564 575
564 576
564 577
564 578
564 579
565 566
565 567
565 568
565 569
565 570
565 571
565 572
565 573
565 574
565 575
565 576
565 577
565 578
565 579
566 567
566 568
566 569
566 570
566 571
566 572
566 573
566 574
566 575
566 576
566 577
566 578
566 579
567 568
567 569
567 570
567 571
567 572
567 573
567 574
567 575
567 576
567 577
567 578
567 579
568 569
568 570
568 571
568 572
568 573
568 574
568 575
568 576
568 577
568 578
568 579
569 570
569 571
569 572
569 573
569 574
569 575
569 576
569 577
569 578
569 579
570 571
570 572
570 573
570 574
570 575
570 576
570 577
570 578
570 579
571 572
571 573
571 574
571 575
571 576
571 577
571 578
571 579
572 573
572 574
572 575
572 576
572 577
572 578
572 579
573 574
573 575
573 576
573 577
573 578
573 579
574 575
574 576
574 577
574 578
574 579
575 576
575 577
575 578
575 579
576 577
576 578
576 579
577 578
577 579
578 579
