477:45782
0 1
0 2
0 3
0 23
0 24
0 26
0 44
0 47
0 84
0 88
0 109
0 110
0 122
0 123
0 124
0 125
0 127
0 128
0 129
0 130
0 131
0 132
0 133
0 134
0 135
0 136
0 137
0 138
0 139
0 160
0 172
0 174
0 175
0 176
0 178
0 179
0 180
0 181
0 182
0 183
0 184
0 185
0 208
0 210
0 245
0 261
0 262
0 264
0 313
0 316
0 343
0 345
0 380
0 387
0 406
0 408
0 409
0 410
0 411
0 412
0 413
0 414
0 415
0 416
0 417
0 432
0 433
1 2
1 3
1 18
1 19
1 20
1 21
1 22
1 24
1 25
1 26
1 27
1 28
1 36
1 37
1 38
1 39
1 40
1 41
1 42
1 43
1 45
1 46
1 47
1 48
1 49
1 50
1 51
1 65
1 66
1 67
1 68
1 69
1 70
1 71
1 72
1 73
1 74
1 75
1 76
1 77
1 78
1 79
1 80
1 81
1 82
1 83
1 85
1 86
1 87
1 88
1 89
1 90
1 91
1 92
1 93
1 94
1 95
1 96
1 97
1 98
1 99
1 100
1 101
1 102
1 103
1 104
1 105
1 106
1 107
1 108
1 110
1 111
1 112
1 113
1 122
1 123
1 124
1 125
1 126
1 127
1 128
1 129
1 131
1 132
1 133
1 134
1 135
1 136
1 137
1 138
1 140
1 141
1 160
1 172
1 174
1 175
1 176
1 177
1 178
1 179
1 180
1 182
1 183
1 184
1 185
1 208
1 210
1 245
1 255
1 256
1 257
1 258
1 259
1 260
1 262
1 263
1 264
1 265
1 303
1 304
1 305
1 306
1 307
1 308
1 309
1 310
1 311
1 312
1 314
1 315
1 316
1 317
1 318
1 319
1 320
1 343
1 345
1 380
1 387
1 406
1 407
1 408
1 409
1 410
1 412
1 413
1 414
1 415
1 416
1 417
1 432
1 433
2 3
2 18
2 19
2 20
2 21
2 22
2 23
2 25
2 26
2 27
2 28
2 44
2 47
2 84
2 88
2 109
2 110
2 122
2 123
2 124
2 125
2 126
2 127
2 128
2 129
2 130
2 132
2 133
2 134
2 135
2 136
2 137
2 138
2 139
2 154
2 155
2 156
2 157
2 158
2 159
2 161
2 162
2 163
2 164
2 165
2 172
2 174
2 175
2 176
2 177
2 178
2 179
2 180
2 181
2 183
2 184
2 185
2 203
2 204
2 205
2 206
2 207
2 209
2 210
2 211
2 212
2 245
2 255
2 256
2 257
2 258
2 259
2 260
2 261
2 263
2 264
2 265
2 313
2 316
2 340
2 341
2 342
2 344
2 345
2 346
2 347
2 372
2 373
2 374
2 375
2 376
2 377
2 378
2 379
2 381
2 382
2 383
2 384
2 385
2 387
2 406
2 407
2 408
2 409
2 410
2 411
2 413
2 414
2 415
2 416
2 417
2 421
2 422
2 423
2 424
2 425
2 426
2 427
2 428
2 429
2 430
2 431
2 433
2 434
2 435
2 436
2 437
2 438
2 439
2 440
3 18
3 19
3 20
3 21
3 22
3 23
3 24
3 25
3 27
3 28
3 36
3 37
3 38
3 39
3 40
3 41
3 42
3 43
3 44
3 45
3 46
3 48
3 49
3 50
3 51
3 65
3 66
3 67
3 68
3 69
3 70
3 71
3 72
3 73
3 74
3 75
3 76
3 77
3 78
3 79
3 80
3 81
3 82
3 83
3 84
3 85
3 86
3 87
3 89
3 90
3 91
3 92
3 93
3 94
3 95
3 96
3 97
3 98
3 99
3 100
3 101
3 102
3 103
3 104
3 105
3 106
3 107
3 108
3 109
3 111
3 112
3 113
3 122
3 123
3 124
3 125
3 126
3 127
3 128
3 129
3 130
3 131
3 132
3 133
3 135
3 136
3 137
3 138
3 139
3 160
3 170
3 171
3 173
3 174
3 175
3 176
3 177
3 178
3 179
3 180
3 181
3 182
3 183
3 185
3 203
3 204
3 205
3 206
3 207
3 208
3 209
3 211
3 212
3 228
3 229
3 230
3 231
3 232
3 233
3 234
3 235
3 236
3 237
3 238
3 239
3 240
3 241
3 242
3 243
3 244
3 246
3 247
3 248
3 249
3 250
3 255
3 256
3 257
3 258
3 259
3 260
3 261
3 262
3 263
3 265
3 303
3 304
3 305
3 306
3 307
3 308
3 309
3 310
3 311
3 312
3 313
3 314
3 315
3 317
3 318
3 319
3 320
3 340
3 341
3 342
3 343
3 344
3 346
3 347
3 380
3 386
3 406
3 407
3 408
3 409
3 410
3 411
3 412
3 413
3 415
3 416
3 417
3 421
3 422
3 423
3 424
3 425
3 426
3 427
3 428
3 429
3 430
3 431
3 432
3 434
3 435
3 436
3 437
3 438
3 439
3 440
4 5
4 6
4 7
4 8
4 9
4 10
4 11
4 12
4 13
4 14
4 17
4 22
4 34
4 42
4 65
4 71
4 81
4 99
4 108
4 129
4 142
4 143
4 166
4 186
4 188
4 200
4 207
4 239
4 252
4 253
4 254
4 260
4 270
4 285
4 295
4 311
4 327
4 337
4 352
4 358
4 370
4 371
4 389
4 390
4 391
4 392
4 393
4 394
4 397
4 400
4 402
4 404
4 410
4 430
4 461
4 462
4 464
4 475
4 476
5 6
5 7
5 8
5 9
5 10
5 11
5 12
5 13
5 14
5 17
5 22
5 34
5 42
5 66
5 67
5 68
5 69
5 70
5 71
5 72
5 73
5 74
5 75
5 76
5 77
5 78
5 79
5 80
5 81
5 82
5 83
5 84
5 85
5 86
5 87
5 88
5 89
5 90
5 91
5 92
5 93
5 94
5 95
5 96
5 97
5 98
5 99
5 100
5 101
5 108
5 129
5 142
5 143
5 166
5 186
5 188
5 200
5 207
5 239
5 251
5 252
5 253
5 254
5 260
5 270
5 285
5 295
5 311
5 327
5 337
5 352
5 358
5 370
5 371
5 390
5 391
5 392
5 393
5 394
5 397
5 400
5 402
5 404
5 410
5 430
5 461
5 462
5 464
5 475
5 476
6 7
6 8
6 9
6 10
6 11
6 12
6 13
6 14
6 17
6 22
6 34
6 42
6 65
6 71
6 81
6 99
6 108
6 129
6 142
6 143
6 166
6 186
6 188
6 200
6 207
6 239
6 251
6 252
6 254
6 260
6 270
6 285
6 295
6 311
6 327
6 337
6 352
6 358
6 370
6 371
6 389
6 390
6 391
6 392
6 393
6 394
6 397
6 400
6 402
6 404
6 410
6 430
6 461
6 462
6 464
6 475
6 476
7 8
7 9
7 10
7 11
7 12
7 13
7 14
7 17
7 22
7 34
7 42
7 65
7 66
7 67
7 68
7 69
7 70
7 72
7 73
7 74
7 75
7 76
7 77
7 78
7 79
7 80
7 81
7 82
7 83
7 84
7 85
7 86
7 87
7 88
7 89
7 90
7 91
7 92
7 93
7 94
7 95
7 96
7 97
7 98
7 99
7 100
7 101
7 108
7 129
7 143
7 166
7 186
7 188
7 200
7 207
7 239
7 251
7 253
7 260
7 270
7 285
7 295
7 311
7 327
7 337
7 352
7 358
7 371
7 389
7 391
7 392
7 394
7 397
7 400
7 402
7 404
7 410
7 430
7 462
7 464
7 476
8 9
8 10
8 11
8 12
8 13
8 14
8 17
8 22
8 34
8 42
8 65
8 71
8 81
8 99
8 108
8 129
8 142
8 166
8 186
8 188
8 200
8 207
8 239
8 251
8 252
8 253
8 254
8 260
8 270
8 285
8 295
8 311
8 327
8 337
8 352
8 358
8 370
8 371
8 389
8 390
8 391
8 392
8 393
8 394
8 397
8 400
8 402
8 404
8 410
8 430
8 461
8 462
8 464
8 475
8 476
9 10
9 11
9 12
9 13
9 14
9 17
9 22
9 34
9 42
9 65
9 71
9 81
9 99
9 108
9 129
9 142
9 143
9 166
9 186
9 188
9 200
9 207
9 239
9 251
9 252
9 253
9 254
9 260
9 270
9 285
9 295
9 311
9 327
9 337
9 352
9 358
9 370
9 389
9 390
9 391
9 392
9 393
9 394
9 397
9 400
9 402
9 404
9 410
9 430
9 461
9 462
9 464
9 475
9 476
10 11
10 12
10 13
10 14
10 15
10 16
10 18
10 19
10 20
10 21
10 23
10 24
10 25
10 26
10 27
10 28
10 29
10 30
10 31
10 32
10 33
10 35
10 36
10 37
10 38
10 39
10 40
10 41
10 43
10 44
10 45
10 46
10 47
10 48
10 49
10 50
10 51
10 65
10 66
10 67
10 68
10 69
10 70
10 71
10 72
10 73
10 74
10 75
10 76
10 77
10 78
10 79
10 80
10 82
10 83
10 84
10 85
10 86
10 87
10 88
10 89
10 90
10 91
10 92
10 93
10 94
10 95
10 96
10 97
10 98
10 99
10 100
10 101
10 102
10 103
10 104
10 105
10 106
10 107
10 109
10 110
10 111
10 112
10 113
10 122
10 123
10 124
10 125
10 126
10 127
10 128
10 130
10 131
10 132
10 133
10 134
10 135
10 136
10 137
10 138
10 142
10 143
10 167
10 187
10 189
10 190
10 199
10 201
10 202
10 203
10 204
10 205
10 206
10 208
10 209
10 210
10 211
10 212
10 228
10 229
10 230
10 231
10 232
10 233
10 234
10 235
10 236
10 237
10 238
10 240
10 241
10 242
10 243
10 244
10 245
10 246
10 247
10 248
10 249
10 250
10 251
10 252
10 253
10 254
10 255
10 256
10 257
10 258
10 259
10 261
10 262
10 263
10 264
10 265
10 266
10 267
10 268
10 269
10 271
10 272
10 273
10 278
10 279
10 280
10 281
10 282
10 283
10 284
10 286
10 287
10 288
10 289
10 290
10 291
10 292
10 293
10 294
10 296
10 297
10 298
10 299
10 300
10 301
10 302
10 303
10 304
10 305
10 306
10 307
10 308
10 309
10 310
10 312
10 313
10 314
10 315
10 316
10 317
10 318
10 319
10 320
10 321
10 322
10 323
10 324
10 325
10 326
10 328
10 329
10 330
10 331
10 332
10 333
10 334
10 335
10 336
10 338
10 339
10 348
10 349
10 350
10 351
10 353
10 354
10 355
10 356
10 357
10 359
10 370
10 371
10 389
10 390
10 392
10 393
10 394
10 395
10 396
10 398
10 399
10 401
10 403
10 405
10 406
10 407
10 408
10 409
10 411
10 412
10 413
10 414
10 415
10 416
10 417
10 421
10 422
10 423
10 424
10 425
10 426
10 427
10 428
10 429
10 431
10 432
10 433
10 434
10 435
10 436
10 437
10 438
10 439
10 440
10 461
10 462
10 463
10 465
10 475
10 476
11 12
11 13
11 14
11 17
11 22
11 34
11 42
11 65
11 71
11 81
11 99
11 108
11 129
11 142
11 143
11 166
11 186
11 188
11 200
11 207
11 239
11 251
11 252
11 253
11 254
11 260
11 270
11 285
11 295
11 311
11 327
11 337
11 352
11 358
11 370
11 371
11 389
11 390
11 391
11 392
11 393
11 397
11 400
11 402
11 404
11 410
11 430
11 461
11 462
11 464
11 475
11 476
12 13
12 14
12 17
12 22
12 34
12 42
12 65
12 71
12 81
12 99
12 108
12 129
12 142
12 143
12 166
12 186
12 188
12 200
12 207
12 239
12 251
12 252
12 253
12 254
12 260
12 270
12 285
12 295
12 311
12 327
12 337
12 352
12 358
12 370
12 371
12 389
12 390
12 391
12 392
12 393
12 394
12 397
12 400
12 402
12 404
12 410
12 430
12 461
12 464
12 475
12 476
13 14
13 17
13 22
13 34
13 42
13 65
13 66
13 67
13 68
13 69
13 70
13 71
13 72
13 73
13 74
13 75
13 76
13 77
13 78
13 79
13 80
13 81
13 82
13 83
13 84
13 85
13 86
13 87
13 88
13 89
13 90
13 91
13 92
13 93
13 94
13 95
13 96
13 97
13 98
13 100
13 101
13 108
13 129
13 142
13 143
13 166
13 186
13 188
13 200
13 207
13 239
13 251
13 252
13 253
13 254
13 260
13 270
13 285
13 295
13 311
13 327
13 337
13 352
13 358
13 370
13 371
13 389
13 390
13 391
13 393
13 394
13 397
13 400
13 402
13 404
13 410
13 430
13 461
13 462
13 464
13 475
13 476
14 17
14 22
14 34
14 42
14 65
14 71
14 81
14 99
14 108
14 129
14 142
14 143
14 166
14 186
14 188
14 200
14 207
14 239
14 251
14 252
14 253
14 254
14 260
14 270
14 285
14 295
14 311
14 327
14 337
14 352
14 358
14 370
14 371
14 389
14 390
14 391
14 392
14 393
14 394
14 397
14 400
14 402
14 404
14 410
14 430
14 461
14 462
14 464
14 475
15 16
15 17
15 18
15 19
15 21
15 22
15 23
15 24
15 25
15 26
15 27
15 28
15 34
15 36
15 37
15 38
15 39
15 41
15 42
15 43
15 44
15 45
15 46
15 47
15 48
15 49
15 50
15 51
15 65
15 66
15 67
15 68
15 69
15 70
15 71
15 72
15 73
15 74
15 75
15 77
15 78
15 79
15 80
15 81
15 82
15 83
15 84
15 85
15 86
15 87
15 88
15 89
15 90
15 91
15 92
15 93
15 94
15 95
15 96
15 97
15 98
15 99
15 100
15 101
15 102
15 103
15 105
15 106
15 107
15 108
15 109
15 110
15 111
15 112
15 113
15 122
15 123
15 124
15 125
15 126
15 128
15 129
15 130
15 131
15 132
15 133
15 134
15 135
15 136
15 137
15 138
15 166
15 186
15 188
15 200
15 201
15 202
15 203
15 204
15 206
15 207
15 208
15 209
15 210
15 211
15 212
15 228
15 229
15 230
15 231
15 232
15 233
15 234
15 235
15 236
15 238
15 239
15 240
15 241
15 242
15 243
15 244
15 245
15 246
15 247
15 248
15 249
15 250
15 255
15 256
15 257
15 259
15 260
15 261
15 262
15 263
15 264
15 265
15 270
15 278
15 279
15 280
15 281
15 282
15 283
15 285
15 286
15 287
15 288
15 289
15 290
15 291
15 293
15 294
15 295
15 296
15 297
15 298
15 299
15 300
15 301
15 302
15 303
15 304
15 305
15 306
15 308
15 309
15 310
15 311
15 312
15 313
15 314
15 315
15 316
15 317
15 318
15 319
15 320
15 327
15 335
15 337
15 338
15 339
15 352
15 357
15 358
15 359
15 391
15 395
15 397
15 398
15 399
15 400
15 402
15 404
15 406
15 407
15 409
15 410
15 411
15 412
15 413
15 414
15 415
15 416
15 417
15 430
15 464
16 17
16 20
16 22
16 34
16 40
16 42
16 65
16 66
16 67
16 68
16 69
16 70
16 71
16 72
16 73
16 74
16 75
16 76
16 77
16 78
16 80
16 81
16 82
16 83
16 84
16 85
16 86
16 87
16 88
16 89
16 90
16 91
16 92
16 93
16 94
16 95
16 96
16 97
16 98
16 99
16 100
16 101
16 104
16 108
16 127
16 129
16 166
16 186
16 188
16 199
16 200
16 205
16 207
16 237
16 239
16 258
16 260
16 270
16 284
16 285
16 292
16 295
16 303
16 304
16 305
16 306
16 307
16 308
16 310
16 311
16 312
16 313
16 314
16 315
16 316
16 317
16 318
16 319
16 320
16 327
16 336
16 337
16 352
16 356
16 358
16 391
16 396
16 397
16 400
16 402
16 404
16 408
16 410
16 430
16 464
17 18
17 19
17 20
17 21
17 23
17 24
17 25
17 26
17 27
17 28
17 29
17 30
17 31
17 32
17 33
17 35
17 36
17 37
17 38
17 39
17 40
17 41
17 43
17 44
17 45
17 46
17 47
17 48
17 49
17 50
17 51
17 65
17 66
17 67
17 68
17 69
17 70
17 71
17 72
17 73
17 74
17 75
17 76
17 77
17 78
17 79
17 80
17 82
17 83
17 84
17 85
17 86
17 87
17 88
17 89
17 90
17 91
17 92
17 93
17 94
17 95
17 96
17 97
17 98
17 99
17 100
17 101
17 102
17 103
17 104
17 105
17 106
17 107
17 109
17 110
17 111
17 112
17 113
17 122
17 123
17 124
17 125
17 126
17 127
17 128
17 130
17 131
17 132
17 133
17 134
17 135
17 136
17 137
17 138
17 167
17 187
17 189
17 190
17 199
17 201
17 202
17 203
17 204
17 205
17 206
17 208
17 209
17 210
17 211
17 212
17 228
17 229
17 230
17 231
17 232
17 233
17 234
17 235
17 236
17 237
17 238
17 240
17 241
17 242
17 243
17 244
17 245
17 246
17 247
17 248
17 249
17 250
17 255
17 256
17 257
17 258
17 259
17 261
17 262
17 263
17 264
17 265
17 266
17 267
17 268
17 269
17 271
17 272
17 273
17 278
17 279
17 280
17 281
17 282
17 283
17 284
17 286
17 287
17 288
17 289
17 290
17 291
17 292
17 293
17 294
17 296
17 297
17 298
17 299
17 300
17 301
17 302
17 303
17 304
17 305
17 306
17 307
17 308
17 309
17 310
17 312
17 313
17 314
17 315
17 316
17 317
17 318
17 319
17 320
17 321
17 322
17 323
17 324
17 325
17 326
17 328
17 329
17 330
17 331
17 332
17 333
17 334
17 335
17 336
17 338
17 339
17 348
17 349
17 350
17 351
17 353
17 354
17 355
17 356
17 357
17 359
17 389
17 390
17 392
17 395
17 396
17 398
17 399
17 401
17 403
17 405
17 406
17 407
17 408
17 409
17 411
17 412
17 413
17 414
17 415
17 416
17 417
17 421
17 422
17 423
17 424
17 425
17 426
17 427
17 428
17 429
17 431
17 432
17 433
17 434
17 435
17 436
17 437
17 438
17 439
17 440
17 463
17 465
18 19
18 20
18 21
18 22
18 23
18 24
18 25
18 26
18 27
18 28
18 34
18 40
18 42
18 44
18 47
18 62
18 65
18 66
18 67
18 69
18 70
18 71
18 72
18 73
18 74
18 75
18 76
18 77
18 78
18 79
18 80
18 81
18 82
18 83
18 84
18 85
18 86
18 87
18 88
18 89
18 90
18 91
18 92
18 93
18 94
18 95
18 96
18 97
18 98
18 99
18 100
18 101
18 104
18 108
18 109
18 110
18 122
18 124
18 125
18 126
18 127
18 128
18 129
18 130
18 131
18 132
18 133
18 134
18 135
18 136
18 137
18 138
18 139
18 160
18 164
18 166
18 172
18 175
18 176
18 177
18 178
18 179
18 180
18 181
18 182
18 183
18 184
18 185
18 186
18 188
18 198
18 199
18 200
18 204
18 205
18 206
18 207
18 208
18 209
18 210
18 211
18 212
18 224
18 228
18 230
18 231
18 232
18 233
18 234
18 235
18 236
18 237
18 238
18 239
18 240
18 241
18 242
18 243
18 244
18 245
18 246
18 247
18 248
18 249
18 250
18 256
18 257
18 258
18 259
18 260
18 261
18 262
18 263
18 264
18 265
18 270
18 284
18 285
18 292
18 294
18 295
18 301
18 303
18 304
18 306
18 307
18 308
18 309
18 310
18 311
18 312
18 313
18 314
18 315
18 316
18 317
18 318
18 319
18 320
18 327
18 333
18 336
18 337
18 341
18 342
18 343
18 344
18 345
18 346
18 347
18 352
18 356
18 358
18 368
18 380
18 384
18 387
18 391
18 396
18 397
18 400
18 402
18 404
18 408
18 409
18 410
18 411
18 412
18 413
18 414
18 415
18 430
18 432
18 433
18 437
18 443
18 449
18 459
18 464
19 20
19 21
19 22
19 23
19 24
19 25
19 26
19 27
19 28
19 34
19 40
19 42
19 44
19 47
19 62
19 68
19 76
19 80
19 81
19 84
19 87
19 88
19 89
19 98
19 104
19 108
19 109
19 110
19 122
19 123
19 124
19 126
19 127
19 128
19 129
19 130
19 131
19 132
19 133
19 134
19 135
19 136
19 137
19 138
19 139
19 160
19 164
19 166
19 172
19 174
19 175
19 177
19 178
19 179
19 180
19 181
19 182
19 183
19 184
19 185
19 186
19 188
19 198
19 199
19 200
19 203
19 205
19 206
19 207
19 208
19 209
19 210
19 211
19 212
19 224
19 228
19 229
19 230
19 231
19 232
19 233
19 234
19 236
19 237
19 238
19 239
19 240
19 241
19 242
19 243
19 244
19 245
19 246
19 247
19 248
19 249
19 250
19 255
19 256
19 258
19 259
19 260
19 261
19 262
19 263
19 264
19 265
19 270
19 284
19 285
19 292
19 294
19 295
19 301
19 305
19 307
19 310
19 311
19 313
19 315
19 316
19 317
19 320
19 327
19 333
19 336
19 337
19 340
19 342
19 343
19 344
19 345
19 346
19 347
19 352
19 356
19 358
19 368
19 380
19 384
19 387
19 391
19 396
19 397
19 400
19 402
19 404
19 408
19 409
19 410
19 411
19 412
19 413
19 414
19 415
19 430
19 432
19 433
19 437
19 443
19 449
19 459
19 464
20 21
20 22
20 23
20 24
20 25
20 26
20 27
20 28
20 34
20 36
20 37
20 38
20 39
20 41
20 42
20 43
20 44
20 45
20 46
20 47
20 48
20 49
20 50
20 51
20 62
20 65
20 66
20 67
20 68
20 69
20 70
20 71
20 72
20 73
20 74
20 75
20 77
20 78
20 79
20 80
20 81
20 82
20 83
20 84
20 85
20 86
20 87
20 88
20 89
20 90
20 91
20 92
20 93
20 94
20 95
20 96
20 97
20 98
20 99
20 100
20 101
20 102
20 103
20 105
20 106
20 107
20 108
20 109
20 110
20 111
20 112
20 113
20 122
20 123
20 124
20 125
20 126
20 128
20 129
20 130
20 131
20 132
20 133
20 134
20 135
20 136
20 137
20 138
20 139
20 160
20 164
20 166
20 172
20 174
20 176
20 179
20 181
20 182
20 183
20 184
20 185
20 186
20 188
20 198
20 200
20 201
20 202
20 203
20 204
20 206
20 207
20 208
20 209
20 210
20 211
20 212
20 224
20 228
20 229
20 230
20 231
20 232
20 233
20 234
20 235
20 236
20 238
20 239
20 240
20 241
20 242
20 243
20 244
20 245
20 246
20 247
20 248
20 249
20 250
20 255
20 256
20 257
20 259
20 260
20 261
20 262
20 263
20 264
20 265
20 270
20 278
20 279
20 280
20 281
20 282
20 283
20 285
20 286
20 287
20 288
20 289
20 290
20 291
20 293
20 294
20 295
20 296
20 297
20 298
20 299
20 300
20 301
20 302
20 303
20 304
20 305
20 306
20 308
20 309
20 310
20 311
20 312
20 313
20 314
20 315
20 316
20 317
20 318
20 319
20 320
20 327
20 333
20 335
20 337
20 338
20 339
20 340
20 341
20 342
20 343
20 344
20 345
20 346
20 347
20 352
20 357
20 358
20 359
20 368
20 380
20 384
20 387
20 391
20 395
20 397
20 398
20 399
20 400
20 402
20 404
20 406
20 407
20 409
20 410
20 411
20 412
20 413
20 414
20 415
20 416
20 417
20 430
20 432
20 433
20 437
20 443
20 449
20 459
20 464
21 22
21 23
21 24
21 25
21 26
21 27
21 28
21 34
21 40
21 42
21 44
21 47
21 62
21 65
21 66
21 67
21 68
21 69
21 70
21 71
21 72
21 73
21 74
21 75
21 76
21 77
21 78
21 79
21 81
21 82
21 83
21 84
21 85
21 86
21 87
21 88
21 89
21 90
21 91
21 92
21 93
21 94
21 95
21 96
21 97
21 98
21 99
21 100
21 101
21 104
21 108
21 109
21 110
21 122
21 123
21 124
21 125
21 126
21 127
21 129
21 130
21 131
21 132
21 133
21 134
21 135
21 136
21 137
21 138
21 139
21 160
21 164
21 166
21 172
21 174
21 175
21 176
21 177
21 178
21 180
21 181
21 182
21 183
21 184
21 185
21 186
21 188
21 198
21 199
21 200
21 203
21 204
21 205
21 207
21 208
21 209
21 210
21 211
21 212
21 224
21 229
21 235
21 237
21 239
21 244
21 245
21 246
21 249
21 255
21 256
21 257
21 258
21 260
21 261
21 262
21 263
21 264
21 265
21 270
21 284
21 285
21 287
21 288
21 289
21 290
21 291
21 292
21 293
21 295
21 296
21 297
21 298
21 299
21 300
21 301
21 302
21 303
21 304
21 305
21 306
21 307
21 308
21 309
21 311
21 312
21 313
21 314
21 315
21 316
21 317
21 318
21 319
21 320
21 327
21 333
21 336
21 337
21 340
21 341
21 343
21 344
21 345
21 346
21 347
21 352
21 356
21 358
21 368
21 380
21 384
21 387
21 391
21 396
21 397
21 400
21 402
21 404
21 406
21 407
21 408
21 410
21 411
21 412
21 413
21 414
21 415
21 416
21 417
21 430
21 432
21 433
21 437
21 443
21 449
21 459
21 464
22 23
22 24
22 25
22 26
22 27
22 28
22 29
22 30
22 31
22 32
22 33
22 35
22 36
22 37
22 38
22 39
22 40
22 41
22 43
22 44
22 45
22 46
22 47
22 48
22 49
22 50
22 51
22 62
22 65
22 66
22 67
22 68
22 69
22 70
22 71
22 72
22 73
22 74
22 75
22 76
22 77
22 78
22 79
22 80
22 82
22 83
22 84
22 85
22 86
22 87
22 88
22 89
22 90
22 91
22 92
22 93
22 94
22 95
22 96
22 97
22 98
22 99
22 100
22 101
22 102
22 103
22 104
22 105
22 106
22 107
22 109
22 110
22 111
22 112
22 113
22 122
22 123
22 124
22 125
22 126
22 127
22 128
22 130
22 131
22 132
22 133
22 134
22 135
22 136
22 137
22 138
22 139
22 160
22 164
22 167
22 172
22 174
22 176
22 179
22 181
22 182
22 183
22 184
22 185
22 187
22 189
22 190
22 198
22 199
22 201
22 202
22 203
22 204
22 205
22 206
22 208
22 209
22 210
22 211
22 212
22 224
22 228
22 229
22 230
22 231
22 232
22 233
22 234
22 235
22 236
22 237
22 238
22 240
22 241
22 242
22 243
22 244
22 245
22 246
22 247
22 248
22 249
22 250
22 255
22 256
22 257
22 258
22 259
22 261
22 262
22 263
22 264
22 265
22 266
22 267
22 268
22 269
22 271
22 272
22 273
22 278
22 279
22 280
22 281
22 282
22 283
22 284
22 286
22 287
22 288
22 289
22 290
22 291
22 292
22 293
22 294
22 296
22 297
22 298
22 299
22 300
22 301
22 302
22 303
22 304
22 305
22 306
22 307
22 308
22 309
22 310
22 312
22 313
22 314
22 315
22 316
22 317
22 318
22 319
22 320
22 321
22 322
22 323
22 324
22 325
22 326
22 328
22 329
22 330
22 331
22 332
22 333
22 334
22 335
22 336
22 338
22 339
22 340
22 341
22 342
22 343
22 344
22 345
22 346
22 347
22 348
22 349
22 350
22 351
22 353
22 354
22 355
22 356
22 357
22 359
22 368
22 380
22 384
22 387
22 389
22 390
22 392
22 395
22 396
22 398
22 399
22 401
22 403
22 405
22 406
22 407
22 408
22 409
22 411
22 412
22 413
22 414
22 415
22 416
22 417
22 421
22 422
22 423
22 424
22 425
22 426
22 427
22 428
22 429
22 431
22 432
22 433
22 434
22 435
22 436
22 437
22 438
22 439
22 440
22 443
22 449
22 459
22 463
22 465
23 24
23 25
23 26
23 27
23 28
23 34
23 36
23 37
23 38
23 39
23 40
23 41
23 42
23 43
23 45
23 46
23 47
23 48
23 49
23 50
23 51
23 62
23 65
23 66
23 67
23 68
23 69
23 70
23 71
23 72
23 73
23 74
23 75
23 76
23 77
23 78
23 79
23 80
23 81
23 82
23 83
23 85
23 86
23 87
23 88
23 89
23 90
23 91
23 92
23 93
23 94
23 95
23 96
23 97
23 98
23 99
23 100
23 101
23 102
23 103
23 104
23 105
23 106
23 107
23 108
23 110
23 111
23 112
23 113
23 122
23 123
23 124
23 125
23 126
23 127
23 128
23 129
23 131
23 132
23 133
23 134
23 135
23 136
23 137
23 138
23 140
23 141
23 160
23 164
23 166
23 172
23 174
23 175
23 176
23 177
23 178
23 179
23 180
23 182
23 183
23 184
23 185
23 186
23 188
23 198
23 199
23 200
23 203
23 204
23 205
23 206
23 207
23 208
23 209
23 210
23 211
23 212
23 224
23 229
23 235
23 237
23 239
23 244
23 245
23 246
23 249
23 255
23 256
23 257
23 258
23 259
23 260
23 262
23 263
23 264
23 265
23 270
23 284
23 285
23 292
23 294
23 295
23 301
23 303
23 304
23 305
23 306
23 307
23 308
23 309
23 310
23 311
23 312
23 314
23 315
23 316
23 317
23 318
23 319
23 320
23 327
23 333
23 336
23 337
23 340
23 341
23 342
23 343
23 344
23 345
23 346
23 347
23 352
23 356
23 358
23 368
23 380
23 384
23 387
23 391
23 396
23 397
23 400
23 402
23 404
23 406
23 407
23 408
23 409
23 410
23 412
23 413
23 414
23 415
23 416
23 417
23 430
23 432
23 433
23 437
23 443
23 449
23 459
23 464
24 25
24 26
24 27
24 28
24 34
24 40
24 42
24 44
24 47
24 62
24 68
24 76
24 80
24 81
24 84
24 87
24 88
24 89
24 98
24 104
24 108
24 109
24 110
24 122
24 123
24 124
24 125
24 126
24 127
24 128
24 129
24 130
24 132
24 133
24 134
24 135
24 136
24 137
24 138
24 139
24 154
24 155
24 156
24 157
24 158
24 159
24 161
24 162
24 163
24 164
24 165
24 166
24 172
24 174
24 175
24 176
24 177
24 178
24 179
24 180
24 181
24 183
24 184
24 185
24 186
24 188
24 198
24 199
24 200
24 203
24 204
24 205
24 206
24 207
24 209
24 210
24 211
24 212
24 224
24 229
24 235
24 237
24 239
24 244
24 245
24 246
24 249
24 255
24 256
24 257
24 258
24 259
24 260
24 261
24 263
24 264
24 265
24 270
24 284
24 285
24 292
24 294
24 295
24 301
24 305
24 307
24 310
24 311
24 313
24 315
24 316
24 317
24 320
24 327
24 333
24 336
24 337
24 340
24 341
24 342
24 344
24 345
24 346
24 347
24 352
24 356
24 358
24 368
24 372
24 373
24 374
24 375
24 376
24 377
24 378
24 379
24 381
24 382
24 383
24 384
24 385
24 387
24 391
24 396
24 397
24 400
24 402
24 404
24 406
24 407
24 408
24 409
24 410
24 411
24 413
24 414
24 415
24 416
24 417
24 421
24 422
24 423
24 424
24 425
24 426
24 427
24 428
24 429
24 430
24 431
24 433
24 434
24 435
24 436
24 437
24 438
24 439
24 440
24 443
24 449
24 459
24 464
25 26
25 27
25 28
25 34
25 40
25 42
25 44
25 47
25 62
25 65
25 66
25 67
25 68
25 69
25 70
25 71
25 72
25 73
25 74
25 75
25 76
25 77
25 78
25 79
25 80
25 81
25 82
25 83
25 84
25 85
25 86
25 88
25 89
25 90
25 91
25 92
25 93
25 94
25 95
25 96
25 97
25 98
25 99
25 100
25 101
25 104
25 108
25 109
25 110
25 122
25 123
25 124
25 125
25 126
25 127
25 128
25 129
25 130
25 131
25 132
25 134
25 135
25 136
25 137
25 138
25 139
25 160
25 164
25 166
25 172
25 174
25 175
25 176
25 177
25 178
25 179
25 180
25 181
25 182
25 184
25 185
25 186
25 188
25 198
25 199
25 200
25 203
25 204
25 205
25 206
25 207
25 208
25 210
25 211
25 212
25 224
25 228
25 229
25 230
25 231
25 232
25 233
25 234
25 235
25 236
25 237
25 238
25 239
25 240
25 241
25 242
25 243
25 245
25 246
25 247
25 248
25 249
25 250
25 255
25 256
25 257
25 258
25 259
25 260
25 261
25 262
25 264
25 265
25 270
25 284
25 285
25 292
25 294
25 295
25 301
25 303
25 304
25 305
25 306
25 307
25 308
25 309
25 310
25 311
25 312
25 313
25 314
25 316
25 317
25 318
25 319
25 320
25 327
25 333
25 336
25 337
25 340
25 341
25 342
25 343
25 345
25 346
25 347
25 352
25 356
25 358
25 368
25 380
25 384
25 387
25 391
25 396
25 397
25 400
25 402
25 404
25 406
25 407
25 408
25 409
25 410
25 411
25 412
25 414
25 415
25 416
25 417
25 430
25 432
25 433
25 437
25 443
25 449
25 459
25 464
26 27
26 28
26 34
26 36
26 37
26 38
26 39
26 40
26 41
26 42
26 43
26 44
26 45
26 46
26 48
26 49
26 50
26 51
26 62
26 65
26 66
26 67
26 68
26 69
26 70
26 71
26 72
26 73
26 74
26 75
26 76
26 77
26 78
26 79
26 80
26 81
26 82
26 83
26 84
26 85
26 86
26 87
26 89
26 90
26 91
26 92
26 93
26 94
26 95
26 96
26 97
26 98
26 99
26 100
26 101
26 102
26 103
26 104
26 105
26 106
26 107
26 108
26 109
26 111
26 112
26 113
26 122
26 123
26 124
26 125
26 126
26 127
26 128
26 129
26 130
26 131
26 132
26 133
26 135
26 136
26 137
26 138
26 139
26 160
26 164
26 166
26 170
26 171
26 173
26 174
26 175
26 176
26 177
26 178
26 179
26 180
26 181
26 182
26 183
26 185
26 186
26 188
26 198
26 199
26 200
26 203
26 204
26 205
26 206
26 207
26 208
26 209
26 211
26 212
26 224
26 228
26 229
26 230
26 231
26 232
26 233
26 234
26 235
26 236
26 237
26 238
26 239
26 240
26 241
26 242
26 243
26 244
26 246
26 247
26 248
26 249
26 250
26 255
26 256
26 257
26 258
26 259
26 260
26 261
26 262
26 263
26 265
26 270
26 284
26 285
26 292
26 294
26 295
26 301
26 303
26 304
26 305
26 306
26 307
26 308
26 309
26 310
26 311
26 312
26 313
26 314
26 315
26 317
26 318
26 319
26 320
26 327
26 333
26 336
26 337
26 340
26 341
26 342
26 343
26 344
26 346
26 347
26 352
26 356
26 358
26 368
26 380
26 384
26 386
26 391
26 396
26 397
26 400
26 402
26 404
26 406
26 407
26 408
26 409
26 410
26 411
26 412
26 413
26 415
26 416
26 417
26 421
26 422
26 423
26 424
26 425
26 426
26 427
26 428
26 429
26 430
26 431
26 432
26 434
26 435
26 436
26 437
26 438
26 439
26 440
26 443
26 449
26 459
26 464
27 28
27 34
27 40
27 42
27 44
27 47
27 62
27 65
27 66
27 67
27 68
27 69
27 70
27 71
27 72
27 73
27 74
27 75
27 76
27 77
27 78
27 79
27 80
27 81
27 82
27 83
27 84
27 85
27 86
27 87
27 88
27 90
27 91
27 92
27 93
27 94
27 95
27 96
27 97
27 98
27 99
27 100
27 101
27 104
27 108
27 109
27 110
27 122
27 123
27 124
27 125
27 126
27 127
27 128
27 129
27 130
27 131
27 132
27 133
27 134
27 136
27 137
27 138
27 139
27 160
27 164
27 166
27 172
27 174
27 175
27 176
27 177
27 178
27 179
27 180
27 181
27 182
27 183
27 184
27 186
27 188
27 198
27 199
27 200
27 203
27 204
27 205
27 206
27 207
27 208
27 209
27 210
27 212
27 224
27 228
27 229
27 230
27 231
27 232
27 233
27 234
27 235
27 236
27 237
27 238
27 239
27 240
27 241
27 242
27 243
27 244
27 245
27 247
27 248
27 249
27 250
27 255
27 256
27 257
27 258
27 259
27 260
27 261
27 262
27 263
27 264
27 270
27 284
27 285
27 292
27 294
27 295
27 301
27 303
27 304
27 305
27 306
27 307
27 308
27 309
27 310
27 311
27 312
27 313
27 314
27 315
27 316
27 318
27 319
27 320
27 327
27 333
27 336
27 337
27 340
27 341
27 342
27 343
27 344
27 345
27 347
27 352
27 356
27 358
27 368
27 380
27 384
27 387
27 391
27 396
27 397
27 400
27 402
27 404
27 406
27 407
27 408
27 409
27 410
27 411
27 412
27 413
27 414
27 416
27 417
27 430
27 432
27 433
27 437
27 443
27 449
27 459
27 464
28 34
28 40
28 42
28 44
28 47
28 52
28 53
28 54
28 55
28 56
28 57
28 58
28 59
28 60
28 61
28 63
28 65
28 66
28 67
28 68
28 69
28 70
28 71
28 72
28 73
28 74
28 75
28 76
28 77
28 78
28 79
28 80
28 81
28 82
28 83
28 84
28 85
28 86
28 87
28 88
28 89
28 90
28 91
28 92
28 93
28 94
28 95
28 96
28 97
28 99
28 100
28 101
28 104
28 108
28 109
28 110
28 122
28 123
28 124
28 125
28 126
28 127
28 128
28 129
28 130
28 131
28 132
28 133
28 134
28 135
28 136
28 138
28 139
28 154
28 155
28 156
28 157
28 158
28 159
28 160
28 161
28 162
28 163
28 165
28 166
28 172
28 174
28 176
28 179
28 181
28 182
28 183
28 184
28 185
28 186
28 188
28 191
28 192
28 193
28 194
28 195
28 196
28 197
28 199
28 200
28 203
28 204
28 205
28 206
28 207
28 208
28 209
28 210
28 211
28 213
28 214
28 215
28 216
28 217
28 218
28 219
28 220
28 221
28 222
28 223
28 225
28 228
28 229
28 230
28 231
28 232
28 233
28 234
28 235
28 236
28 237
28 238
28 239
28 240
28 241
28 242
28 243
28 244
28 245
28 246
28 247
28 248
28 250
28 255
28 257
28 258
28 259
28 260
28 261
28 262
28 263
28 264
28 265
28 270
28 284
28 285
28 287
28 288
28 289
28 290
28 291
28 292
28 293
28 294
28 295
28 296
28 297
28 298
28 299
28 300
28 302
28 303
28 304
28 305
28 306
28 307
28 308
28 309
28 310
28 311
28 312
28 313
28 314
28 315
28 316
28 317
28 318
28 319
28 321
28 322
28 323
28 324
28 325
28 326
28 327
28 328
28 329
28 330
28 331
28 332
28 334
28 336
28 337
28 340
28 341
28 342
28 343
28 344
28 345
28 346
28 352
28 356
28 358
28 360
28 361
28 362
28 363
28 364
28 365
28 366
28 367
28 369
28 372
28 373
28 374
28 375
28 376
28 377
28 378
28 379
28 380
28 381
28 382
28 383
28 385
28 387
28 391
28 396
28 397
28 400
28 402
28 404
28 408
28 409
28 410
28 411
28 412
28 413
28 414
28 415
28 421
28 422
28 423
28 424
28 425
28 426
28 427
28 428
28 429
28 430
28 431
28 432
28 433
28 434
28 435
28 436
28 438
28 439
28 440
28 441
28 442
28 447
28 448
28 450
28 451
28 452
28 453
28 454
28 455
28 456
28 457
28 458
28 460
28 464
29 30
29 31
29 32
29 33
29 34
29 35
29 36
29 38
29 39
29 40
29 41
29 42
29 43
29 44
29 45
29 46
29 47
29 48
29 49
29 50
29 51
29 65
29 66
29 68
29 69
29 70
29 71
29 72
29 73
29 74
29 75
29 76
29 77
29 78
29 79
29 80
29 81
29 82
29 83
29 84
29 85
29 86
29 87
29 88
29 89
29 90
29 91
29 92
29 93
29 94
29 95
29 96
29 97
29 98
29 99
29 100
29 101
29 108
29 129
29 166
29 186
29 188
29 200
29 207
29 239
29 260
29 270
29 278
29 280
29 281
29 282
29 283
29 284
29 285
29 286
29 295
29 303
29 305
29 306
29 307
29 308
29 309
29 310
29 311
29 312
29 313
29 314
29 315
29 316
29 317
29 318
29 319
29 320
29 327
29 337
29 352
29 358
29 391
29 397
29 400
29 402
29 404
29 410
29 430
29 464
30 31
30 32
30 33
30 34
30 35
30 37
30 42
30 65
30 66
30 67
30 68
30 69
30 71
30 72
30 73
30 74
30 75
30 76
30 77
30 78
30 79
30 80
30 81
30 82
30 83
30 84
30 85
30 86
30 87
30 88
30 89
30 90
30 91
30 92
30 93
30 94
30 95
30 96
30 97
30 98
30 99
30 100
30 101
30 108
30 129
30 166
30 186
30 188
30 200
30 207
30 239
30 260
30 270
30 278
30 279
30 281
30 282
30 283
30 284
30 285
30 286
30 295
30 304
30 311
30 327
30 337
30 352
30 358
30 391
30 397
30 400
30 402
30 404
30 410
30 430
30 464
31 32
31 33
31 34
31 35
31 37
31 42
31 65
31 66
31 67
31 68
31 69
31 70
31 71
31 72
31 74
31 75
31 76
31 77
31 78
31 79
31 80
31 81
31 82
31 83
31 84
31 85
31 86
31 87
31 88
31 89
31 90
31 91
31 92
31 93
31 94
31 95
31 96
31 97
31 98
31 99
31 100
31 101
31 108
31 129
31 166
31 186
31 188
31 200
31 207
31 239
31 260
31 270
31 278
31 279
31 280
31 282
31 283
31 284
31 285
31 286
31 295
31 304
31 311
31 327
31 337
31 352
31 358
31 391
31 397
31 400
31 402
31 404
31 410
31 430
31 464
32 33
32 34
32 35
32 37
32 42
32 65
32 66
32 67
32 68
32 69
32 70
32 71
32 72
32 73
32 75
32 76
32 77
32 78
32 79
32 80
32 81
32 82
32 83
32 84
32 85
32 86
32 87
32 88
32 89
32 90
32 91
32 92
32 93
32 94
32 95
32 96
32 97
32 98
32 99
32 100
32 101
32 108
32 129
32 166
32 186
32 188
32 200
32 207
32 239
32 260
32 270
32 278
32 279
32 280
32 281
32 283
32 284
32 285
32 286
32 295
32 304
32 311
32 327
32 337
32 352
32 358
32 391
32 397
32 400
32 402
32 404
32 410
32 430
32 464
33 34
33 35
33 37
33 42
33 65
33 66
33 67
33 68
33 69
33 70
33 71
33 72
33 73
33 74
33 76
33 77
33 78
33 79
33 80
33 81
33 82
33 83
33 84
33 85
33 86
33 87
33 88
33 89
33 90
33 91
33 92
33 93
33 94
33 95
33 96
33 97
33 98
33 99
33 100
33 101
33 108
33 129
33 166
33 186
33 188
33 200
33 207
33 239
33 260
33 270
33 278
33 279
33 280
33 281
33 282
33 284
33 285
33 286
33 295
33 304
33 311
33 327
33 337
33 352
33 358
33 391
33 397
33 400
33 402
33 404
33 410
33 430
33 464
34 35
34 36
34 37
34 38
34 39
34 40
34 41
34 43
34 44
34 45
34 46
34 47
34 48
34 49
34 50
34 51
34 65
34 66
34 67
34 68
34 69
34 70
34 71
34 72
34 73
34 74
34 75
34 76
34 77
34 78
34 79
34 80
34 82
34 83
34 84
34 85
34 86
34 87
34 88
34 89
34 90
34 91
34 92
34 93
34 94
34 95
34 96
34 97
34 98
34 99
34 100
34 101
34 102
34 103
34 104
34 105
34 106
34 107
34 109
34 110
34 111
34 112
34 113
34 122
34 123
34 124
34 125
34 126
34 127
34 128
34 130
34 131
34 132
34 133
34 134
34 135
34 136
34 137
34 138
34 167
34 187
34 189
34 190
34 199
34 201
34 202
34 203
34 204
34 205
34 206
34 208
34 209
34 210
34 211
34 212
34 228
34 229
34 230
34 231
34 232
34 233
34 234
34 235
34 236
34 237
34 238
34 240
34 241
34 242
34 243
34 244
34 245
34 246
34 247
34 248
34 249
34 250
34 255
34 256
34 257
34 258
34 259
34 261
34 262
34 263
34 264
34 265
34 266
34 267
34 268
34 269
34 271
34 272
34 273
34 278
34 279
34 280
34 281
34 282
34 283
34 284
34 286
34 287
34 288
34 289
34 290
34 291
34 292
34 293
34 294
34 296
34 297
34 298
34 299
34 300
34 301
34 302
34 303
34 304
34 305
34 306
34 307
34 308
34 309
34 310
34 312
34 313
34 314
34 315
34 316
34 317
34 318
34 319
34 320
34 321
34 322
34 323
34 324
34 325
34 326
34 328
34 329
34 330
34 331
34 332
34 333
34 334
34 335
34 336
34 338
34 339
34 348
34 349
34 350
34 351
34 353
34 354
34 355
34 356
34 357
34 359
34 389
34 390
34 392
34 395
34 396
34 398
34 399
34 401
34 403
34 405
34 406
34 407
34 408
34 409
34 411
34 412
34 413
34 414
34 415
34 416
34 417
34 421
34 422
34 423
34 424
34 425
34 426
34 427
34 428
34 429
34 431
34 432
34 433
34 434
34 435
34 436
34 437
34 438
34 439
34 440
34 463
34 465
35 37
35 42
35 65
35 66
35 67
35 68
35 69
35 70
35 71
35 72
35 73
35 74
35 75
35 76
35 77
35 78
35 79
35 80
35 81
35 83
35 84
35 85
35 86
35 87
35 88
35 89
35 90
35 91
35 92
35 93
35 94
35 95
35 96
35 97
35 98
35 99
35 100
35 101
35 108
35 129
35 166
35 186
35 188
35 200
35 207
35 239
35 260
35 270
35 278
35 279
35 280
35 281
35 282
35 283
35 284
35 285
35 295
35 304
35 311
35 327
35 337
35 352
35 358
35 391
35 397
35 400
35 402
35 404
35 410
35 430
35 464
36 37
36 38
36 39
36 40
36 41
36 42
36 43
36 44
36 45
36 46
36 47
36 48
36 49
36 50
36 51
36 65
36 67
36 68
36 69
36 70
36 71
36 72
36 73
36 74
36 75
36 76
36 77
36 78
36 79
36 80
36 81
36 82
36 83
36 84
36 85
36 86
36 87
36 88
36 89
36 90
36 91
36 92
36 93
36 94
36 95
36 96
36 97
36 98
36 99
36 100
36 101
36 104
36 107
36 108
36 109
36 110
36 115
36 116
36 117
36 118
36 119
36 120
36 121
36 123
36 124
36 125
36 126
36 127
36 128
36 129
36 130
36 131
36 132
36 133
36 134
36 135
36 136
36 137
36 138
36 139
36 145
36 146
36 147
36 148
36 149
36 150
36 151
36 152
36 153
36 166
36 172
36 181
36 184
36 186
36 188
36 199
36 200
36 205
36 207
36 210
36 237
36 239
36 245
36 258
36 260
36 261
36 264
36 270
36 279
36 280
36 281
36 282
36 283
36 284
36 285
36 286
36 292
36 295
36 304
36 305
36 306
36 307
36 308
36 309
36 310
36 311
36 312
36 313
36 314
36 315
36 316
36 317
36 318
36 319
36 320
36 327
36 336
36 337
36 345
36 352
36 356
36 358
36 387
36 391
36 396
36 397
36 398
36 399
36 400
36 402
36 404
36 407
36 408
36 409
36 410
36 411
36 412
36 413
36 414
36 415
36 416
36 417
36 428
36 430
36 433
36 445
36 446
36 464
36 465
37 38
37 39
37 40
37 41
37 42
37 43
37 44
37 45
37 46
37 47
37 48
37 49
37 50
37 51
37 65
37 66
37 68
37 69
37 70
37 71
37 72
37 73
37 74
37 75
37 76
37 77
37 78
37 79
37 80
37 81
37 82
37 83
37 84
37 85
37 86
37 87
37 88
37 89
37 90
37 91
37 92
37 93
37 94
37 95
37 96
37 97
37 98
37 99
37 100
37 101
37 104
37 107
37 108
37 109
37 110
37 114
37 115
37 116
37 117
37 118
37 119
37 120
37 121
37 122
37 127
37 129
37 130
37 134
37 139
37 144
37 146
37 147
37 148
37 149
37 151
37 152
37 153
37 166
37 172
37 181
37 184
37 186
37 188
37 199
37 200
37 205
37 207
37 210
37 237
37 239
37 245
37 258
37 260
37 261
37 264
37 270
37 278
37 280
37 281
37 282
37 283
37 284
37 285
37 286
37 292
37 295
37 303
37 305
37 306
37 307
37 308
37 309
37 310
37 311
37 312
37 313
37 314
37 315
37 316
37 317
37 318
37 319
37 320
37 327
37 336
37 337
37 345
37 352
37 356
37 358
37 387
37 391
37 395
37 396
37 397
37 398
37 399
37 400
37 402
37 404
37 406
37 408
37 410
37 411
37 414
37 428
37 430
37 433
37 444
37 445
37 446
37 463
37 464
37 465
38 39
38 40
38 41
38 42
38 43
38 44
38 45
38 46
38 47
38 48
38 49
38 50
38 51
38 66
38 67
38 76
38 81
38 84
38 85
38 88
38 91
38 104
38 107
38 108
38 109
38 110
38 114
38 116
38 117
38 118
38 119
38 120
38 121
38 122
38 127
38 129
38 130
38 134
38 139
38 144
38 145
38 147
38 148
38 149
38 150
38 151
38 152
38 153
38 166
38 172
38 181
38 184
38 186
38 188
38 199
38 200
38 205
38 207
38 210
38 237
38 239
38 245
38 258
38 260
38 261
38 264
38 270
38 278
38 279
38 284
38 285
38 292
38 295
38 303
38 304
38 307
38 311
38 313
38 314
38 316
38 327
38 336
38 337
38 345
38 352
38 356
38 358
38 387
38 391
38 395
38 396
38 397
38 398
38 399
38 400
38 402
38 404
38 406
38 408
38 410
38 411
38 414
38 428
38 430
38 433
38 444
38 445
38 446
38 463
38 464
38 465
39 40
39 41
39 42
39 43
39 44
39 45
39 46
39 47
39 48
39 49
39 50
39 51
39 66
39 67
39 76
39 81
39 84
39 85
39 88
39 91
39 104
39 107
39 108
39 109
39 110
39 114
39 115
39 117
39 118
39 119
39 120
39 121
39 122
39 127
39 129
39 130
39 134
39 139
39 144
39 145
39 146
39 148
39 149
39 150
39 151
39 152
39 153
39 166
39 172
39 181
39 184
39 186
39 188
39 199
39 200
39 205
39 207
39 210
39 237
39 239
39 245
39 258
39 260
39 261
39 264
39 270
39 278
39 279
39 284
39 285
39 292
39 295
39 303
39 304
39 307
39 311
39 313
39 314
39 316
39 327
39 336
39 337
39 345
39 352
39 356
39 358
39 387
39 391
39 395
39 396
39 397
39 398
39 399
39 400
39 402
39 404
39 406
39 408
39 410
39 411
39 414
39 428
39 430
39 433
39 444
39 445
39 446
39 463
39 464
39 465
40 41
40 42
40 43
40 44
40 45
40 46
40 47
40 48
40 49
40 50
40 51
40 65
40 66
40 67
40 68
40 69
40 70
40 71
40 72
40 73
40 74
40 75
40 77
40 78
40 79
40 80
40 81
40 82
40 83
40 84
40 85
40 86
40 87
40 88
40 89
40 90
40 91
40 92
40 93
40 94
40 95
40 96
40 97
40 98
40 99
40 100
40 101
40 102
40 103
40 105
40 106
40 107
40 108
40 109
40 110
40 111
40 112
40 113
40 114
40 115
40 116
40 117
40 118
40 119
40 120
40 121
40 122
40 123
40 124
40 125
40 126
40 128
40 129
40 130
40 131
40 132
40 133
40 134
40 135
40 136
40 137
40 138
40 139
40 144
40 146
40 147
40 148
40 149
40 151
40 152
40 153
40 166
40 172
40 181
40 184
40 186
40 188
40 200
40 201
40 202
40 203
40 204
40 206
40 207
40 208
40 209
40 210
40 211
40 212
40 228
40 229
40 230
40 231
40 232
40 233
40 234
40 235
40 236
40 238
40 239
40 240
40 241
40 242
40 243
40 244
40 245
40 246
40 247
40 248
40 249
40 250
40 255
40 256
40 257
40 259
40 260
40 261
40 262
40 263
40 264
40 265
40 270
40 278
40 279
40 280
40 281
40 282
40 283
40 285
40 286
40 287
40 288
40 289
40 290
40 291
40 293
40 294
40 295
40 296
40 297
40 298
40 299
40 300
40 301
40 302
40 303
40 304
40 305
40 306
40 308
40 309
40 310
40 311
40 312
40 313
40 314
40 315
40 316
40 317
40 318
40 319
40 320
40 327
40 335
40 337
40 338
40 339
40 345
40 352
40 357
40 358
40 359
40 387
40 391
40 395
40 397
40 398
40 399
40 400
40 402
40 404
40 406
40 407
40 409
40 410
40 411
40 412
40 413
40 414
40 415
40 416
40 417
40 428
40 430
40 433
40 444
40 445
40 446
40 463
40 464
40 465
41 42
41 43
41 44
41 45
41 46
41 47
41 48
41 49
41 50
41 51
41 66
41 67
41 76
41 81
41 84
41 85
41 88
41 91
41 102
41 103
41 104
41 105
41 106
41 108
41 109
41 110
41 111
41 112
41 113
41 114
41 115
41 116
41 118
41 119
41 120
41 121
41 122
41 127
41 129
41 130
41 134
41 139
41 144
41 145
41 146
41 147
41 149
41 150
41 151
41 152
41 153
41 166
41 172
41 181
41 184
41 186
41 188
41 199
41 200
41 205
41 207
41 210
41 237
41 239
41 245
41 258
41 260
41 261
41 264
41 270
41 278
41 279
41 284
41 285
41 292
41 295
41 303
41 304
41 307
41 311
41 313
41 314
41 316
41 327
41 336
41 337
41 345
41 352
41 356
41 358
41 387
41 391
41 395
41 396
41 397
41 398
41 399
41 400
41 402
41 404
41 406
41 408
41 410
41 411
41 414
41 421
41 422
41 423
41 424
41 425
41 426
41 427
41 429
41 430
41 431
41 432
41 433
41 434
41 435
41 436
41 437
41 438
41 439
41 440
41 444
41 445
41 446
41 463
41 464
41 465
42 43
42 44
42 45
42 46
42 47
42 48
42 49
42 50
42 51
42 65
42 66
42 67
42 68
42 69
42 70
42 71
42 72
42 73
42 74
42 75
42 76
42 77
42 78
42 79
42 80
42 82
42 83
42 84
42 85
42 86
42 87
42 88
42 89
42 90
42 91
42 92
42 93
42 94
42 95
42 96
42 97
42 98
42 99
42 100
42 101
42 102
42 103
42 104
42 105
42 106
42 107
42 109
42 110
42 111
42 112
42 113
42 114
42 115
42 116
42 117
42 118
42 119
42 120
42 121
42 122
42 123
42 124
42 125
42 126
42 127
42 128
42 130
42 131
42 132
42 133
42 134
42 135
42 136
42 137
42 138
42 139
42 144
42 146
42 147
42 148
42 149
42 151
42 152
42 153
42 167
42 172
42 181
42 184
42 187
42 189
42 190
42 199
42 201
42 202
42 203
42 204
42 205
42 206
42 208
42 209
42 210
42 211
42 212
42 228
42 229
42 230
42 231
42 232
42 233
42 234
42 235
42 236
42 237
42 238
42 240
42 241
42 242
42 243
42 244
42 245
42 246
42 247
42 248
42 249
42 250
42 255
42 256
42 257
42 258
42 259
42 261
42 262
42 263
42 264
42 265
42 266
42 267
42 268
42 269
42 271
42 272
42 273
42 278
42 279
42 280
42 281
42 282
42 283
42 284
42 286
42 287
42 288
42 289
42 290
42 291
42 292
42 293
42 294
42 296
42 297
42 298
42 299
42 300
42 301
42 302
42 303
42 304
42 305
42 306
42 307
42 308
42 309
42 310
42 312
42 313
42 314
42 315
42 316
42 317
42 318
42 319
42 320
42 321
42 322
42 323
42 324
42 325
42 326
42 328
42 329
42 330
42 331
42 332
42 333
42 334
42 335
42 336
42 338
42 339
42 345
42 348
42 349
42 350
42 351
42 353
42 354
42 355
42 356
42 357
42 359
42 387
42 389
42 390
42 392
42 395
42 396
42 398
42 399
42 401
42 403
42 405
42 406
42 407
42 408
42 409
42 411
42 412
42 413
42 414
42 415
42 416
42 417
42 421
42 422
42 423
42 424
42 425
42 426
42 427
42 428
42 429
42 431
42 432
42 433
42 434
42 435
42 436
42 437
42 438
42 439
42 440
42 444
42 445
42 446
42 463
42 465
43 44
43 45
43 46
43 47
43 48
43 49
43 50
43 51
43 66
43 67
43 76
43 81
43 84
43 85
43 88
43 91
43 104
43 107
43 108
43 109
43 110
43 114
43 115
43 116
43 117
43 119
43 120
43 121
43 122
43 127
43 129
43 130
43 134
43 139
43 144
43 145
43 146
43 147
43 148
43 150
43 151
43 152
43 153
43 166
43 172
43 181
43 184
43 186
43 188
43 199
43 200
43 205
43 207
43 210
43 237
43 239
43 245
43 258
43 260
43 261
43 264
43 270
43 278
43 279
43 284
43 285
43 292
43 295
43 303
43 304
43 307
43 311
43 313
43 314
43 316
43 327
43 336
43 337
43 345
43 352
43 356
43 358
43 387
43 391
43 395
43 396
43 397
43 398
43 399
43 400
43 402
43 404
43 406
43 408
43 410
43 411
43 414
43 428
43 430
43 433
43 444
43 445
43 446
43 463
43 464
43 465
44 45
44 46
44 47
44 48
44 49
44 50
44 51
44 65
44 66
44 67
44 68
44 69
44 70
44 71
44 72
44 73
44 74
44 75
44 76
44 77
44 78
44 79
44 80
44 81
44 82
44 83
44 85
44 86
44 87
44 88
44 89
44 90
44 91
44 92
44 93
44 94
44 95
44 96
44 97
44 98
44 99
44 100
44 101
44 102
44 103
44 104
44 105
44 106
44 107
44 108
44 110
44 111
44 112
44 113
44 114
44 115
44 116
44 117
44 118
44 119
44 120
44 121
44 122
44 123
44 124
44 125
44 126
44 127
44 128
44 129
44 131
44 132
44 133
44 134
44 135
44 136
44 137
44 138
44 140
44 141
44 144
44 146
44 147
44 148
44 149
44 151
44 152
44 153
44 166
44 172
44 174
44 175
44 176
44 177
44 178
44 179
44 180
44 182
44 183
44 184
44 185
44 186
44 188
44 199
44 200
44 205
44 207
44 210
44 237
44 239
44 245
44 255
44 256
44 257
44 258
44 259
44 260
44 262
44 263
44 264
44 265
44 270
44 278
44 279
44 284
44 285
44 292
44 295
44 303
44 304
44 305
44 306
44 307
44 308
44 309
44 310
44 311
44 312
44 314
44 315
44 316
44 317
44 318
44 319
44 320
44 327
44 336
44 337
44 345
44 352
44 356
44 358
44 387
44 391
44 395
44 396
44 397
44 398
44 399
44 400
44 402
44 404
44 406
44 407
44 408
44 409
44 410
44 412
44 413
44 414
44 415
44 416
44 417
44 428
44 430
44 433
44 444
44 445
44 446
44 463
44 464
44 465
45 46
45 47
45 48
45 49
45 50
45 51
45 65
45 66
45 67
45 68
45 69
45 70
45 71
45 72
45 73
45 74
45 75
45 76
45 77
45 78
45 79
45 80
45 81
45 82
45 83
45 84
45 86
45 87
45 88
45 89
45 90
45 91
45 92
45 93
45 94
45 95
45 96
45 97
45 98
45 99
45 100
45 101
45 104
45 107
45 108
45 109
45 110
45 114
45 115
45 116
45 117
45 118
45 119
45 120
45 121
45 122
45 127
45 129
45 130
45 134
45 139
45 144
45 146
45 147
45 148
45 149
45 151
45 152
45 153
45 166
45 172
45 181
45 184
45 186
45 188
45 199
45 200
45 205
45 207
45 210
45 237
45 239
45 245
45 258
45 260
45 261
45 264
45 270
45 278
45 279
45 284
45 285
45 292
45 295
45 303
45 304
45 305
45 306
45 307
45 308
45 309
45 310
45 311
45 312
45 313
45 315
45 316
45 317
45 318
45 319
45 320
45 327
45 336
45 337
45 345
45 352
45 356
45 358
45 387
45 391
45 395
45 396
45 397
45 399
45 400
45 402
45 404
45 406
45 408
45 410
45 411
45 414
45 428
45 430
45 433
45 444
45 446
45 463
45 464
45 465
46 47
46 48
46 49
46 50
46 51
46 66
46 67
46 76
46 81
46 84
46 85
46 88
46 91
46 104
46 107
46 108
46 109
46 110
46 114
46 115
46 116
46 117
46 118
46 119
46 120
46 121
46 122
46 127
46 129
46 130
46 134
46 139
46 144
46 146
46 147
46 148
46 149
46 151
46 152
46 153
46 166
46 172
46 181
46 184
46 186
46 188
46 199
46 200
46 205
46 207
46 210
46 237
46 239
46 245
46 258
46 260
46 261
46 264
46 270
46 278
46 279
46 284
46 285
46 292
46 295
46 303
46 304
46 307
46 311
46 313
46 314
46 316
46 327
46 336
46 337
46 345
46 352
46 356
46 358
46 387
46 391
46 395
46 396
46 397
46 398
46 400
46 402
46 404
46 406
46 408
46 410
46 411
46 414
46 428
46 430
46 433
46 444
46 445
46 463
46 464
46 465
47 48
47 49
47 50
47 51
47 65
47 66
47 67
47 68
47 69
47 70
47 71
47 72
47 73
47 74
47 75
47 76
47 77
47 78
47 79
47 80
47 81
47 82
47 83
47 84
47 85
47 86
47 87
47 89
47 90
47 91
47 92
47 93
47 94
47 95
47 96
47 97
47 98
47 99
47 100
47 101
47 102
47 103
47 104
47 105
47 106
47 107
47 108
47 109
47 111
47 112
47 113
47 114
47 115
47 116
47 117
47 118
47 119
47 120
47 121
47 122
47 123
47 124
47 125
47 126
47 127
47 128
47 129
47 130
47 131
47 132
47 133
47 135
47 136
47 137
47 138
47 139
47 144
47 146
47 147
47 148
47 149
47 151
47 152
47 153
47 166
47 170
47 171
47 173
47 174
47 175
47 176
47 177
47 178
47 179
47 180
47 181
47 182
47 183
47 185
47 186
47 188
47 199
47 200
47 203
47 204
47 205
47 206
47 207
47 208
47 209
47 211
47 212
47 228
47 229
47 230
47 231
47 232
47 233
47 234
47 235
47 236
47 237
47 238
47 239
47 240
47 241
47 242
47 243
47 244
47 246
47 247
47 248
47 249
47 250
47 255
47 256
47 257
47 258
47 259
47 260
47 261
47 262
47 263
47 265
47 270
47 278
47 279
47 284
47 285
47 292
47 295
47 303
47 304
47 305
47 306
47 307
47 308
47 309
47 310
47 311
47 312
47 313
47 314
47 315
47 317
47 318
47 319
47 320
47 327
47 336
47 337
47 340
47 341
47 342
47 343
47 344
47 346
47 347
47 352
47 356
47 358
47 386
47 391
47 395
47 396
47 397
47 398
47 399
47 400
47 402
47 404
47 406
47 407
47 408
47 409
47 410
47 411
47 412
47 413
47 415
47 416
47 417
47 421
47 422
47 423
47 424
47 425
47 426
47 427
47 428
47 429
47 430
47 431
47 432
47 434
47 435
47 436
47 437
47 438
47 439
47 440
47 444
47 445
47 446
47 463
47 464
47 465
48 49
48 50
48 51
48 65
48 66
48 67
48 68
48 69
48 70
48 71
48 72
48 73
48 74
48 75
48 76
48 77
48 78
48 79
48 80
48 81
48 82
48 83
48 84
48 85
48 86
48 87
48 88
48 89
48 90
48 92
48 93
48 94
48 95
48 96
48 97
48 98
48 99
48 100
48 101
48 104
48 107
48 108
48 109
48 110
48 114
48 115
48 116
48 117
48 118
48 119
48 120
48 121
48 122
48 127
48 129
48 130
48 134
48 139
48 144
48 146
48 147
48 148
48 149
48 151
48 152
48 153
48 166
48 172
48 181
48 184
48 186
48 188
48 199
48 200
48 205
48 207
48 210
48 237
48 239
48 245
48 258
48 260
48 261
48 264
48 270
48 278
48 279
48 284
48 285
48 292
48 295
48 303
48 304
48 307
48 311
48 313
48 314
48 316
48 327
48 336
48 337
48 345
48 352
48 356
48 358
48 387
48 391
48 395
48 396
48 397
48 398
48 399
48 400
48 402
48 404
48 406
48 408
48 410
48 411
48 414
48 428
48 430
48 433
48 444
48 445
48 446
48 463
48 464
49 50
49 51
49 66
49 67
49 76
49 81
49 84
49 85
49 88
49 91
49 104
49 107
49 108
49 109
49 110
49 114
49 115
49 116
49 117
49 118
49 120
49 121
49 122
49 127
49 129
49 130
49 134
49 139
49 144
49 145
49 146
49 147
49 148
49 149
49 150
49 152
49 153
49 166
49 172
49 181
49 184
49 186
49 188
49 199
49 200
49 205
49 207
49 210
49 237
49 239
49 245
49 258
49 260
49 261
49 264
49 270
49 278
49 279
49 284
49 285
49 292
49 295
49 303
49 304
49 307
49 311
49 313
49 314
49 316
49 327
49 336
49 337
49 345
49 352
49 356
49 358
49 387
49 391
49 395
49 396
49 397
49 398
49 399
49 400
49 402
49 404
49 406
49 408
49 410
49 411
49 414
49 428
49 430
49 433
49 444
49 445
49 446
49 463
49 464
49 465
50 51
50 66
50 67
50 76
50 81
50 84
50 85
50 88
50 91
50 104
50 107
50 108
50 109
50 110
50 114
50 115
50 116
50 117
50 118
50 119
50 121
50 122
50 127
50 129
50 130
50 134
50 139
50 144
50 145
50 146
50 147
50 148
50 149
50 150
50 151
50 153
50 166
50 172
50 181
50 184
50 186
50 188
50 199
50 200
50 205
50 207
50 210
50 237
50 239
50 245
50 258
50 260
50 261
50 264
50 270
50 278
50 279
50 284
50 285
50 292
50 295
50 303
50 304
50 307
50 311
50 313
50 314
50 316
50 327
50 336
50 337
50 345
50 352
50 356
50 358
50 387
50 391
50 395
50 396
50 397
50 398
50 399
50 400
50 402
50 404
50 406
50 408
50 410
50 411
50 414
50 428
50 430
50 433
50 444
50 445
50 446
50 463
50 464
50 465
51 66
51 67
51 76
51 81
51 84
51 85
51 88
51 91
51 104
51 107
51 108
51 109
51 110
51 114
51 115
51 116
51 117
51 118
51 119
51 120
51 122
51 127
51 129
51 130
51 134
51 139
51 144
51 145
51 146
51 147
51 148
51 149
51 150
51 151
51 152
51 166
51 172
51 181
51 184
51 186
51 188
51 199
51 200
51 205
51 207
51 210
51 237
51 239
51 245
51 258
51 260
51 261
51 264
51 270
51 278
51 279
51 284
51 285
51 292
51 295
51 303
51 304
51 307
51 311
51 313
51 314
51 316
51 327
51 336
51 337
51 345
51 352
51 356
51 358
51 387
51 391
51 395
51 396
51 397
51 398
51 399
51 400
51 402
51 404
51 406
51 408
51 410
51 411
51 414
51 428
51 430
51 433
51 444
51 445
51 446
51 463
51 464
51 465
52 53
52 54
52 55
52 56
52 57
52 58
52 59
52 60
52 61
52 62
52 63
52 69
52 72
52 95
52 98
52 102
52 124
52 137
52 145
52 154
52 155
52 156
52 157
52 158
52 159
52 162
52 163
52 164
52 165
52 168
52 170
52 175
52 178
52 180
52 192
52 193
52 194
52 195
52 196
52 197
52 198
52 212
52 214
52 215
52 216
52 217
52 218
52 219
52 220
52 221
52 222
52 223
52 224
52 225
52 229
52 230
52 231
52 232
52 233
52 234
52 235
52 236
52 237
52 238
52 239
52 240
52 241
52 242
52 243
52 244
52 245
52 246
52 247
52 248
52 249
52 250
52 256
52 266
52 288
52 289
52 290
52 291
52 292
52 293
52 294
52 295
52 296
52 297
52 298
52 299
52 300
52 301
52 302
52 306
52 320
52 322
52 323
52 324
52 325
52 326
52 327
52 328
52 329
52 330
52 331
52 332
52 333
52 334
52 347
52 348
52 361
52 362
52 363
52 364
52 365
52 366
52 367
52 368
52 369
52 373
52 374
52 375
52 376
52 377
52 378
52 379
52 380
52 381
52 382
52 383
52 384
52 385
52 418
52 421
52 422
52 423
52 424
52 429
52 431
52 435
52 436
52 437
52 440
52 443
52 449
52 451
52 452
52 453
52 454
52 455
52 456
52 457
52 458
52 459
52 460
52 466
53 54
53 55
53 56
53 57
53 58
53 59
53 60
53 61
53 62
53 63
53 69
53 72
53 95
53 98
53 102
53 124
53 137
53 145
53 155
53 156
53 157
53 158
53 159
53 160
53 161
53 162
53 163
53 164
53 165
53 168
53 170
53 175
53 178
53 180
53 191
53 193
53 194
53 195
53 196
53 197
53 198
53 212
53 213
53 215
53 216
53 217
53 218
53 219
53 220
53 221
53 222
53 223
53 224
53 225
53 228
53 229
53 231
53 232
53 233
53 234
53 235
53 236
53 237
53 238
53 239
53 240
53 241
53 242
53 243
53 244
53 245
53 246
53 247
53 248
53 249
53 250
53 256
53 266
53 287
53 289
53 290
53 291
53 292
53 293
53 294
53 295
53 296
53 297
53 298
53 299
53 300
53 301
53 302
53 306
53 320
53 321
53 323
53 324
53 325
53 326
53 327
53 328
53 329
53 330
53 331
53 332
53 333
53 334
53 347
53 348
53 360
53 362
53 363
53 364
53 365
53 366
53 367
53 368
53 369
53 372
53 374
53 375
53 376
53 377
53 378
53 379
53 380
53 381
53 382
53 383
53 384
53 385
53 418
53 422
53 423
53 424
53 425
53 426
53 427
53 428
53 429
53 430
53 431
53 432
53 433
53 434
53 435
53 436
53 437
53 438
53 439
53 440
53 443
53 449
53 450
53 452
53 453
53 454
53 455
53 456
53 457
53 458
53 459
53 460
53 466
54 55
54 56
54 57
54 58
54 59
54 60
54 61
54 62
54 63
54 65
54 66
54 67
54 68
54 70
54 71
54 72
54 73
54 74
54 75
54 76
54 77
54 78
54 79
54 80
54 81
54 82
54 83
54 84
54 85
54 86
54 87
54 88
54 89
54 90
54 91
54 92
54 93
54 94
54 95
54 96
54 97
54 98
54 99
54 100
54 101
54 102
54 124
54 137
54 145
54 154
54 156
54 157
54 158
54 159
54 160
54 161
54 162
54 163
54 164
54 165
54 168
54 170
54 175
54 178
54 180
54 191
54 192
54 194
54 195
54 196
54 197
54 198
54 212
54 213
54 214
54 216
54 217
54 218
54 219
54 220
54 221
54 222
54 223
54 224
54 225
54 228
54 229
54 230
54 231
54 233
54 234
54 235
54 236
54 237
54 238
54 239
54 240
54 241
54 242
54 243
54 244
54 245
54 246
54 247
54 248
54 249
54 250
54 255
54 257
54 258
54 259
54 260
54 261
54 262
54 263
54 264
54 265
54 266
54 287
54 288
54 290
54 291
54 292
54 293
54 294
54 295
54 296
54 297
54 298
54 299
54 300
54 301
54 302
54 303
54 304
54 305
54 307
54 308
54 309
54 310
54 311
54 312
54 313
54 314
54 315
54 316
54 317
54 318
54 319
54 320
54 321
54 322
54 324
54 325
54 326
54 327
54 328
54 329
54 330
54 331
54 332
54 333
54 334
54 347
54 348
54 360
54 361
54 363
54 364
54 365
54 366
54 367
54 368
54 369
54 372
54 373
54 375
54 376
54 377
54 378
54 379
54 380
54 381
54 382
54 383
54 384
54 385
54 418
54 421
54 423
54 424
54 425
54 426
54 427
54 428
54 429
54 430
54 431
54 432
54 433
54 434
54 435
54 436
54 437
54 438
54 439
54 440
54 443
54 449
54 450
54 451
54 453
54 454
54 455
54 456
54 457
54 458
54 459
54 460
54 466
55 56
55 57
55 58
55 59
55 60
55 61
55 62
55 63
55 65
55 66
55 67
55 68
55 69
55 70
55 71
55 73
55 74
55 75
55 76
55 77
55 78
55 79
55 80
55 81
55 82
55 83
55 84
55 85
55 86
55 87
55 88
55 89
55 90
55 91
55 92
55 93
55 94
55 95
55 96
55 97
55 98
55 99
55 100
55 101
55 103
55 104
55 105
55 106
55 107
55 108
55 109
55 110
55 111
55 112
55 113
55 122
55 123
55 125
55 126
55 127
55 128
55 129
55 130
55 131
55 132
55 133
55 134
55 135
55 136
55 137
55 138
55 144
55 146
55 147
55 148
55 149
55 150
55 151
55 152
55 153
55 154
55 155
55 157
55 158
55 159
55 160
55 161
55 162
55 163
55 164
55 165
55 168
55 171
55 172
55 173
55 174
55 176
55 177
55 178
55 179
55 180
55 181
55 182
55 183
55 184
55 185
55 191
55 192
55 193
55 194
55 195
55 197
55 198
55 212
55 213
55 214
55 215
55 217
55 218
55 219
55 220
55 221
55 222
55 223
55 224
55 225
55 228
55 229
55 230
55 231
55 232
55 233
55 235
55 236
55 237
55 238
55 239
55 240
55 241
55 242
55 243
55 244
55 245
55 246
55 247
55 248
55 249
55 250
55 256
55 267
55 268
55 269
55 270
55 271
55 272
55 273
55 287
55 288
55 289
55 291
55 292
55 293
55 294
55 295
55 296
55 297
55 298
55 299
55 300
55 301
55 302
55 306
55 320
55 321
55 322
55 323
55 325
55 326
55 327
55 328
55 329
55 330
55 331
55 332
55 333
55 334
55 347
55 349
55 350
55 351
55 352
55 353
55 354
55 355
55 360
55 361
55 362
55 363
55 364
55 365
55 366
55 367
55 368
55 369
55 372
55 373
55 374
55 376
55 377
55 378
55 379
55 380
55 381
55 382
55 383
55 384
55 385
55 419
55 420
55 421
55 422
55 424
55 425
55 426
55 427
55 428
55 429
55 430
55 431
55 432
55 433
55 434
55 435
55 436
55 437
55 438
55 439
55 440
55 443
55 449
55 450
55 451
55 452
55 453
55 454
55 456
55 457
55 458
55 459
55 460
55 467
55 468
55 469
55 470
56 57
56 58
56 59
56 60
56 61
56 62
56 63
56 69
56 72
56 95
56 98
56 102
56 124
56 137
56 145
56 154
56 155
56 156
56 158
56 159
56 160
56 161
56 162
56 163
56 164
56 165
56 168
56 170
56 175
56 178
56 180
56 191
56 192
56 193
56 195
56 196
56 197
56 198
56 212
56 213
56 214
56 215
56 216
56 218
56 219
56 220
56 221
56 222
56 223
56 224
56 225
56 228
56 229
56 230
56 231
56 232
56 233
56 234
56 235
56 237
56 238
56 239
56 240
56 241
56 242
56 243
56 244
56 245
56 246
56 247
56 248
56 249
56 250
56 256
56 266
56 287
56 288
56 289
56 290
56 292
56 293
56 294
56 295
56 296
56 297
56 298
56 299
56 300
56 301
56 302
56 306
56 320
56 321
56 322
56 323
56 324
56 326
56 327
56 328
56 329
56 330
56 331
56 332
56 333
56 334
56 347
56 348
56 360
56 361
56 362
56 364
56 365
56 366
56 367
56 368
56 369
56 372
56 373
56 374
56 375
56 377
56 378
56 379
56 380
56 381
56 382
56 383
56 384
56 385
56 418
56 421
56 422
56 423
56 425
56 426
56 427
56 428
56 429
56 430
56 431
56 432
56 433
56 434
56 435
56 436
56 437
56 438
56 439
56 440
56 443
56 449
56 450
56 451
56 452
56 454
56 455
56 456
56 457
56 458
56 459
56 460
56 466
57 58
57 59
57 60
57 61
57 62
57 63
57 69
57 72
57 95
57 98
57 102
57 124
57 137
57 145
57 154
57 155
57 156
57 157
57 159
57 160
57 161
57 162
57 163
57 164
57 165
57 168
57 170
57 174
57 175
57 176
57 177
57 179
57 180
57 181
57 182
57 183
57 184
57 185
57 191
57 192
57 193
57 194
57 196
57 197
57 198
57 212
57 213
57 214
57 215
57 216
57 217
57 219
57 220
57 221
57 222
57 223
57 224
57 225
57 228
57 229
57 230
57 231
57 232
57 233
57 234
57 235
57 236
57 237
57 239
57 240
57 241
57 242
57 243
57 244
57 245
57 246
57 247
57 248
57 249
57 250
57 256
57 266
57 287
57 288
57 289
57 290
57 291
57 292
57 294
57 295
57 296
57 297
57 298
57 299
57 300
57 301
57 302
57 306
57 320
57 321
57 322
57 323
57 324
57 325
57 327
57 328
57 329
57 330
57 331
57 332
57 333
57 334
57 347
57 348
57 360
57 361
57 362
57 363
57 365
57 366
57 367
57 368
57 369
57 372
57 373
57 374
57 375
57 376
57 378
57 379
57 380
57 381
57 382
57 383
57 384
57 385
57 418
57 421
57 422
57 423
57 424
57 425
57 426
57 427
57 428
57 430
57 431
57 432
57 433
57 434
57 435
57 436
57 437
57 438
57 439
57 440
57 443
57 449
57 450
57 451
57 452
57 453
57 455
57 456
57 457
57 458
57 459
57 460
57 466
58 59
58 60
58 61
58 62
58 63
58 69
58 72
58 95
58 98
58 102
58 124
58 137
58 145
58 154
58 155
58 156
58 157
58 158
58 160
58 161
58 162
58 163
58 164
58 165
58 169
58 170
58 174
58 175
58 176
58 177
58 178
58 179
58 181
58 182
58 183
58 184
58 185
58 191
58 192
58 193
58 194
58 195
58 197
58 198
58 212
58 213
58 214
58 215
58 216
58 217
58 218
58 220
58 221
58 222
58 223
58 224
58 225
58 228
58 229
58 230
58 231
58 232
58 233
58 234
58 235
58 236
58 237
58 238
58 239
58 241
58 242
58 243
58 244
58 245
58 246
58 247
58 248
58 249
58 250
58 256
58 266
58 287
58 288
58 289
58 290
58 291
58 292
58 293
58 294
58 295
58 297
58 298
58 299
58 300
58 301
58 302
58 306
58 320
58 321
58 322
58 323
58 324
58 325
58 326
58 327
58 329
58 330
58 331
58 332
58 333
58 334
58 347
58 348
58 360
58 361
58 362
58 363
58 364
58 365
58 366
58 367
58 368
58 369
58 372
58 373
58 374
58 375
58 376
58 377
58 379
58 380
58 381
58 382
58 383
58 384
58 385
58 418
58 421
58 422
58 423
58 424
58 425
58 426
58 427
58 428
58 429
58 430
58 432
58 433
58 434
58 435
58 436
58 437
58 438
58 439
58 440
58 443
58 449
58 450
58 451
58 452
58 453
58 454
58 456
58 457
58 458
58 459
58 460
58 466
59 60
59 61
59 62
59 63
59 69
59 72
59 95
59 98
59 102
59 124
59 137
59 145
59 154
59 155
59 156
59 157
59 158
59 159
59 162
59 163
59 164
59 165
59 168
59 170
59 175
59 178
59 180
59 191
59 192
59 193
59 194
59 195
59 197
59 198
59 212
59 213
59 214
59 215
59 216
59 217
59 218
59 219
59 220
59 222
59 223
59 224
59 225
59 228
59 229
59 230
59 231
59 232
59 233
59 234
59 235
59 236
59 237
59 238
59 239
59 240
59 241
59 242
59 244
59 245
59 246
59 247
59 248
59 249
59 250
59 256
59 266
59 287
59 288
59 289
59 290
59 291
59 292
59 293
59 294
59 295
59 296
59 297
59 299
59 300
59 301
59 302
59 306
59 320
59 321
59 322
59 323
59 324
59 325
59 326
59 327
59 328
59 329
59 331
59 332
59 333
59 334
59 347
59 348
59 360
59 361
59 362
59 363
59 364
59 366
59 367
59 368
59 369
59 372
59 373
59 374
59 375
59 376
59 377
59 378
59 379
59 380
59 382
59 383
59 384
59 385
59 418
59 421
59 422
59 423
59 424
59 429
59 431
59 435
59 436
59 437
59 440
59 443
59 449
59 450
59 451
59 452
59 453
59 454
59 455
59 457
59 458
59 459
59 460
59 466
60 61
60 62
60 63
60 65
60 66
60 67
60 68
60 69
60 70
60 71
60 72
60 73
60 74
60 75
60 76
60 77
60 78
60 79
60 80
60 81
60 82
60 83
60 84
60 85
60 86
60 87
60 88
60 89
60 90
60 91
60 92
60 93
60 94
60 96
60 97
60 98
60 99
60 100
60 101
60 102
60 124
60 137
60 145
60 154
60 155
60 156
60 157
60 158
60 159
60 160
60 161
60 163
60 164
60 165
60 168
60 170
60 175
60 178
60 180
60 191
60 192
60 193
60 194
60 195
60 196
60 198
60 212
60 213
60 214
60 215
60 216
60 217
60 218
60 219
60 220
60 221
60 223
60 224
60 225
60 228
60 229
60 230
60 231
60 232
60 233
60 234
60 235
60 236
60 237
60 238
60 239
60 240
60 241
60 242
60 243
60 244
60 245
60 246
60 248
60 249
60 250
60 256
60 266
60 287
60 288
60 289
60 290
60 291
60 292
60 293
60 294
60 295
60 296
60 297
60 298
60 300
60 301
60 302
60 306
60 320
60 321
60 322
60 323
60 324
60 325
60 326
60 327
60 328
60 329
60 330
60 332
60 333
60 334
60 347
60 348
60 360
60 361
60 362
60 363
60 364
60 365
60 367
60 368
60 369
60 372
60 373
60 374
60 375
60 376
60 377
60 378
60 379
60 380
60 381
60 383
60 384
60 385
60 418
60 421
60 422
60 423
60 424
60 425
60 426
60 427
60 428
60 429
60 430
60 431
60 432
60 433
60 434
60 436
60 437
60 438
60 439
60 440
60 443
60 449
60 450
60 451
60 452
60 453
60 454
60 455
60 456
60 458
60 459
60 460
60 466
61 62
61 63
61 69
61 72
61 95
61 98
61 102
61 124
61 137
61 145
61 154
61 155
61 156
61 157
61 158
61 159
61 160
61 161
61 162
61 164
61 165
61 168
61 170
61 175
61 178
61 180
61 191
61 192
61 193
61 194
61 195
61 197
61 198
61 212
61 213
61 214
61 215
61 216
61 217
61 218
61 219
61 220
61 221
61 222
61 224
61 225
61 228
61 229
61 230
61 231
61 232
61 233
61 234
61 235
61 236
61 237
61 238
61 239
61 240
61 241
61 242
61 243
61 244
61 245
61 246
61 247
61 249
61 250
61 256
61 266
61 287
61 288
61 289
61 290
61 291
61 292
61 293
61 294
61 295
61 296
61 297
61 298
61 299
61 301
61 302
61 306
61 320
61 321
61 322
61 323
61 324
61 325
61 326
61 327
61 328
61 329
61 330
61 331
61 333
61 334
61 347
61 348
61 360
61 361
61 362
61 363
61 364
61 365
61 366
61 368
61 369
61 372
61 373
61 374
61 375
61 376
61 377
61 378
61 379
61 380
61 381
61 382
61 384
61 385
61 418
61 421
61 422
61 423
61 424
61 425
61 426
61 427
61 428
61 429
61 430
61 431
61 432
61 433
61 434
61 435
61 437
61 438
61 439
61 440
61 443
61 449
61 450
61 451
61 452
61 453
61 454
61 455
61 456
61 457
61 459
61 460
61 466
62 63
62 65
62 66
62 67
62 68
62 69
62 70
62 71
62 72
62 73
62 74
62 75
62 76
62 77
62 78
62 79
62 80
62 81
62 82
62 83
62 84
62 85
62 86
62 87
62 88
62 89
62 90
62 91
62 92
62 93
62 94
62 95
62 96
62 97
62 99
62 100
62 101
62 102
62 122
62 123
62 124
62 125
62 126
62 127
62 128
62 129
62 130
62 131
62 132
62 133
62 134
62 135
62 136
62 138
62 145
62 154
62 155
62 156
62 157
62 158
62 159
62 160
62 161
62 162
62 163
62 165
62 168
62 170
62 175
62 178
62 180
62 191
62 192
62 193
62 194
62 195
62 196
62 197
62 203
62 204
62 205
62 206
62 207
62 208
62 209
62 210
62 211
62 213
62 214
62 215
62 216
62 217
62 218
62 219
62 220
62 221
62 222
62 223
62 225
62 228
62 229
62 230
62 231
62 232
62 233
62 234
62 235
62 236
62 237
62 238
62 239
62 240
62 241
62 242
62 243
62 244
62 245
62 246
62 247
62 248
62 250
62 256
62 266
62 287
62 288
62 289
62 290
62 291
62 292
62 293
62 294
62 295
62 296
62 297
62 298
62 299
62 300
62 302
62 303
62 304
62 305
62 306
62 307
62 308
62 309
62 310
62 311
62 312
62 313
62 314
62 315
62 316
62 317
62 318
62 319
62 321
62 322
62 323
62 324
62 325
62 326
62 327
62 328
62 329
62 330
62 331
62 332
62 334
62 340
62 341
62 342
62 343
62 344
62 345
62 346
62 348
62 360
62 361
62 362
62 363
62 364
62 365
62 366
62 367
62 369
62 372
62 373
62 374
62 375
62 376
62 377
62 378
62 379
62 380
62 381
62 382
62 383
62 385
62 418
62 421
62 422
62 423
62 424
62 425
62 426
62 427
62 428
62 429
62 430
62 431
62 432
62 433
62 434
62 435
62 436
62 438
62 439
62 440
62 441
62 442
62 447
62 448
62 450
62 451
62 452
62 453
62 454
62 455
62 456
62 457
62 458
62 460
62 466
63 69
63 72
63 95
63 98
63 102
63 124
63 137
63 145
63 154
63 155
63 156
63 157
63 158
63 159
63 160
63 161
63 162
63 163
63 164
63 168
63 170
63 175
63 178
63 180
63 191
63 192
63 193
63 194
63 195
63 197
63 198
63 212
63 213
63 214
63 215
63 216
63 217
63 218
63 219
63 220
63 221
63 222
63 223
63 224
63 228
63 229
63 230
63 231
63 232
63 233
63 234
63 235
63 236
63 237
63 238
63 239
63 240
63 241
63 242
63 243
63 244
63 245
63 246
63 247
63 248
63 249
63 256
63 266
63 287
63 288
63 289
63 290
63 291
63 292
63 293
63 294
63 295
63 296
63 297
63 298
63 299
63 300
63 301
63 306
63 320
63 321
63 322
63 323
63 324
63 325
63 326
63 327
63 328
63 329
63 330
63 331
63 332
63 333
63 347
63 348
63 360
63 361
63 362
63 363
63 364
63 365
63 366
63 367
63 368
63 372
63 373
63 374
63 375
63 376
63 377
63 378
63 379
63 380
63 381
63 382
63 383
63 384
63 418
63 421
63 422
63 423
63 424
63 425
63 426
63 427
63 428
63 429
63 430
63 431
63 432
63 433
63 434
63 435
63 436
63 437
63 438
63 439
63 443
63 449
63 450
63 451
63 452
63 453
63 454
63 455
63 456
63 457
63 458
63 459
63 466
65 66
65 67
65 68
65 69
65 70
65 71
65 72
65 73
65 74
65 75
65 76
65 77
65 78
65 79
65 80
65 81
65 82
65 83
65 84
65 85
65 86
65 87
65 88
65 89
65 90
65 91
65 92
65 93
65 94
65 95
65 96
65 97
65 98
65 99
65 100
65 101
65 102
65 104
65 105
65 106
65 108
65 109
65 110
65 111
65 112
65 113
65 114
65 122
65 123
65 124
65 127
65 128
65 129
65 130
65 133
65 134
65 135
65 136
65 137
65 139
65 141
65 142
65 144
65 145
65 150
65 155
65 156
65 162
65 164
65 166
65 167
65 170
65 172
65 174
65 175
65 179
65 181
65 183
65 184
65 185
65 186
65 187
65 188
65 189
65 190
65 193
65 197
65 198
65 199
65 200
65 201
65 202
65 203
65 205
65 206
65 207
65 209
65 210
65 211
65 212
65 215
65 216
65 222
65 224
65 227
65 229
65 232
65 234
65 237
65 239
65 244
65 245
65 246
65 247
65 249
65 252
65 254
65 255
65 256
65 258
65 259
65 260
65 261
65 263
65 264
65 265
65 266
65 268
65 270
65 272
65 273
65 274
65 278
65 279
65 280
65 281
65 282
65 283
65 284
65 285
65 286
65 289
65 290
65 292
65 294
65 295
65 299
65 301
65 303
65 304
65 305
65 306
65 307
65 308
65 309
65 310
65 311
65 312
65 313
65 314
65 315
65 316
65 317
65 318
65 319
65 320
65 323
65 324
65 327
65 331
65 333
65 336
65 337
65 338
65 339
65 340
65 342
65 344
65 345
65 346
65 347
65 348
65 351
65 352
65 353
65 355
65 356
65 357
65 358
65 359
65 362
65 366
65 368
65 370
65 374
65 375
65 382
65 384
65 387
65 390
65 391
65 392
65 393
65 395
65 396
65 397
65 398
65 400
65 401
65 402
65 403
65 404
65 405
65 406
65 408
65 409
65 410
65 411
65 413
65 414
65 415
65 416
65 418
65 420
65 422
65 423
65 427
65 430
65 433
65 434
65 435
65 437
65 439
65 443
65 444
65 445
65 449
65 452
65 457
65 459
65 461
65 463
65 464
65 465
65 466
65 468
65 469
65 470
65 471
65 475
66 67
66 68
66 69
66 70
66 71
66 72
66 73
66 74
66 75
66 76
66 77
66 78
66 79
66 80
66 81
66 82
66 83
66 84
66 85
66 86
66 87
66 88
66 89
66 90
66 91
66 92
66 93
66 94
66 95
66 96
66 97
66 98
66 99
66 100
66 101
66 102
66 104
66 105
66 106
66 108
66 109
66 110
66 111
66 112
66 113
66 115
66 116
66 117
66 118
66 119
66 120
66 121
66 123
66 124
66 125
66 126
66 127
66 128
66 129
66 130
66 131
66 132
66 133
66 134
66 135
66 136
66 137
66 138
66 139
66 141
66 142
66 145
66 146
66 147
66 148
66 149
66 150
66 151
66 152
66 153
66 155
66 156
66 162
66 164
66 166
66 167
66 170
66 172
66 174
66 175
66 179
66 181
66 183
66 184
66 185
66 186
66 187
66 188
66 189
66 190
66 193
66 197
66 198
66 199
66 200
66 201
66 202
66 203
66 205
66 206
66 207
66 209
66 210
66 211
66 212
66 215
66 216
66 222
66 224
66 227
66 229
66 232
66 234
66 237
66 239
66 244
66 245
66 246
66 247
66 249
66 252
66 254
66 255
66 256
66 258
66 259
66 260
66 261
66 263
66 264
66 265
66 266
66 268
66 270
66 272
66 273
66 274
66 279
66 280
66 281
66 282
66 283
66 284
66 285
66 286
66 289
66 290
66 292
66 294
66 295
66 299
66 301
66 304
66 305
66 306
66 307
66 308
66 309
66 310
66 311
66 312
66 313
66 314
66 315
66 316
66 317
66 318
66 319
66 320
66 323
66 324
66 327
66 331
66 333
66 336
66 337
66 338
66 339
66 340
66 342
66 344
66 345
66 346
66 347
66 348
66 351
66 352
66 353
66 355
66 356
66 357
66 358
66 359
66 362
66 366
66 368
66 370
66 374
66 375
66 382
66 384
66 387
66 389
66 390
66 391
66 392
66 393
66 396
66 397
66 398
66 399
66 400
66 401
66 402
66 403
66 404
66 405
66 407
66 408
66 409
66 410
66 411
66 412
66 413
66 414
66 415
66 416
66 417
66 418
66 420
66 422
66 423
66 427
66 430
66 433
66 434
66 435
66 437
66 439
66 443
66 445
66 446
66 449
66 452
66 457
66 459
66 461
66 464
66 465
66 466
66 468
66 469
66 470
66 471
66 475
67 68
67 69
67 70
67 71
67 72
67 73
67 74
67 75
67 76
67 77
67 78
67 79
67 80
67 81
67 82
67 83
67 84
67 85
67 86
67 87
67 88
67 89
67 90
67 91
67 92
67 93
67 94
67 95
67 96
67 97
67 98
67 99
67 100
67 101
67 102
67 104
67 105
67 106
67 108
67 109
67 110
67 111
67 112
67 113
67 114
67 122
67 123
67 124
67 127
67 128
67 129
67 130
67 133
67 134
67 135
67 136
67 137
67 139
67 141
67 142
67 144
67 145
67 150
67 155
67 156
67 162
67 164
67 166
67 167
67 170
67 172
67 174
67 175
67 179
67 181
67 183
67 184
67 185
67 186
67 187
67 188
67 189
67 190
67 193
67 197
67 198
67 199
67 200
67 201
67 202
67 203
67 205
67 206
67 207
67 209
67 210
67 211
67 212
67 215
67 216
67 222
67 224
67 227
67 229
67 232
67 234
67 237
67 239
67 244
67 245
67 246
67 247
67 249
67 252
67 254
67 255
67 256
67 258
67 259
67 260
67 261
67 263
67 264
67 265
67 266
67 268
67 270
67 272
67 273
67 274
67 278
67 280
67 281
67 282
67 283
67 284
67 285
67 286
67 289
67 290
67 292
67 294
67 295
67 299
67 301
67 303
67 305
67 306
67 307
67 308
67 309
67 310
67 311
67 312
67 313
67 314
67 315
67 316
67 317
67 318
67 319
67 320
67 323
67 324
67 327
67 331
67 333
67 336
67 337
67 338
67 339
67 340
67 342
67 344
67 345
67 346
67 347
67 348
67 351
67 352
67 353
67 355
67 356
67 357
67 358
67 359
67 362
67 366
67 368
67 370
67 374
67 375
67 382
67 384
67 387
67 389
67 390
67 391
67 392
67 393
67 395
67 396
67 397
67 398
67 400
67 401
67 402
67 403
67 404
67 405
67 406
67 408
67 409
67 410
67 411
67 413
67 414
67 415
67 416
67 418
67 420
67 422
67 423
67 427
67 430
67 433
67 434
67 435
67 437
67 439
67 443
67 444
67 445
67 449
67 452
67 457
67 459
67 461
67 463
67 464
67 465
67 466
67 468
67 469
67 470
67 471
67 475
68 69
68 70
68 71
68 72
68 73
68 74
68 75
68 76
68 77
68 78
68 79
68 80
68 81
68 82
68 83
68 84
68 85
68 86
68 87
68 88
68 89
68 90
68 91
68 92
68 93
68 94
68 95
68 96
68 97
68 98
68 99
68 100
68 101
68 102
68 104
68 105
68 106
68 108
68 109
68 110
68 111
68 112
68 113
68 114
68 122
68 124
68 125
68 126
68 127
68 128
68 129
68 130
68 131
68 132
68 133
68 134
68 135
68 136
68 137
68 138
68 139
68 141
68 142
68 144
68 145
68 150
68 155
68 156
68 162
68 164
68 166
68 167
68 170
68 172
68 175
68 176
68 177
68 178
68 179
68 180
68 181
68 182
68 183
68 184
68 185
68 186
68 187
68 188
68 189
68 190
68 193
68 197
68 198
68 199
68 200
68 201
68 202
68 204
68 205
68 206
68 207
68 208
68 209
68 210
68 211
68 212
68 215
68 216
68 222
68 224
68 227
68 228
68 230
68 231
68 232
68 233
68 234
68 235
68 236
68 237
68 238
68 239
68 240
68 241
68 242
68 243
68 244
68 245
68 246
68 247
68 248
68 249
68 250
68 252
68 254
68 256
68 257
68 258
68 259
68 260
68 261
68 262
68 263
68 264
68 265
68 266
68 268
68 270
68 272
68 273
68 274
68 278
68 279
68 280
68 281
68 282
68 283
68 284
68 285
68 286
68 289
68 290
68 292
68 294
68 295
68 299
68 301
68 303
68 304
68 306
68 307
68 308
68 309
68 310
68 311
68 312
68 313
68 314
68 315
68 316
68 317
68 318
68 319
68 320
68 323
68 324
68 327
68 331
68 333
68 336
68 337
68 338
68 339
68 341
68 342
68 343
68 344
68 345
68 346
68 347
68 348
68 351
68 352
68 353
68 355
68 356
68 357
68 358
68 359
68 362
68 366
68 368
68 370
68 374
68 375
68 382
68 384
68 387
68 389
68 390
68 391
68 392
68 393
68 395
68 396
68 397
68 398
68 400
68 401
68 402
68 403
68 404
68 405
68 406
68 408
68 409
68 410
68 411
68 413
68 414
68 415
68 416
68 418
68 420
68 422
68 423
68 427
68 430
68 433
68 434
68 435
68 437
68 439
68 443
68 444
68 445
68 449
68 452
68 457
68 459
68 461
68 463
68 464
68 465
68 466
68 468
68 469
68 470
68 471
68 475
69 70
69 71
69 72
69 73
69 74
69 75
69 76
69 77
69 78
69 79
69 80
69 81
69 82
69 83
69 84
69 85
69 86
69 87
69 88
69 89
69 90
69 91
69 92
69 93
69 94
69 95
69 96
69 97
69 98
69 99
69 100
69 101
69 102
69 104
69 105
69 106
69 108
69 109
69 110
69 111
69 112
69 113
69 114
69 122
69 123
69 124
69 127
69 128
69 129
69 130
69 133
69 134
69 135
69 136
69 137
69 139
69 141
69 142
69 144
69 145
69 150
69 154
69 156
69 157
69 158
69 159
69 160
69 161
69 162
69 163
69 164
69 165
69 166
69 167
69 170
69 172
69 174
69 175
69 179
69 181
69 183
69 184
69 185
69 186
69 187
69 188
69 189
69 190
69 191
69 192
69 194
69 195
69 196
69 197
69 198
69 199
69 200
69 201
69 202
69 203
69 205
69 206
69 207
69 209
69 210
69 211
69 212
69 213
69 214
69 216
69 217
69 218
69 219
69 220
69 221
69 222
69 223
69 224
69 225
69 227
69 228
69 229
69 230
69 231
69 233
69 234
69 235
69 236
69 237
69 238
69 239
69 240
69 241
69 242
69 243
69 244
69 245
69 246
69 247
69 248
69 249
69 250
69 252
69 254
69 255
69 257
69 258
69 259
69 260
69 261
69 262
69 263
69 264
69 265
69 266
69 268
69 270
69 272
69 273
69 274
69 278
69 279
69 280
69 281
69 282
69 283
69 284
69 285
69 286
69 287
69 288
69 290
69 291
69 292
69 293
69 294
69 295
69 296
69 297
69 298
69 299
69 300
69 301
69 302
69 303
69 304
69 305
69 307
69 308
69 309
69 310
69 311
69 312
69 313
69 314
69 315
69 316
69 317
69 318
69 319
69 320
69 321
69 322
69 324
69 325
69 326
69 327
69 328
69 329
69 330
69 331
69 332
69 333
69 334
69 336
69 337
69 338
69 339
69 340
69 342
69 344
69 345
69 346
69 347
69 348
69 351
69 352
69 353
69 355
69 356
69 357
69 358
69 359
69 360
69 361
69 363
69 364
69 365
69 366
69 367
69 368
69 369
69 370
69 372
69 373
69 375
69 376
69 377
69 378
69 379
69 380
69 381
69 382
69 383
69 384
69 385
69 387
69 389
69 390
69 391
69 392
69 393
69 395
69 396
69 397
69 398
69 400
69 401
69 402
69 403
69 404
69 405
69 406
69 408
69 409
69 410
69 411
69 413
69 414
69 415
69 416
69 418
69 420
69 421
69 423
69 424
69 425
69 426
69 427
69 428
69 429
69 430
69 431
69 432
69 433
69 434
69 435
69 436
69 437
69 438
69 439
69 440
69 443
69 444
69 445
69 449
69 450
69 451
69 453
69 454
69 455
69 456
69 457
69 458
69 459
69 460
69 461
69 463
69 464
69 465
69 466
69 468
69 469
69 470
69 471
69 475
70 71
70 72
70 73
70 74
70 75
70 76
70 77
70 78
70 79
70 80
70 81
70 82
70 83
70 84
70 85
70 86
70 87
70 88
70 89
70 90
70 91
70 92
70 93
70 94
70 95
70 96
70 97
70 98
70 99
70 100
70 101
70 102
70 104
70 105
70 106
70 108
70 109
70 110
70 111
70 112
70 113
70 114
70 122
70 123
70 124
70 127
70 128
70 129
70 130
70 133
70 134
70 135
70 136
70 137
70 139
70 141
70 142
70 144
70 145
70 150
70 155
70 156
70 162
70 164
70 166
70 167
70 170
70 172
70 174
70 175
70 179
70 181
70 183
70 184
70 185
70 186
70 187
70 188
70 189
70 190
70 193
70 197
70 198
70 199
70 200
70 201
70 202
70 203
70 205
70 206
70 207
70 209
70 210
70 211
70 212
70 215
70 216
70 222
70 224
70 227
70 229
70 232
70 234
70 237
70 239
70 244
70 245
70 246
70 247
70 249
70 252
70 254
70 255
70 256
70 258
70 259
70 260
70 261
70 263
70 264
70 265
70 266
70 268
70 270
70 272
70 273
70 274
70 278
70 279
70 281
70 282
70 283
70 284
70 285
70 286
70 289
70 290
70 292
70 294
70 295
70 299
70 301
70 303
70 304
70 305
70 306
70 307
70 308
70 309
70 310
70 311
70 312
70 313
70 314
70 315
70 316
70 317
70 318
70 319
70 320
70 323
70 324
70 327
70 331
70 333
70 336
70 337
70 338
70 339
70 340
70 342
70 344
70 345
70 346
70 347
70 348
70 351
70 352
70 353
70 355
70 356
70 357
70 358
70 359
70 362
70 366
70 368
70 370
70 374
70 375
70 382
70 384
70 387
70 389
70 390
70 391
70 392
70 393
70 395
70 396
70 397
70 398
70 400
70 401
70 402
70 403
70 404
70 405
70 406
70 408
70 409
70 410
70 411
70 413
70 414
70 415
70 416
70 418
70 420
70 422
70 423
70 427
70 430
70 433
70 434
70 435
70 437
70 439
70 443
70 444
70 445
70 449
70 452
70 457
70 459
70 461
70 463
70 464
70 465
70 466
70 468
70 469
70 470
70 471
70 475
71 72
71 73
71 74
71 75
71 76
71 77
71 78
71 79
71 80
71 81
71 82
71 83
71 84
71 85
71 86
71 87
71 88
71 89
71 90
71 91
71 92
71 93
71 94
71 95
71 96
71 97
71 98
71 99
71 100
71 101
71 102
71 104
71 105
71 106
71 108
71 109
71 110
71 111
71 112
71 113
71 114
71 122
71 123
71 124
71 127
71 128
71 129
71 130
71 133
71 134
71 135
71 136
71 137
71 139
71 141
71 143
71 144
71 145
71 150
71 155
71 156
71 162
71 164
71 166
71 167
71 170
71 172
71 174
71 175
71 179
71 181
71 183
71 184
71 185
71 186
71 187
71 188
71 189
71 190
71 193
71 197
71 198
71 199
71 200
71 201
71 202
71 203
71 205
71 206
71 207
71 209
71 210
71 211
71 212
71 215
71 216
71 222
71 224
71 227
71 229
71 232
71 234
71 237
71 239
71 244
71 245
71 246
71 247
71 249
71 251
71 253
71 255
71 256
71 258
71 259
71 260
71 261
71 263
71 264
71 265
71 266
71 268
71 270
71 272
71 273
71 274
71 278
71 279
71 280
71 281
71 282
71 283
71 284
71 285
71 286
71 289
71 290
71 292
71 294
71 295
71 299
71 301
71 303
71 304
71 305
71 306
71 307
71 308
71 309
71 310
71 311
71 312
71 313
71 314
71 315
71 316
71 317
71 318
71 319
71 320
71 323
71 324
71 327
71 331
71 333
71 336
71 337
71 338
71 339
71 340
71 342
71 344
71 345
71 346
71 347
71 348
71 351
71 352
71 353
71 355
71 356
71 357
71 358
71 359
71 362
71 366
71 368
71 371
71 374
71 375
71 382
71 384
71 387
71 389
71 391
71 392
71 394
71 395
71 396
71 397
71 398
71 400
71 401
71 402
71 403
71 404
71 405
71 406
71 408
71 409
71 410
71 411
71 413
71 414
71 415
71 416
71 418
71 420
71 422
71 423
71 427
71 430
71 433
71 434
71 435
71 437
71 439
71 443
71 444
71 445
71 449
71 452
71 457
71 459
71 462
71 463
71 464
71 465
71 466
71 468
71 469
71 470
71 471
71 476
72 73
72 74
72 75
72 76
72 77
72 78
72 79
72 80
72 81
72 82
72 83
72 84
72 85
72 86
72 87
72 88
72 89
72 90
72 91
72 92
72 93
72 94
72 95
72 96
72 97
72 98
72 99
72 100
72 101
72 103
72 104
72 105
72 106
72 107
72 108
72 109
72 110
72 111
72 112
72 113
72 114
72 122
72 123
72 125
72 126
72 127
72 128
72 129
72 130
72 131
72 132
72 133
72 134
72 135
72 136
72 137
72 138
72 139
72 141
72 142
72 144
72 146
72 147
72 148
72 149
72 150
72 151
72 152
72 153
72 154
72 155
72 157
72 158
72 159
72 160
72 161
72 162
72 163
72 164
72 165
72 166
72 167
72 171
72 172
72 173
72 174
72 176
72 177
72 178
72 179
72 180
72 181
72 182
72 183
72 184
72 185
72 186
72 187
72 188
72 189
72 190
72 193
72 197
72 198
72 199
72 200
72 201
72 202
72 203
72 205
72 206
72 207
72 209
72 210
72 211
72 212
72 213
72 214
72 215
72 217
72 218
72 219
72 220
72 221
72 222
72 223
72 224
72 225
72 227
72 228
72 229
72 230
72 231
72 232
72 233
72 235
72 236
72 237
72 238
72 239
72 240
72 241
72 242
72 243
72 244
72 245
72 246
72 247
72 248
72 249
72 250
72 252
72 254
72 255
72 256
72 258
72 259
72 260
72 261
72 263
72 264
72 265
72 267
72 268
72 269
72 270
72 271
72 272
72 273
72 274
72 278
72 279
72 280
72 281
72 282
72 283
72 284
72 285
72 286
72 287
72 288
72 289
72 291
72 292
72 293
72 294
72 295
72 296
72 297
72 298
72 299
72 300
72 301
72 302
72 303
72 304
72 305
72 306
72 307
72 308
72 309
72 310
72 311
72 312
72 313
72 314
72 315
72 316
72 317
72 318
72 319
72 320
72 321
72 322
72 323
72 325
72 326
72 327
72 328
72 329
72 330
72 331
72 332
72 333
72 334
72 336
72 337
72 338
72 339
72 340
72 342
72 344
72 345
72 346
72 347
72 349
72 350
72 351
72 352
72 353
72 354
72 355
72 356
72 357
72 358
72 359
72 362
72 366
72 368
72 370
72 372
72 373
72 374
72 376
72 377
72 378
72 379
72 380
72 381
72 382
72 383
72 384
72 385
72 387
72 389
72 390
72 391
72 392
72 393
72 395
72 396
72 397
72 398
72 400
72 401
72 402
72 403
72 404
72 405
72 406
72 408
72 409
72 410
72 411
72 413
72 414
72 415
72 416
72 419
72 420
72 421
72 422
72 424
72 425
72 426
72 427
72 428
72 429
72 430
72 431
72 432
72 433
72 434
72 435
72 436
72 437
72 438
72 439
72 440
72 443
72 444
72 445
72 449
72 452
72 457
72 459
72 461
72 463
72 464
72 465
72 467
72 468
72 469
72 470
72 471
72 475
73 74
73 75
73 76
73 77
73 78
73 79
73 80
73 81
73 82
73 83
73 84
73 85
73 86
73 87
73 88
73 89
73 90
73 91
73 92
73 93
73 94
73 95
73 96
73 97
73 98
73 99
73 100
73 101
73 102
73 104
73 105
73 106
73 108
73 109
73 110
73 111
73 112
73 113
73 114
73 122
73 123
73 124
73 127
73 128
73 129
73 130
73 133
73 134
73 135
73 136
73 137
73 139
73 141
73 142
73 144
73 145
73 150
73 155
73 156
73 162
73 164
73 166
73 167
73 170
73 172
73 174
73 175
73 179
73 181
73 183
73 184
73 185
73 186
73 187
73 188
73 189
73 190
73 193
73 197
73 198
73 199
73 200
73 201
73 202
73 203
73 205
73 206
73 207
73 209
73 210
73 211
73 212
73 215
73 216
73 222
73 224
73 227
73 229
73 232
73 234
73 237
73 239
73 244
73 245
73 246
73 247
73 249
73 252
73 254
73 255
73 256
73 258
73 259
73 260
73 261
73 263
73 264
73 265
73 266
73 268
73 270
73 272
73 273
73 274
73 278
73 279
73 280
73 282
73 283
73 284
73 285
73 286
73 289
73 290
73 292
73 294
73 295
73 299
73 301
73 303
73 304
73 305
73 306
73 307
73 308
73 309
73 310
73 311
73 312
73 313
73 314
73 315
73 316
73 317
73 318
73 319
73 320
73 323
73 324
73 327
73 331
73 333
73 336
73 337
73 338
73 339
73 340
73 342
73 344
73 345
73 346
73 347
73 348
73 351
73 352
73 353
73 355
73 356
73 357
73 358
73 359
73 362
73 366
73 368
73 370
73 374
73 375
73 382
73 384
73 387
73 389
73 390
73 391
73 392
73 393
73 395
73 396
73 397
73 398
73 400
73 401
73 402
73 403
73 404
73 405
73 406
73 408
73 409
73 410
73 411
73 413
73 414
73 415
73 416
73 418
73 420
73 422
73 423
73 427
73 430
73 433
73 434
73 435
73 437
73 439
73 443
73 444
73 445
73 449
73 452
73 457
73 459
73 461
73 463
73 464
73 465
73 466
73 468
73 469
73 470
73 471
73 475
74 75
74 76
74 77
74 78
74 79
74 80
74 81
74 82
74 83
74 84
74 85
74 86
74 87
74 88
74 89
74 90
74 91
74 92
74 93
74 94
74 95
74 96
74 97
74 98
74 99
74 100
74 101
74 102
74 104
74 105
74 106
74 108
74 109
74 110
74 111
74 112
74 113
74 114
74 122
74 123
74 124
74 127
74 128
74 129
74 130
74 133
74 134
74 135
74 136
74 137
74 139
74 141
74 142
74 144
74 145
74 150
74 155
74 156
74 162
74 164
74 166
74 167
74 170
74 172
74 174
74 175
74 179
74 181
74 183
74 184
74 185
74 186
74 187
74 188
74 189
74 190
74 193
74 197
74 198
74 199
74 200
74 201
74 202
74 203
74 205
74 206
74 207
74 209
74 210
74 211
74 212
74 215
74 216
74 222
74 224
74 227
74 229
74 232
74 234
74 237
74 239
74 244
74 245
74 246
74 247
74 249
74 252
74 254
74 255
74 256
74 258
74 259
74 260
74 261
74 263
74 264
74 265
74 266
74 268
74 270
74 272
74 273
74 274
74 278
74 279
74 280
74 281
74 283
74 284
74 285
74 286
74 289
74 290
74 292
74 294
74 295
74 299
74 301
74 303
74 304
74 305
74 306
74 307
74 308
74 309
74 310
74 311
74 312
74 313
74 314
74 315
74 316
74 317
74 318
74 319
74 320
74 323
74 324
74 327
74 331
74 333
74 336
74 337
74 338
74 339
74 340
74 342
74 344
74 345
74 346
74 347
74 348
74 351
74 352
74 353
74 355
74 356
74 357
74 358
74 359
74 362
74 366
74 368
74 370
74 374
74 375
74 382
74 384
74 387
74 389
74 390
74 391
74 392
74 393
74 395
74 396
74 397
74 398
74 400
74 401
74 402
74 403
74 404
74 405
74 406
74 408
74 409
74 410
74 411
74 413
74 414
74 415
74 416
74 418
74 420
74 422
74 423
74 427
74 430
74 433
74 434
74 435
74 437
74 439
74 443
74 444
74 445
74 449
74 452
74 457
74 459
74 461
74 463
74 464
74 465
74 466
74 468
74 469
74 470
74 471
74 475
75 76
75 77
75 78
75 79
75 80
75 81
75 82
75 83
75 84
75 85
75 86
75 87
75 88
75 89
75 90
75 91
75 92
75 93
75 94
75 95
75 96
75 97
75 98
75 99
75 100
75 101
75 102
75 104
75 105
75 106
75 108
75 109
75 110
75 111
75 112
75 113
75 114
75 122
75 123
75 124
75 127
75 128
75 129
75 130
75 133
75 134
75 135
75 136
75 137
75 139
75 141
75 142
75 144
75 145
75 150
75 155
75 156
75 162
75 164
75 166
75 167
75 170
75 172
75 174
75 175
75 179
75 181
75 183
75 184
75 185
75 186
75 187
75 188
75 189
75 190
75 193
75 197
75 198
75 199
75 200
75 201
75 202
75 203
75 205
75 206
75 207
75 209
75 210
75 211
75 212
75 215
75 216
75 222
75 224
75 227
75 229
75 232
75 234
75 237
75 239
75 244
75 245
75 246
75 247
75 249
75 252
75 254
75 255
75 256
75 258
75 259
75 260
75 261
75 263
75 264
75 265
75 266
75 268
75 270
75 272
75 273
75 274
75 278
75 279
75 280
75 281
75 282
75 284
75 285
75 286
75 289
75 290
75 292
75 294
75 295
75 299
75 301
75 303
75 304
75 305
75 306
75 307
75 308
75 309
75 310
75 311
75 312
75 313
75 314
75 315
75 316
75 317
75 318
75 319
75 320
75 323
75 324
75 327
75 331
75 333
75 336
75 337
75 338
75 339
75 340
75 342
75 344
75 345
75 346
75 347
75 348
75 351
75 352
75 353
75 355
75 356
75 357
75 358
75 359
75 362
75 366
75 368
75 370
75 374
75 375
75 382
75 384
75 387
75 389
75 390
75 391
75 392
75 393
75 395
75 396
75 397
75 398
75 400
75 401
75 402
75 403
75 404
75 405
75 406
75 408
75 409
75 410
75 411
75 413
75 414
75 415
75 416
75 418
75 420
75 422
75 423
75 427
75 430
75 433
75 434
75 435
75 437
75 439
75 443
75 444
75 445
75 449
75 452
75 457
75 459
75 461
75 463
75 464
75 465
75 466
75 468
75 469
75 470
75 471
75 475
76 77
76 78
76 79
76 80
76 81
76 82
76 83
76 84
76 85
76 86
76 87
76 88
76 89
76 90
76 91
76 92
76 93
76 94
76 95
76 96
76 97
76 98
76 99
76 100
76 101
76 102
76 103
76 105
76 106
76 107
76 108
76 109
76 110
76 111
76 112
76 113
76 114
76 122
76 123
76 124
76 125
76 126
76 128
76 129
76 130
76 131
76 132
76 133
76 134
76 135
76 136
76 137
76 138
76 139
76 141
76 142
76 144
76 145
76 150
76 155
76 156
76 162
76 164
76 166
76 167
76 170
76 172
76 174
76 175
76 179
76 181
76 183
76 184
76 185
76 186
76 187
76 188
76 189
76 190
76 193
76 197
76 198
76 200
76 201
76 202
76 203
76 204
76 206
76 207
76 208
76 209
76 210
76 211
76 212
76 215
76 216
76 222
76 224
76 227
76 228
76 229
76 230
76 231
76 232
76 233
76 234
76 235
76 236
76 238
76 239
76 240
76 241
76 242
76 243
76 244
76 245
76 246
76 247
76 248
76 249
76 250
76 252
76 254
76 255
76 256
76 257
76 259
76 260
76 261
76 262
76 263
76 264
76 265
76 266
76 268
76 270
76 272
76 273
76 274
76 278
76 279
76 280
76 281
76 282
76 283
76 285
76 286
76 287
76 288
76 289
76 290
76 291
76 293
76 294
76 295
76 296
76 297
76 298
76 299
76 300
76 301
76 302
76 303
76 304
76 305
76 306
76 308
76 309
76 310
76 311
76 312
76 313
76 314
76 315
76 316
76 317
76 318
76 319
76 320
76 323
76 324
76 327
76 331
76 333
76 335
76 337
76 338
76 339
76 340
76 342
76 344
76 345
76 346
76 347
76 348
76 351
76 352
76 353
76 355
76 357
76 358
76 359
76 362
76 366
76 368
76 370
76 374
76 375
76 382
76 384
76 387
76 389
76 390
76 391
76 392
76 393
76 395
76 397
76 398
76 399
76 400
76 401
76 402
76 403
76 404
76 405
76 406
76 407
76 409
76 410
76 411
76 412
76 413
76 414
76 415
76 416
76 417
76 418
76 420
76 422
76 423
76 427
76 430
76 433
76 434
76 435
76 437
76 439
76 443
76 444
76 445
76 449
76 452
76 457
76 459
76 461
76 463
76 464
76 465
76 466
76 468
76 469
76 470
76 471
76 475
77 78
77 79
77 80
77 81
77 82
77 83
77 84
77 85
77 86
77 87
77 88
77 89
77 90
77 91
77 92
77 93
77 94
77 95
77 96
77 97
77 98
77 99
77 100
77 101
77 102
77 103
77 104
77 106
77 107
77 108
77 109
77 110
77 111
77 112
77 113
77 114
77 122
77 123
77 124
77 127
77 128
77 129
77 130
77 133
77 134
77 135
77 136
77 137
77 139
77 141
77 142
77 144
77 145
77 150
77 155
77 156
77 162
77 164
77 166
77 167
77 170
77 172
77 174
77 175
77 179
77 181
77 183
77 184
77 185
77 186
77 187
77 188
77 189
77 190
77 193
77 197
77 198
77 199
77 200
77 201
77 202
77 203
77 205
77 206
77 207
77 209
77 210
77 211
77 212
77 215
77 216
77 222
77 224
77 227
77 229
77 232
77 234
77 237
77 239
77 244
77 245
77 246
77 247
77 249
77 252
77 254
77 255
77 256
77 258
77 259
77 260
77 261
77 263
77 264
77 265
77 266
77 267
77 269
77 270
77 271
77 272
77 273
77 275
77 278
77 279
77 280
77 281
77 282
77 283
77 284
77 285
77 286
77 289
77 290
77 292
77 294
77 295
77 299
77 301
77 303
77 304
77 305
77 306
77 307
77 308
77 309
77 310
77 311
77 312
77 313
77 314
77 315
77 316
77 317
77 318
77 319
77 320
77 323
77 324
77 327
77 331
77 333
77 336
77 337
77 338
77 339
77 340
77 342
77 344
77 345
77 346
77 347
77 348
77 349
77 350
77 352
77 353
77 354
77 355
77 356
77 357
77 358
77 359
77 362
77 366
77 368
77 370
77 374
77 375
77 382
77 384
77 387
77 389
77 390
77 391
77 392
77 393
77 395
77 396
77 397
77 398
77 400
77 401
77 402
77 403
77 404
77 405
77 406
77 408
77 409
77 410
77 411
77 413
77 414
77 415
77 416
77 418
77 420
77 421
77 422
77 423
77 424
77 425
77 426
77 428
77 429
77 430
77 431
77 432
77 433
77 434
77 435
77 436
77 437
77 438
77 439
77 440
77 443
77 444
77 445
77 449
77 452
77 457
77 459
77 461
77 463
77 464
77 465
77 466
77 467
77 469
77 470
77 472
77 473
77 475
78 79
78 80
78 81
78 82
78 83
78 84
78 85
78 86
78 87
78 88
78 89
78 90
78 91
78 92
78 93
78 94
78 95
78 96
78 97
78 98
78 99
78 100
78 101
78 102
78 103
78 104
78 105
78 107
78 108
78 109
78 110
78 111
78 112
78 113
78 114
78 122
78 123
78 124
78 127
78 128
78 129
78 130
78 133
78 134
78 135
78 136
78 137
78 139
78 141
78 142
78 144
78 145
78 150
78 155
78 156
78 162
78 164
78 166
78 167
78 170
78 172
78 174
78 175
78 179
78 181
78 183
78 184
78 185
78 186
78 187
78 188
78 189
78 190
78 193
78 197
78 198
78 199
78 200
78 201
78 202
78 203
78 205
78 206
78 207
78 209
78 210
78 211
78 212
78 215
78 216
78 222
78 224
78 227
78 229
78 232
78 234
78 237
78 239
78 244
78 245
78 246
78 247
78 249
78 252
78 254
78 255
78 256
78 258
78 259
78 260
78 261
78 263
78 264
78 265
78 266
78 268
78 270
78 272
78 273
78 274
78 278
78 279
78 280
78 281
78 282
78 283
78 284
78 285
78 286
78 289
78 290
78 292
78 294
78 295
78 299
78 301
78 303
78 304
78 305
78 306
78 307
78 309
78 310
78 311
78 312
78 313
78 314
78 315
78 316
78 317
78 318
78 319
78 320
78 323
78 324
78 327
78 331
78 333
78 336
78 337
78 338
78 339
78 340
78 342
78 344
78 345
78 346
78 347
78 348
78 351
78 352
78 353
78 355
78 356
78 358
78 359
78 362
78 366
78 368
78 370
78 374
78 375
78 382
78 384
78 387
78 389
78 390
78 391
78 392
78 393
78 395
78 396
78 397
78 398
78 400
78 401
78 402
78 403
78 404
78 405
78 406
78 408
78 409
78 410
78 411
78 413
78 414
78 415
78 416
78 418
78 420
78 422
78 423
78 427
78 430
78 433
78 434
78 435
78 437
78 439
78 443
78 444
78 445
78 449
78 452
78 457
78 459
78 461
78 463
78 464
78 465
78 466
78 468
78 469
78 470
78 471
78 475
79 80
79 81
79 82
79 83
79 84
79 85
79 86
79 87
79 88
79 89
79 90
79 91
79 92
79 93
79 94
79 95
79 96
79 97
79 98
79 99
79 100
79 101
79 102
79 104
79 105
79 106
79 108
79 109
79 110
79 111
79 112
79 113
79 114
79 122
79 123
79 124
79 127
79 128
79 129
79 130
79 133
79 134
79 135
79 136
79 137
79 139
79 141
79 142
79 144
79 145
79 150
79 155
79 156
79 162
79 164
79 166
79 167
79 170
79 172
79 174
79 175
79 179
79 181
79 183
79 184
79 185
79 186
79 187
79 188
79 189
79 190
79 193
79 197
79 198
79 199
79 200
79 201
79 202
79 203
79 205
79 206
79 207
79 209
79 210
79 211
79 212
79 215
79 216
79 222
79 224
79 227
79 229
79 232
79 234
79 237
79 239
79 244
79 245
79 246
79 247
79 249
79 252
79 254
79 255
79 256
79 258
79 259
79 260
79 261
79 263
79 264
79 265
79 266
79 268
79 270
79 272
79 273
79 274
79 278
79 279
79 280
79 281
79 282
79 283
79 284
79 285
79 286
79 289
79 290
79 292
79 294
79 295
79 299
79 301
79 303
79 304
79 305
79 306
79 307
79 308
79 310
79 311
79 312
79 313
79 314
79 315
79 316
79 317
79 318
79 319
79 320
79 323
79 324
79 327
79 331
79 333
79 336
79 337
79 338
79 339
79 340
79 342
79 344
79 345
79 346
79 347
79 348
79 351
79 352
79 353
79 355
79 356
79 357
79 358
79 359
79 362
79 366
79 368
79 370
79 374
79 375
79 382
79 384
79 387
79 389
79 390
79 391
79 392
79 393
79 395
79 396
79 397
79 398
79 400
79 401
79 402
79 403
79 404
79 405
79 406
79 408
79 409
79 410
79 411
79 413
79 414
79 415
79 416
79 418
79 420
79 422
79 423
79 427
79 430
79 433
79 434
79 435
79 437
79 439
79 443
79 444
79 445
79 449
79 452
79 457
79 459
79 461
79 463
79 464
79 465
79 466
79 468
79 469
79 470
79 471
79 475
80 81
80 82
80 83
80 84
80 85
80 86
80 87
80 88
80 89
80 90
80 91
80 92
80 93
80 94
80 95
80 96
80 97
80 98
80 99
80 100
80 101
80 102
80 104
80 105
80 106
80 108
80 109
80 110
80 111
80 112
80 113
80 114
80 122
80 123
80 124
80 125
80 126
80 127
80 129
80 130
80 131
80 132
80 133
80 134
80 135
80 136
80 137
80 138
80 139
80 141
80 142
80 144
80 145
80 150
80 155
80 156
80 162
80 164
80 166
80 167
80 170
80 172
80 174
80 175
80 176
80 177
80 178
80 180
80 181
80 182
80 183
80 184
80 185
80 186
80 187
80 188
80 189
80 190
80 193
80 197
80 198
80 199
80 200
80 201
80 202
80 203
80 204
80 205
80 207
80 208
80 209
80 210
80 211
80 212
80 215
80 216
80 222
80 224
80 227
80 229
80 232
80 234
80 237
80 239
80 244
80 245
80 246
80 247
80 249
80 252
80 254
80 255
80 256
80 257
80 258
80 260
80 261
80 262
80 263
80 264
80 265
80 266
80 268
80 270
80 272
80 273
80 274
80 278
80 279
80 280
80 281
80 282
80 283
80 284
80 285
80 286
80 287
80 288
80 289
80 290
80 291
80 292
80 293
80 295
80 296
80 297
80 298
80 299
80 300
80 301
80 302
80 303
80 304
80 305
80 306
80 307
80 308
80 309
80 311
80 312
80 313
80 314
80 315
80 316
80 317
80 318
80 319
80 320
80 323
80 324
80 327
80 331
80 333
80 336
80 337
80 338
80 339
80 340
80 341
80 343
80 344
80 345
80 346
80 347
80 348
80 351
80 352
80 353
80 355
80 356
80 357
80 358
80 359
80 362
80 366
80 368
80 370
80 374
80 375
80 382
80 384
80 387
80 389
80 390
80 391
80 392
80 393
80 395
80 396
80 397
80 398
80 400
80 401
80 402
80 403
80 404
80 405
80 406
80 407
80 408
80 410
80 411
80 412
80 413
80 414
80 415
80 416
80 417
80 418
80 420
80 422
80 423
80 427
80 430
80 433
80 434
80 435
80 437
80 439
80 443
80 444
80 445
80 449
80 452
80 457
80 459
80 461
80 463
80 464
80 465
80 466
80 468
80 469
80 470
80 471
80 475
81 82
81 83
81 84
81 85
81 86
81 87
81 88
81 89
81 90
81 91
81 92
81 93
81 94
81 95
81 96
81 97
81 98
81 99
81 100
81 101
81 102
81 103
81 104
81 105
81 106
81 107
81 109
81 110
81 111
81 112
81 113
81 114
81 122
81 123
81 124
81 125
81 126
81 127
81 128
81 130
81 131
81 132
81 133
81 134
81 135
81 136
81 137
81 138
81 139
81 141
81 142
81 144
81 145
81 150
81 155
81 156
81 162
81 164
81 167
81 170
81 172
81 174
81 175
81 179
81 181
81 183
81 184
81 185
81 187
81 189
81 190
81 193
81 197
81 198
81 199
81 201
81 202
81 203
81 204
81 205
81 206
81 208
81 209
81 210
81 211
81 212
81 215
81 216
81 222
81 224
81 227
81 228
81 229
81 230
81 231
81 232
81 233
81 234
81 235
81 236
81 237
81 238
81 240
81 241
81 242
81 243
81 244
81 245
81 246
81 247
81 248
81 249
81 250
81 252
81 254
81 255
81 256
81 257
81 258
81 259
81 261
81 262
81 263
81 264
81 265
81 266
81 267
81 268
81 269
81 271
81 272
81 273
81 274
81 278
81 279
81 280
81 281
81 282
81 283
81 284
81 286
81 287
81 288
81 289
81 290
81 291
81 292
81 293
81 294
81 296
81 297
81 298
81 299
81 300
81 301
81 302
81 303
81 304
81 305
81 306
81 307
81 308
81 309
81 310
81 312
81 313
81 314
81 315
81 316
81 317
81 318
81 319
81 320
81 321
81 322
81 323
81 324
81 325
81 326
81 328
81 329
81 330
81 331
81 332
81 333
81 334
81 335
81 336
81 338
81 339
81 340
81 342
81 344
81 345
81 346
81 347
81 348
81 349
81 350
81 351
81 353
81 354
81 355
81 356
81 357
81 359
81 362
81 366
81 368
81 370
81 374
81 375
81 382
81 384
81 387
81 389
81 390
81 392
81 393
81 395
81 396
81 398
81 399
81 401
81 403
81 405
81 406
81 407
81 408
81 409
81 411
81 412
81 413
81 414
81 415
81 416
81 417
81 418
81 420
81 421
81 422
81 423
81 424
81 425
81 426
81 427
81 428
81 429
81 431
81 432
81 433
81 434
81 435
81 436
81 437
81 438
81 439
81 440
81 443
81 444
81 445
81 449
81 452
81 457
81 459
81 461
81 463
81 465
81 466
81 468
81 469
81 470
81 471
81 475
82 83
82 84
82 85
82 86
82 87
82 88
82 89
82 90
82 91
82 92
82 93
82 94
82 95
82 96
82 97
82 98
82 99
82 100
82 101
82 102
82 104
82 105
82 106
82 108
82 109
82 110
82 111
82 112
82 113
82 114
82 122
82 123
82 124
82 127
82 128
82 129
82 130
82 133
82 134
82 135
82 136
82 137
82 139
82 141
82 142
82 144
82 145
82 150
82 155
82 156
82 162
82 164
82 166
82 167
82 170
82 172
82 174
82 175
82 179
82 181
82 183
82 184
82 185
82 186
82 187
82 188
82 189
82 190
82 193
82 197
82 198
82 199
82 200
82 201
82 202
82 203
82 205
82 206
82 207
82 209
82 210
82 211
82 212
82 215
82 216
82 222
82 224
82 227
82 229
82 232
82 234
82 237
82 239
82 244
82 245
82 246
82 247
82 249
82 252
82 254
82 255
82 256
82 258
82 259
82 260
82 261
82 263
82 264
82 265
82 266
82 268
82 270
82 272
82 273
82 274
82 278
82 279
82 280
82 281
82 282
82 283
82 284
82 285
82 289
82 290
82 292
82 294
82 295
82 299
82 301
82 303
82 304
82 305
82 306
82 307
82 308
82 309
82 310
82 311
82 312
82 313
82 314
82 315
82 316
82 317
82 318
82 319
82 320
82 323
82 324
82 327
82 331
82 333
82 336
82 337
82 338
82 339
82 340
82 342
82 344
82 345
82 346
82 347
82 348
82 351
82 352
82 353
82 355
82 356
82 357
82 358
82 359
82 362
82 366
82 368
82 370
82 374
82 375
82 382
82 384
82 387
82 389
82 390
82 391
82 392
82 393
82 395
82 396
82 397
82 398
82 400
82 401
82 402
82 403
82 404
82 405
82 406
82 408
82 409
82 410
82 411
82 413
82 414
82 415
82 416
82 418
82 420
82 422
82 423
82 427
82 430
82 433
82 434
82 435
82 437
82 439
82 443
82 444
82 445
82 449
82 452
82 457
82 459
82 461
82 463
82 464
82 465
82 466
82 468
82 469
82 470
82 471
82 475
83 84
83 85
83 86
83 87
83 88
83 89
83 90
83 91
83 92
83 93
83 94
83 95
83 96
83 97
83 98
83 99
83 100
83 101
83 102
83 104
83 105
83 106
83 108
83 109
83 110
83 111
83 112
83 113
83 114
83 122
83 123
83 124
83 127
83 128
83 129
83 130
83 133
83 134
83 135
83 136
83 137
83 139
83 141
83 142
83 144
83 145
83 150
83 155
83 156
83 162
83 164
83 166
83 167
83 170
83 172
83 174
83 175
83 179
83 181
83 183
83 184
83 185
83 186
83 187
83 188
83 190
83 193
83 197
83 198
83 199
83 200
83 201
83 202
83 203
83 205
83 206
83 207
83 209
83 210
83 211
83 212
83 215
83 216
83 222
83 224
83 226
83 229
83 232
83 234
83 237
83 239
83 244
83 245
83 246
83 247
83 249
83 252
83 254
83 255
83 256
83 258
83 259
83 260
83 261
83 263
83 264
83 265
83 266
83 268
83 270
83 272
83 273
83 274
83 278
83 279
83 280
83 281
83 282
83 283
83 284
83 285
83 286
83 289
83 290
83 292
83 294
83 295
83 299
83 301
83 303
83 304
83 305
83 306
83 307
83 308
83 309
83 310
83 311
83 313
83 314
83 315
83 316
83 317
83 318
83 319
83 320
83 323
83 324
83 327
83 331
83 333
83 335
83 336
83 337
83 339
83 340
83 342
83 344
83 345
83 346
83 347
83 348
83 351
83 352
83 353
83 355
83 356
83 357
83 358
83 359
83 362
83 366
83 368
83 370
83 374
83 375
83 382
83 384
83 387
83 389
83 390
83 391
83 392
83 393
83 395
83 396
83 397
83 398
83 400
83 401
83 402
83 403
83 404
83 405
83 406
83 408
83 409
83 410
83 411
83 413
83 414
83 415
83 416
83 418
83 420
83 422
83 423
83 427
83 430
83 433
83 434
83 435
83 437
83 439
83 443
83 444
83 445
83 449
83 452
83 457
83 459
83 461
83 463
83 464
83 465
83 466
83 468
83 469
83 470
83 471
83 475
84 85
84 86
84 87
84 88
84 89
84 90
84 91
84 92
84 93
84 94
84 95
84 96
84 97
84 98
84 99
84 100
84 101
84 102
84 103
84 104
84 105
84 106
84 107
84 108
84 110
84 111
84 112
84 113
84 114
84 122
84 123
84 124
84 125
84 126
84 127
84 128
84 129
84 131
84 132
84 133
84 134
84 135
84 136
84 137
84 138
84 140
84 141
84 142
84 144
84 145
84 150
84 155
84 156
84 162
84 164
84 166
84 167
84 170
84 172
84 174
84 175
84 176
84 177
84 178
84 179
84 180
84 182
84 183
84 184
84 185
84 186
84 187
84 188
84 189
84 190
84 193
84 197
84 198
84 199
84 200
84 201
84 202
84 203
84 205
84 206
84 207
84 209
84 210
84 211
84 212
84 215
84 216
84 222
84 224
84 227
84 229
84 232
84 234
84 237
84 239
84 244
84 245
84 246
84 247
84 249
84 252
84 254
84 255
84 256
84 257
84 258
84 259
84 260
84 262
84 263
84 264
84 265
84 266
84 268
84 270
84 272
84 273
84 274
84 278
84 279
84 280
84 281
84 282
84 283
84 284
84 285
84 286
84 289
84 290
84 292
84 294
84 295
84 299
84 301
84 303
84 304
84 305
84 306
84 307
84 308
84 309
84 310
84 311
84 312
84 314
84 315
84 316
84 317
84 318
84 319
84 320
84 323
84 324
84 327
84 331
84 333
84 336
84 337
84 338
84 339
84 340
84 342
84 344
84 345
84 346
84 347
84 348
84 351
84 352
84 353
84 355
84 356
84 357
84 358
84 359
84 362
84 366
84 368
84 370
84 374
84 375
84 382
84 384
84 387
84 389
84 390
84 391
84 392
84 393
84 395
84 396
84 397
84 398
84 400
84 401
84 402
84 403
84 404
84 405
84 406
84 407
84 408
84 409
84 410
84 412
84 413
84 414
84 415
84 416
84 417
84 418
84 420
84 422
84 423
84 427
84 430
84 433
84 434
84 435
84 437
84 439
84 443
84 444
84 445
84 449
84 452
84 457
84 459
84 461
84 463
84 464
84 465
84 466
84 468
84 469
84 470
84 471
84 475
85 86
85 87
85 88
85 89
85 90
85 91
85 92
85 93
85 94
85 95
85 96
85 97
85 98
85 99
85 100
85 101
85 102
85 104
85 105
85 106
85 108
85 109
85 110
85 111
85 112
85 113
85 114
85 122
85 123
85 124
85 127
85 128
85 129
85 130
85 133
85 134
85 135
85 136
85 137
85 139
85 141
85 142
85 144
85 145
85 150
85 155
85 156
85 162
85 164
85 166
85 167
85 170
85 172
85 174
85 175
85 179
85 181
85 183
85 184
85 185
85 186
85 187
85 188
85 189
85 190
85 193
85 197
85 198
85 199
85 200
85 201
85 202
85 203
85 205
85 206
85 207
85 209
85 210
85 211
85 212
85 215
85 216
85 222
85 224
85 227
85 229
85 232
85 234
85 237
85 239
85 244
85 245
85 246
85 247
85 249
85 252
85 254
85 255
85 256
85 258
85 259
85 260
85 261
85 263
85 264
85 265
85 266
85 268
85 270
85 272
85 273
85 274
85 278
85 279
85 280
85 281
85 282
85 283
85 284
85 285
85 286
85 289
85 290
85 292
85 294
85 295
85 299
85 301
85 303
85 304
85 305
85 306
85 307
85 308
85 309
85 310
85 311
85 312
85 313
85 315
85 316
85 317
85 318
85 319
85 320
85 323
85 324
85 327
85 331
85 333
85 336
85 337
85 338
85 339
85 340
85 342
85 344
85 345
85 346
85 347
85 348
85 351
85 352
85 353
85 355
85 356
85 357
85 358
85 359
85 362
85 366
85 368
85 370
85 374
85 375
85 382
85 384
85 387
85 389
85 390
85 391
85 392
85 393
85 395
85 396
85 397
85 399
85 400
85 401
85 402
85 403
85 404
85 405
85 406
85 408
85 409
85 410
85 411
85 413
85 414
85 415
85 416
85 418
85 420
85 422
85 423
85 427
85 430
85 433
85 434
85 435
85 437
85 439
85 443
85 444
85 446
85 449
85 452
85 457
85 459
85 461
85 463
85 464
85 465
85 466
85 468
85 469
85 470
85 471
85 475
86 87
86 88
86 89
86 90
86 91
86 92
86 93
86 94
86 95
86 96
86 97
86 98
86 99
86 100
86 101
86 102
86 104
86 105
86 106
86 108
86 109
86 110
86 111
86 112
86 113
86 114
86 122
86 123
86 124
86 127
86 128
86 129
86 130
86 133
86 134
86 135
86 136
86 137
86 139
86 141
86 142
86 144
86 145
86 150
86 155
86 156
86 162
86 164
86 166
86 170
86 172
86 174
86 175
86 179
86 181
86 183
86 184
86 185
86 186
86 187
86 188
86 189
86 190
86 193
86 197
86 198
86 199
86 200
86 201
86 202
86 203
86 205
86 206
86 207
86 209
86 210
86 211
86 212
86 215
86 216
86 222
86 224
86 227
86 229
86 232
86 234
86 237
86 239
86 244
86 245
86 246
86 247
86 249
86 252
86 254
86 255
86 256
86 258
86 259
86 260
86 261
86 263
86 264
86 265
86 266
86 268
86 270
86 272
86 273
86 274
86 278
86 279
86 280
86 281
86 282
86 283
86 284
86 285
86 286
86 289
86 290
86 292
86 294
86 295
86 299
86 301
86 303
86 304
86 305
86 306
86 307
86 308
86 309
86 310
86 311
86 312
86 313
86 314
86 315
86 316
86 317
86 318
86 319
86 320
86 323
86 324
86 327
86 331
86 333
86 336
86 337
86 338
86 339
86 340
86 342
86 344
86 345
86 346
86 347
86 348
86 351
86 352
86 353
86 355
86 356
86 357
86 358
86 359
86 362
86 366
86 368
86 370
86 374
86 375
86 382
86 384
86 387
86 389
86 390
86 391
86 392
86 393
86 395
86 396
86 397
86 398
86 400
86 401
86 402
86 403
86 404
86 405
86 406
86 408
86 409
86 410
86 411
86 413
86 414
86 415
86 416
86 418
86 420
86 422
86 423
86 427
86 430
86 433
86 434
86 435
86 437
86 439
86 443
86 444
86 445
86 449
86 452
86 457
86 459
86 461
86 463
86 464
86 465
86 466
86 468
86 469
86 470
86 471
86 475
87 88
87 89
87 90
87 91
87 92
87 93
87 94
87 95
87 96
87 97
87 98
87 99
87 100
87 101
87 102
87 104
87 105
87 106
87 108
87 109
87 110
87 111
87 112
87 113
87 114
87 122
87 123
87 124
87 125
87 126
87 127
87 128
87 129
87 130
87 131
87 132
87 134
87 135
87 136
87 137
87 138
87 139
87 141
87 142
87 144
87 145
87 150
87 155
87 156
87 162
87 164
87 166
87 167
87 170
87 172
87 174
87 175
87 176
87 177
87 178
87 179
87 180
87 181
87 182
87 184
87 185
87 186
87 187
87 188
87 189
87 190
87 193
87 197
87 198
87 199
87 200
87 201
87 202
87 203
87 204
87 205
87 206
87 207
87 208
87 210
87 211
87 212
87 215
87 216
87 222
87 224
87 227
87 228
87 229
87 230
87 231
87 232
87 233
87 234
87 235
87 236
87 237
87 238
87 239
87 240
87 241
87 242
87 243
87 245
87 246
87 247
87 248
87 249
87 250
87 252
87 254
87 255
87 256
87 257
87 258
87 259
87 260
87 261
87 262
87 264
87 265
87 266
87 268
87 270
87 272
87 273
87 274
87 278
87 279
87 280
87 281
87 282
87 283
87 284
87 285
87 286
87 289
87 290
87 292
87 294
87 295
87 299
87 301
87 303
87 304
87 305
87 306
87 307
87 308
87 309
87 310
87 311
87 312
87 313
87 314
87 316
87 317
87 318
87 319
87 320
87 323
87 324
87 327
87 331
87 333
87 336
87 337
87 338
87 339
87 340
87 341
87 342
87 343
87 345
87 346
87 347
87 348
87 351
87 352
87 353
87 355
87 356
87 357
87 358
87 359
87 362
87 366
87 368
87 370
87 374
87 375
87 382
87 384
87 387
87 389
87 390
87 391
87 392
87 393
87 395
87 396
87 397
87 398
87 400
87 401
87 402
87 403
87 404
87 405
87 406
87 407
87 408
87 409
87 410
87 411
87 412
87 414
87 415
87 416
87 417
87 418
87 420
87 422
87 423
87 427
87 430
87 433
87 434
87 435
87 437
87 439
87 443
87 444
87 445
87 449
87 452
87 457
87 459
87 461
87 463
87 464
87 465
87 466
87 468
87 469
87 470
87 471
87 475
88 89
88 90
88 91
88 92
88 93
88 94
88 95
88 96
88 97
88 98
88 99
88 100
88 101
88 102
88 103
88 104
88 105
88 106
88 107
88 108
88 109
88 111
88 112
88 113
88 114
88 122
88 123
88 124
88 125
88 126
88 127
88 128
88 129
88 130
88 131
88 132
88 133
88 135
88 136
88 137
88 138
88 139
88 141
88 142
88 144
88 145
88 150
88 155
88 156
88 162
88 164
88 166
88 167
88 170
88 171
88 173
88 174
88 175
88 176
88 177
88 178
88 179
88 180
88 181
88 182
88 183
88 185
88 186
88 187
88 188
88 189
88 190
88 193
88 197
88 198
88 199
88 200
88 201
88 202
88 203
88 204
88 205
88 206
88 207
88 208
88 209
88 211
88 212
88 215
88 216
88 222
88 224
88 227
88 228
88 229
88 230
88 231
88 232
88 233
88 234
88 235
88 236
88 237
88 238
88 239
88 240
88 241
88 242
88 243
88 244
88 246
88 247
88 248
88 249
88 250
88 252
88 254
88 255
88 256
88 257
88 258
88 259
88 260
88 261
88 262
88 263
88 265
88 266
88 268
88 270
88 272
88 273
88 274
88 278
88 279
88 280
88 281
88 282
88 283
88 284
88 285
88 286
88 289
88 290
88 292
88 294
88 295
88 299
88 301
88 303
88 304
88 305
88 306
88 307
88 308
88 309
88 310
88 311
88 312
88 313
88 314
88 315
88 317
88 318
88 319
88 320
88 323
88 324
88 327
88 331
88 333
88 336
88 337
88 338
88 339
88 340
88 341
88 342
88 343
88 344
88 346
88 347
88 348
88 351
88 352
88 353
88 355
88 356
88 357
88 358
88 359
88 362
88 366
88 368
88 370
88 374
88 375
88 382
88 384
88 386
88 389
88 390
88 391
88 392
88 393
88 395
88 396
88 397
88 398
88 400
88 401
88 402
88 403
88 404
88 405
88 406
88 407
88 408
88 409
88 410
88 411
88 412
88 413
88 415
88 416
88 417
88 418
88 420
88 421
88 422
88 423
88 424
88 425
88 426
88 427
88 428
88 429
88 430
88 431
88 432
88 434
88 435
88 436
88 437
88 438
88 439
88 440
88 443
88 444
88 445
88 449
88 452
88 457
88 459
88 461
88 463
88 464
88 465
88 466
88 468
88 469
88 470
88 471
88 475
89 90
89 91
89 92
89 93
89 94
89 95
89 96
89 97
89 98
89 99
89 100
89 101
89 102
89 104
89 105
89 106
89 108
89 109
89 110
89 111
89 112
89 113
89 114
89 122
89 123
89 124
89 125
89 126
89 127
89 128
89 129
89 130
89 131
89 132
89 133
89 134
89 136
89 137
89 138
89 139
89 141
89 142
89 144
89 145
89 150
89 155
89 156
89 162
89 164
89 166
89 167
89 170
89 172
89 174
89 175
89 176
89 177
89 178
89 179
89 180
89 181
89 182
89 183
89 184
89 186
89 187
89 188
89 189
89 190
89 193
89 197
89 198
89 199
89 200
89 201
89 202
89 203
89 204
89 205
89 206
89 207
89 208
89 209
89 210
89 212
89 215
89 216
89 222
89 224
89 227
89 228
89 229
89 230
89 231
89 232
89 233
89 234
89 235
89 236
89 237
89 238
89 239
89 240
89 241
89 242
89 243
89 244
89 245
89 247
89 248
89 249
89 250
89 252
89 254
89 255
89 256
89 257
89 258
89 259
89 260
89 261
89 262
89 263
89 264
89 266
89 268
89 270
89 272
89 273
89 274
89 278
89 279
89 280
89 281
89 282
89 283
89 284
89 285
89 286
89 289
89 290
89 292
89 294
89 295
89 299
89 301
89 303
89 304
89 305
89 306
89 307
89 308
89 309
89 310
89 311
89 312
89 313
89 314
89 315
89 316
89 318
89 319
89 320
89 323
89 324
89 327
89 331
89 333
89 336
89 337
89 338
89 339
89 340
89 341
89 342
89 343
89 344
89 345
89 347
89 348
89 351
89 352
89 353
89 355
89 356
89 357
89 358
89 359
89 362
89 366
89 368
89 370
89 374
89 375
89 382
89 384
89 387
89 389
89 390
89 391
89 392
89 393
89 395
89 396
89 397
89 398
89 400
89 401
89 402
89 403
89 404
89 405
89 406
89 407
89 408
89 409
89 410
89 411
89 412
89 413
89 414
89 416
89 417
89 418
89 420
89 422
89 423
89 427
89 430
89 433
89 434
89 435
89 437
89 439
89 443
89 444
89 445
89 449
89 452
89 457
89 459
89 461
89 463
89 464
89 465
89 466
89 468
89 469
89 470
89 471
89 475
90 91
90 92
90 93
90 94
90 95
90 96
90 97
90 98
90 99
90 100
90 101
90 102
90 103
90 104
90 105
90 106
90 107
90 108
90 109
90 110
90 112
90 113
90 114
90 122
90 123
90 124
90 125
90 126
90 127
90 128
90 129
90 130
90 131
90 132
90 133
90 134
90 135
90 137
90 138
90 139
90 141
90 142
90 144
90 145
90 146
90 147
90 148
90 149
90 151
90 152
90 153
90 155
90 156
90 162
90 164
90 166
90 167
90 170
90 172
90 174
90 175
90 179
90 181
90 183
90 184
90 185
90 186
90 187
90 188
90 189
90 190
90 193
90 197
90 198
90 199
90 200
90 202
90 203
90 205
90 206
90 207
90 209
90 210
90 211
90 212
90 215
90 216
90 222
90 224
90 227
90 229
90 232
90 234
90 237
90 239
90 244
90 245
90 246
90 247
90 249
90 252
90 254
90 255
90 256
90 258
90 259
90 260
90 261
90 263
90 264
90 265
90 266
90 267
90 268
90 269
90 270
90 271
90 273
90 274
90 278
90 279
90 280
90 281
90 282
90 283
90 284
90 285
90 286
90 289
90 290
90 292
90 294
90 295
90 299
90 301
90 303
90 304
90 305
90 306
90 307
90 308
90 309
90 310
90 311
90 312
90 313
90 314
90 315
90 316
90 317
90 319
90 320
90 323
90 324
90 327
90 331
90 333
90 336
90 337
90 338
90 339
90 340
90 342
90 344
90 345
90 346
90 347
90 348
90 349
90 350
90 351
90 352
90 354
90 355
90 356
90 357
90 358
90 362
90 366
90 368
90 370
90 374
90 375
90 382
90 384
90 387
90 389
90 390
90 391
90 392
90 393
90 395
90 396
90 397
90 398
90 400
90 401
90 402
90 403
90 404
90 405
90 406
90 407
90 408
90 409
90 410
90 411
90 412
90 413
90 414
90 415
90 417
90 418
90 420
90 421
90 422
90 423
90 424
90 425
90 426
90 427
90 428
90 429
90 430
90 431
90 432
90 433
90 435
90 436
90 437
90 438
90 439
90 440
90 443
90 444
90 445
90 449
90 452
90 457
90 459
90 461
90 463
90 464
90 465
90 466
90 467
90 468
90 470
90 471
90 475
91 92
91 93
91 94
91 95
91 96
91 97
91 98
91 99
91 100
91 101
91 102
91 104
91 105
91 106
91 108
91 109
91 110
91 111
91 112
91 113
91 114
91 122
91 123
91 124
91 127
91 128
91 129
91 130
91 133
91 134
91 135
91 136
91 137
91 139
91 141
91 142
91 144
91 145
91 150
91 155
91 156
91 162
91 164
91 166
91 167
91 170
91 172
91 174
91 175
91 179
91 181
91 183
91 184
91 185
91 186
91 187
91 188
91 189
91 190
91 193
91 197
91 198
91 199
91 200
91 201
91 202
91 203
91 205
91 206
91 207
91 209
91 210
91 211
91 212
91 215
91 216
91 222
91 224
91 227
91 229
91 232
91 234
91 237
91 239
91 244
91 245
91 246
91 247
91 249
91 252
91 254
91 255
91 256
91 258
91 259
91 260
91 261
91 263
91 264
91 265
91 266
91 268
91 270
91 272
91 273
91 274
91 278
91 279
91 280
91 281
91 282
91 283
91 284
91 285
91 286
91 289
91 290
91 292
91 294
91 295
91 299
91 301
91 303
91 304
91 305
91 306
91 307
91 308
91 309
91 310
91 311
91 312
91 313
91 314
91 315
91 316
91 317
91 318
91 319
91 320
91 323
91 324
91 327
91 331
91 333
91 336
91 337
91 338
91 339
91 340
91 342
91 344
91 345
91 346
91 347
91 348
91 351
91 352
91 353
91 355
91 356
91 357
91 358
91 359
91 362
91 366
91 368
91 370
91 374
91 375
91 382
91 384
91 387
91 389
91 390
91 391
91 392
91 393
91 395
91 396
91 397
91 398
91 400
91 401
91 402
91 403
91 404
91 405
91 406
91 408
91 409
91 410
91 411
91 413
91 414
91 415
91 416
91 418
91 420
91 422
91 423
91 427
91 430
91 433
91 434
91 435
91 437
91 439
91 443
91 444
91 445
91 449
91 452
91 457
91 459
91 461
91 463
91 464
91 466
91 468
91 469
91 470
91 471
91 475
92 93
92 94
92 95
92 96
92 97
92 98
92 99
92 100
92 101
92 102
92 104
92 105
92 106
92 108
92 109
92 110
92 111
92 112
92 113
92 114
92 122
92 123
92 124
92 127
92 128
92 129
92 130
92 133
92 134
92 135
92 136
92 137
92 139
92 141
92 142
92 144
92 145
92 150
92 155
92 156
92 162
92 164
92 166
92 167
92 170
92 172
92 174
92 175
92 179
92 181
92 183
92 184
92 185
92 186
92 187
92 188
92 189
92 190
92 193
92 197
92 198
92 199
92 200
92 201
92 202
92 203
92 205
92 206
92 207
92 209
92 210
92 211
92 212
92 215
92 216
92 222
92 224
92 227
92 229
92 232
92 234
92 237
92 239
92 244
92 245
92 246
92 247
92 249
92 252
92 254
92 255
92 256
92 258
92 259
92 260
92 261
92 263
92 264
92 265
92 266
92 268
92 270
92 272
92 273
92 274
92 278
92 279
92 280
92 281
92 282
92 283
92 284
92 285
92 286
92 289
92 290
92 292
92 294
92 295
92 299
92 301
92 303
92 304
92 305
92 306
92 307
92 308
92 309
92 310
92 311
92 312
92 313
92 314
92 315
92 316
92 317
92 318
92 319
92 320
92 323
92 324
92 327
92 331
92 333
92 336
92 337
92 338
92 339
92 340
92 342
92 344
92 345
92 346
92 347
92 348
92 351
92 352
92 353
92 355
92 356
92 357
92 358
92 359
92 362
92 366
92 368
92 370
92 374
92 375
92 382
92 384
92 387
92 389
92 390
92 391
92 392
92 393
92 395
92 396
92 397
92 398
92 400
92 402
92 403
92 404
92 405
92 406
92 408
92 409
92 410
92 411
92 413
92 414
92 415
92 416
92 418
92 420
92 422
92 423
92 427
92 430
92 433
92 434
92 435
92 437
92 439
92 443
92 444
92 445
92 449
92 452
92 457
92 459
92 461
92 463
92 464
92 465
92 466
92 468
92 469
92 470
92 471
92 475
93 94
93 95
93 96
93 97
93 98
93 99
93 100
93 101
93 102
93 104
93 105
93 106
93 108
93 109
93 110
93 111
93 112
93 113
93 114
93 122
93 123
93 124
93 127
93 128
93 129
93 130
93 133
93 134
93 135
93 136
93 137
93 139
93 141
93 142
93 144
93 145
93 150
93 155
93 156
93 162
93 164
93 166
93 167
93 170
93 172
93 174
93 175
93 179
93 181
93 183
93 184
93 185
93 186
93 188
93 189
93 190
93 193
93 197
93 198
93 199
93 200
93 201
93 202
93 203
93 205
93 206
93 207
93 209
93 210
93 211
93 212
93 215
93 216
93 222
93 224
93 227
93 229
93 232
93 234
93 237
93 239
93 244
93 245
93 246
93 247
93 249
93 252
93 254
93 255
93 256
93 258
93 259
93 260
93 261
93 263
93 264
93 265
93 266
93 268
93 270
93 272
93 273
93 274
93 278
93 279
93 280
93 281
93 282
93 283
93 284
93 285
93 286
93 289
93 290
93 292
93 294
93 295
93 299
93 301
93 303
93 304
93 305
93 306
93 307
93 308
93 309
93 310
93 311
93 312
93 313
93 314
93 315
93 316
93 317
93 318
93 319
93 320
93 323
93 324
93 327
93 331
93 333
93 336
93 337
93 338
93 339
93 340
93 342
93 344
93 345
93 346
93 347
93 348
93 351
93 352
93 353
93 355
93 356
93 357
93 358
93 359
93 362
93 366
93 368
93 370
93 374
93 375
93 382
93 384
93 387
93 389
93 390
93 391
93 392
93 393
93 395
93 396
93 397
93 398
93 400
93 401
93 402
93 403
93 404
93 405
93 406
93 408
93 409
93 410
93 411
93 413
93 414
93 415
93 416
93 418
93 420
93 422
93 423
93 427
93 430
93 433
93 434
93 435
93 437
93 439
93 443
93 444
93 445
93 449
93 452
93 457
93 459
93 461
93 463
93 464
93 465
93 466
93 468
93 469
93 470
93 471
93 475
94 95
94 96
94 97
94 98
94 99
94 100
94 101
94 102
94 103
94 104
94 105
94 106
94 107
94 108
94 109
94 110
94 111
94 113
94 114
94 122
94 123
94 124
94 127
94 128
94 129
94 130
94 133
94 134
94 135
94 136
94 137
94 139
94 141
94 142
94 144
94 145
94 150
94 155
94 156
94 162
94 164
94 166
94 167
94 170
94 172
94 174
94 175
94 179
94 181
94 183
94 184
94 185
94 186
94 187
94 188
94 189
94 190
94 193
94 197
94 198
94 199
94 200
94 201
94 203
94 205
94 206
94 207
94 209
94 210
94 211
94 212
94 215
94 216
94 222
94 224
94 227
94 229
94 232
94 234
94 237
94 239
94 244
94 245
94 246
94 247
94 249
94 252
94 254
94 255
94 256
94 258
94 259
94 260
94 261
94 263
94 264
94 265
94 266
94 268
94 270
94 272
94 273
94 274
94 278
94 279
94 280
94 281
94 282
94 283
94 284
94 285
94 286
94 289
94 290
94 292
94 294
94 295
94 299
94 301
94 303
94 304
94 305
94 306
94 307
94 308
94 309
94 310
94 311
94 312
94 313
94 314
94 315
94 316
94 317
94 318
94 320
94 323
94 324
94 327
94 331
94 333
94 336
94 337
94 338
94 339
94 340
94 342
94 344
94 345
94 346
94 347
94 348
94 351
94 352
94 353
94 355
94 356
94 357
94 358
94 359
94 362
94 366
94 368
94 370
94 374
94 375
94 382
94 384
94 387
94 389
94 390
94 391
94 392
94 393
94 395
94 396
94 397
94 398
94 400
94 401
94 402
94 403
94 404
94 405
94 406
94 408
94 409
94 410
94 411
94 413
94 414
94 415
94 416
94 418
94 420
94 422
94 423
94 427
94 430
94 433
94 434
94 435
94 437
94 439
94 443
94 444
94 445
94 449
94 452
94 457
94 459
94 461
94 463
94 464
94 465
94 466
94 468
94 469
94 470
94 471
94 475
95 96
95 97
95 98
95 99
95 100
95 101
95 102
95 104
95 105
95 106
95 108
95 109
95 110
95 111
95 112
95 113
95 114
95 122
95 123
95 124
95 127
95 128
95 129
95 130
95 133
95 134
95 135
95 136
95 137
95 139
95 141
95 142
95 144
95 145
95 150
95 154
95 155
95 156
95 157
95 158
95 159
95 160
95 161
95 163
95 164
95 165
95 166
95 167
95 170
95 172
95 174
95 175
95 179
95 181
95 183
95 184
95 185
95 186
95 187
95 188
95 189
95 190
95 191
95 192
95 193
95 194
95 195
95 196
95 198
95 199
95 200
95 201
95 202
95 203
95 205
95 206
95 207
95 209
95 210
95 211
95 212
95 213
95 214
95 215
95 216
95 217
95 218
95 219
95 220
95 221
95 223
95 224
95 225
95 227
95 228
95 229
95 230
95 231
95 232
95 233
95 234
95 235
95 236
95 237
95 238
95 239
95 240
95 241
95 242
95 243
95 244
95 245
95 246
95 248
95 249
95 250
95 252
95 254
95 255
95 256
95 258
95 259
95 260
95 261
95 263
95 264
95 265
95 266
95 268
95 270
95 272
95 273
95 274
95 278
95 279
95 280
95 281
95 282
95 283
95 284
95 285
95 286
95 287
95 288
95 289
95 290
95 291
95 292
95 293
95 294
95 295
95 296
95 297
95 298
95 300
95 301
95 302
95 303
95 304
95 305
95 306
95 307
95 308
95 309
95 310
95 311
95 312
95 313
95 314
95 315
95 316
95 317
95 318
95 319
95 320
95 321
95 322
95 323
95 324
95 325
95 326
95 327
95 328
95 329
95 330
95 332
95 333
95 334
95 336
95 337
95 338
95 339
95 340
95 342
95 344
95 345
95 346
95 347
95 348
95 351
95 352
95 353
95 355
95 356
95 357
95 358
95 359
95 360
95 361
95 362
95 363
95 364
95 365
95 367
95 368
95 369
95 370
95 372
95 373
95 374
95 375
95 376
95 377
95 378
95 379
95 380
95 381
95 383
95 384
95 385
95 387
95 389
95 390
95 391
95 392
95 393
95 395
95 396
95 397
95 398
95 400
95 401
95 402
95 403
95 404
95 405
95 406
95 408
95 409
95 410
95 411
95 413
95 414
95 415
95 416
95 418
95 420
95 421
95 422
95 423
95 424
95 425
95 426
95 427
95 428
95 429
95 430
95 431
95 432
95 433
95 434
95 436
95 437
95 438
95 439
95 440
95 443
95 444
95 445
95 449
95 450
95 451
95 452
95 453
95 454
95 455
95 456
95 458
95 459
95 460
95 461
95 463
95 464
95 465
95 466
95 468
95 469
95 470
95 471
95 475
96 97
96 98
96 99
96 100
96 101
96 102
96 104
96 105
96 106
96 108
96 109
96 110
96 111
96 112
96 113
96 114
96 122
96 123
96 124
96 127
96 128
96 129
96 130
96 133
96 134
96 135
96 136
96 137
96 139
96 141
96 142
96 144
96 145
96 150
96 155
96 156
96 162
96 164
96 166
96 167
96 170
96 172
96 174
96 175
96 179
96 181
96 183
96 184
96 185
96 186
96 187
96 188
96 189
96 190
96 193
96 197
96 198
96 199
96 200
96 201
96 202
96 203
96 205
96 206
96 207
96 209
96 210
96 211
96 212
96 215
96 216
96 222
96 224
96 227
96 229
96 232
96 234
96 237
96 239
96 244
96 245
96 246
96 247
96 249
96 252
96 254
96 255
96 256
96 258
96 259
96 260
96 261
96 263
96 264
96 265
96 266
96 268
96 270
96 272
96 273
96 274
96 278
96 279
96 280
96 281
96 282
96 283
96 284
96 285
96 286
96 289
96 290
96 292
96 294
96 295
96 299
96 301
96 303
96 304
96 305
96 306
96 307
96 308
96 309
96 310
96 311
96 312
96 313
96 314
96 315
96 316
96 317
96 318
96 319
96 320
96 323
96 324
96 327
96 331
96 333
96 336
96 337
96 338
96 339
96 340
96 342
96 344
96 345
96 346
96 347
96 348
96 351
96 352
96 353
96 355
96 356
96 357
96 358
96 359
96 362
96 366
96 368
96 370
96 374
96 375
96 382
96 384
96 387
96 389
96 390
96 391
96 392
96 393
96 395
96 396
96 397
96 398
96 400
96 401
96 402
96 404
96 405
96 406
96 408
96 409
96 410
96 411
96 413
96 414
96 415
96 416
96 418
96 420
96 422
96 423
96 427
96 430
96 433
96 434
96 435
96 437
96 439
96 443
96 444
96 445
96 449
96 452
96 457
96 459
96 461
96 463
96 464
96 465
96 466
96 468
96 469
96 470
96 471
96 475
97 98
97 99
97 100
97 101
97 102
97 104
97 105
97 106
97 108
97 109
97 110
97 111
97 112
97 113
97 114
97 122
97 123
97 124
97 127
97 128
97 129
97 130
97 133
97 134
97 135
97 136
97 137
97 139
97 141
97 142
97 144
97 145
97 150
97 155
97 156
97 162
97 164
97 166
97 167
97 170
97 172
97 174
97 175
97 179
97 181
97 183
97 184
97 185
97 186
97 187
97 188
97 189
97 190
97 193
97 197
97 198
97 199
97 200
97 201
97 202
97 203
97 205
97 206
97 207
97 209
97 210
97 211
97 212
97 215
97 216
97 222
97 224
97 227
97 229
97 232
97 234
97 237
97 239
97 244
97 245
97 246
97 247
97 249
97 252
97 254
97 255
97 256
97 258
97 259
97 260
97 261
97 263
97 264
97 265
97 266
97 268
97 270
97 272
97 273
97 274
97 278
97 279
97 280
97 281
97 282
97 283
97 284
97 285
97 286
97 289
97 290
97 292
97 294
97 295
97 299
97 301
97 303
97 304
97 305
97 306
97 307
97 308
97 309
97 310
97 311
97 312
97 313
97 314
97 315
97 316
97 317
97 318
97 319
97 320
97 323
97 324
97 327
97 331
97 333
97 336
97 337
97 338
97 339
97 340
97 342
97 344
97 345
97 346
97 347
97 348
97 351
97 352
97 353
97 355
97 356
97 357
97 358
97 359
97 362
97 366
97 368
97 370
97 374
97 375
97 382
97 384
97 387
97 389
97 390
97 391
97 392
97 393
97 395
97 396
97 397
97 398
97 400
97 401
97 402
97 403
97 404
97 406
97 408
97 409
97 410
97 411
97 413
97 414
97 415
97 416
97 418
97 420
97 422
97 423
97 427
97 430
97 433
97 434
97 435
97 437
97 439
97 443
97 444
97 445
97 449
97 452
97 457
97 459
97 461
97 463
97 464
97 465
97 466
97 468
97 469
97 470
97 471
97 475
98 99
98 100
98 101
98 102
98 104
98 105
98 106
98 108
98 109
98 110
98 111
98 112
98 113
98 114
98 122
98 123
98 124
98 125
98 126
98 127
98 128
98 129
98 130
98 131
98 132
98 133
98 134
98 135
98 136
98 138
98 139
98 141
98 142
98 144
98 145
98 150
98 154
98 155
98 156
98 157
98 158
98 159
98 160
98 161
98 162
98 163
98 165
98 166
98 167
98 170
98 172
98 174
98 175
98 179
98 181
98 183
98 184
98 185
98 186
98 187
98 188
98 189
98 190
98 191
98 192
98 193
98 194
98 195
98 196
98 197
98 199
98 200
98 201
98 202
98 203
98 204
98 205
98 206
98 207
98 208
98 209
98 210
98 211
98 213
98 214
98 215
98 216
98 217
98 218
98 219
98 220
98 221
98 222
98 223
98 225
98 227
98 228
98 229
98 230
98 231
98 232
98 233
98 234
98 235
98 236
98 237
98 238
98 239
98 240
98 241
98 242
98 243
98 244
98 245
98 246
98 247
98 248
98 250
98 252
98 254
98 255
98 256
98 258
98 259
98 260
98 261
98 263
98 264
98 265
98 266
98 268
98 270
98 272
98 273
98 274
98 278
98 279
98 280
98 281
98 282
98 283
98 284
98 285
98 286
98 287
98 288
98 289
98 290
98 291
98 292
98 293
98 294
98 295
98 296
98 297
98 298
98 299
98 300
98 302
98 303
98 304
98 305
98 306
98 307
98 308
98 309
98 310
98 311
98 312
98 313
98 314
98 315
98 316
98 317
98 318
98 319
98 321
98 322
98 323
98 324
98 325
98 326
98 327
98 328
98 329
98 330
98 331
98 332
98 334
98 336
98 337
98 338
98 339
98 340
98 341
98 342
98 343
98 344
98 345
98 346
98 348
98 351
98 352
98 353
98 355
98 356
98 357
98 358
98 359
98 360
98 361
98 362
98 363
98 364
98 365
98 366
98 367
98 369
98 370
98 372
98 373
98 374
98 375
98 376
98 377
98 378
98 379
98 380
98 381
98 382
98 383
98 385
98 387
98 389
98 390
98 391
98 392
98 393
98 395
98 396
98 397
98 398
98 400
98 401
98 402
98 403
98 404
98 405
98 406
98 408
98 409
98 410
98 411
98 413
98 414
98 415
98 416
98 418
98 420
98 421
98 422
98 423
98 424
98 425
98 426
98 427
98 428
98 429
98 430
98 431
98 432
98 433
98 434
98 435
98 436
98 438
98 439
98 440
98 441
98 442
98 444
98 445
98 447
98 448
98 450
98 451
98 452
98 453
98 454
98 455
98 456
98 457
98 458
98 460
98 461
98 463
98 464
98 465
98 466
98 468
98 469
98 470
98 471
98 475
99 100
99 101
99 102
99 104
99 105
99 106
99 108
99 109
99 110
99 111
99 112
99 113
99 114
99 122
99 123
99 124
99 127
99 128
99 129
99 130
99 133
99 134
99 135
99 136
99 137
99 139
99 141
99 142
99 144
99 145
99 150
99 155
99 156
99 162
99 164
99 166
99 167
99 170
99 172
99 174
99 175
99 179
99 181
99 183
99 184
99 185
99 186
99 187
99 188
99 189
99 190
99 193
99 197
99 198
99 199
99 200
99 201
99 202
99 203
99 205
99 206
99 207
99 209
99 210
99 211
99 212
99 215
99 216
99 222
99 224
99 227
99 229
99 232
99 234
99 237
99 239
99 244
99 245
99 246
99 247
99 249
99 252
99 254
99 255
99 256
99 258
99 259
99 260
99 261
99 263
99 264
99 265
99 266
99 268
99 270
99 272
99 273
99 274
99 278
99 279
99 280
99 281
99 282
99 283
99 284
99 285
99 286
99 289
99 290
99 292
99 294
99 295
99 299
99 301
99 303
99 304
99 305
99 306
99 307
99 308
99 309
99 310
99 311
99 312
99 313
99 314
99 315
99 316
99 317
99 318
99 319
99 320
99 323
99 324
99 327
99 331
99 333
99 336
99 337
99 338
99 339
99 340
99 342
99 344
99 345
99 346
99 347
99 348
99 351
99 352
99 353
99 355
99 356
99 357
99 358
99 359
99 362
99 366
99 368
99 370
99 374
99 375
99 382
99 384
99 387
99 389
99 390
99 391
99 393
99 395
99 396
99 397
99 398
99 400
99 401
99 402
99 403
99 404
99 405
99 406
99 408
99 409
99 410
99 411
99 413
99 414
99 415
99 416
99 418
99 420
99 422
99 423
99 427
99 430
99 433
99 434
99 435
99 437
99 439
99 443
99 444
99 445
99 449
99 452
99 457
99 459
99 461
99 463
99 464
99 465
99 466
99 468
99 469
99 470
99 471
99 475
100 101
100 102
100 103
100 104
100 105
100 106
100 107
100 108
100 109
100 110
100 111
100 112
100 114
100 122
100 123
100 124
100 127
100 128
100 129
100 130
100 133
100 134
100 135
100 136
100 137
100 139
100 140
100 142
100 144
100 145
100 150
100 155
100 156
100 162
100 164
100 166
100 167
100 170
100 172
100 174
100 175
100 179
100 181
100 183
100 184
100 185
100 186
100 187
100 188
100 189
100 190
100 193
100 197
100 198
100 199
100 200
100 201
100 202
100 203
100 205
100 206
100 207
100 209
100 210
100 211
100 212
100 215
100 216
100 222
100 224
100 227
100 229
100 232
100 234
100 237
100 239
100 244
100 245
100 246
100 247
100 249
100 252
100 254
100 255
100 256
100 258
100 259
100 260
100 261
100 263
100 264
100 265
100 266
100 267
100 268
100 269
100 270
100 271
100 272
100 274
100 278
100 279
100 280
100 281
100 282
100 283
100 284
100 285
100 286
100 289
100 290
100 292
100 294
100 295
100 299
100 301
100 303
100 304
100 305
100 306
100 307
100 308
100 309
100 310
100 311
100 312
100 313
100 314
100 315
100 316
100 317
100 318
100 319
100 320
100 323
100 324
100 327
100 331
100 333
100 336
100 337
100 338
100 339
100 340
100 342
100 344
100 345
100 346
100 347
100 348
100 349
100 350
100 351
100 352
100 353
100 354
100 356
100 357
100 358
100 359
100 362
100 366
100 368
100 370
100 374
100 375
100 382
100 384
100 387
100 389
100 390
100 391
100 392
100 393
100 395
100 396
100 397
100 398
100 400
100 401
100 402
100 403
100 404
100 405
100 406
100 408
100 409
100 410
100 411
100 413
100 414
100 415
100 416
100 418
100 419
100 421
100 422
100 423
100 424
100 425
100 426
100 427
100 428
100 429
100 430
100 431
100 432
100 433
100 434
100 435
100 436
100 437
100 438
100 440
100 443
100 444
100 445
100 449
100 452
100 457
100 459
100 461
100 463
100 464
100 465
100 466
100 467
100 468
100 469
100 471
100 475
101 102
101 104
101 105
101 106
101 108
101 109
101 110
101 111
101 112
101 113
101 114
101 122
101 123
101 124
101 127
101 128
101 129
101 130
101 133
101 134
101 135
101 136
101 137
101 139
101 141
101 142
101 144
101 145
101 150
101 155
101 156
101 162
101 164
101 166
101 167
101 170
101 172
101 174
101 175
101 179
101 181
101 183
101 184
101 185
101 186
101 187
101 188
101 189
101 193
101 197
101 198
101 199
101 200
101 201
101 202
101 203
101 205
101 206
101 207
101 209
101 210
101 211
101 212
101 215
101 216
101 222
101 224
101 227
101 229
101 232
101 234
101 237
101 239
101 244
101 245
101 246
101 247
101 249
101 252
101 254
101 255
101 256
101 258
101 259
101 260
101 261
101 263
101 264
101 265
101 266
101 268
101 270
101 272
101 273
101 274
101 278
101 279
101 280
101 281
101 282
101 283
101 284
101 285
101 286
101 289
101 290
101 292
101 294
101 295
101 299
101 301
101 303
101 304
101 305
101 306
101 307
101 308
101 309
101 310
101 311
101 312
101 313
101 314
101 315
101 316
101 317
101 318
101 319
101 320
101 323
101 324
101 327
101 331
101 333
101 335
101 336
101 337
101 338
101 340
101 342
101 344
101 345
101 346
101 347
101 348
101 351
101 352
101 353
101 355
101 356
101 357
101 358
101 359
101 362
101 366
101 368
101 370
101 374
101 375
101 382
101 384
101 387
101 389
101 390
101 391
101 392
101 393
101 395
101 396
101 397
101 398
101 400
101 401
101 402
101 403
101 404
101 405
101 406
101 408
101 409
101 410
101 411
101 413
101 414
101 415
101 416
101 418
101 420
101 422
101 423
101 427
101 430
101 433
101 434
101 435
101 437
101 439
101 443
101 444
101 445
101 449
101 452
101 457
101 459
101 461
101 463
101 464
101 465
101 466
101 468
101 469
101 470
101 471
101 475
102 103
102 104
102 105
102 106
102 107
102 108
102 109
102 110
102 111
102 112
102 113
102 117
102 122
102 123
102 125
102 126
102 127
102 128
102 129
102 130
102 131
102 132
102 133
102 134
102 135
102 136
102 137
102 138
102 139
102 141
102 144
102 146
102 147
102 148
102 149
102 150
102 151
102 152
102 153
102 154
102 155
102 157
102 158
102 159
102 160
102 161
102 162
102 163
102 164
102 165
102 166
102 171
102 172
102 173
102 174
102 176
102 177
102 178
102 179
102 180
102 181
102 182
102 183
102 184
102 185
102 186
102 188
102 199
102 200
102 201
102 202
102 205
102 207
102 210
102 213
102 214
102 215
102 217
102 218
102 219
102 220
102 221
102 222
102 223
102 224
102 225
102 228
102 229
102 230
102 231
102 232
102 233
102 235
102 236
102 237
102 238
102 239
102 240
102 241
102 242
102 243
102 244
102 245
102 246
102 247
102 248
102 249
102 250
102 258
102 260
102 261
102 264
102 267
102 268
102 269
102 270
102 271
102 272
102 273
102 274
102 284
102 285
102 287
102 288
102 289
102 291
102 292
102 293
102 294
102 295
102 296
102 297
102 298
102 299
102 300
102 301
102 302
102 307
102 308
102 311
102 313
102 316
102 318
102 319
102 321
102 322
102 323
102 325
102 326
102 327
102 328
102 329
102 330
102 331
102 332
102 333
102 334
102 336
102 337
102 345
102 349
102 350
102 351
102 352
102 353
102 354
102 355
102 356
102 357
102 358
102 359
102 372
102 373
102 374
102 376
102 377
102 378
102 379
102 380
102 381
102 382
102 383
102 384
102 385
102 387
102 391
102 396
102 397
102 400
102 402
102 404
102 408
102 410
102 411
102 414
102 416
102 419
102 420
102 421
102 422
102 424
102 425
102 426
102 427
102 428
102 429
102 430
102 431
102 432
102 433
102 434
102 435
102 436
102 437
102 438
102 439
102 440
102 464
102 467
102 468
102 469
102 470
102 471
103 104
103 105
103 106
103 107
103 108
103 109
103 110
103 111
103 112
103 113
103 117
103 124
103 127
103 129
103 130
103 134
103 136
103 139
103 141
103 145
103 148
103 150
103 156
103 166
103 170
103 172
103 175
103 181
103 184
103 186
103 188
103 199
103 200
103 201
103 202
103 205
103 207
103 210
103 216
103 234
103 237
103 239
103 245
103 258
103 260
103 261
103 264
103 266
103 268
103 269
103 270
103 271
103 272
103 273
103 274
103 284
103 285
103 290
103 292
103 295
103 307
103 308
103 311
103 313
103 316
103 318
103 319
103 324
103 327
103 336
103 337
103 345
103 348
103 349
103 351
103 352
103 353
103 354
103 355
103 356
103 357
103 358
103 359
103 375
103 387
103 391
103 396
103 397
103 400
103 402
103 404
103 408
103 410
103 411
103 414
103 416
103 418
103 420
103 421
103 422
103 423
103 424
103 425
103 427
103 428
103 429
103 430
103 431
103 432
103 433
103 434
103 435
103 436
103 437
103 438
103 439
103 440
103 464
103 466
103 468
103 469
103 470
103 471
104 105
104 106
104 107
104 108
104 109
104 110
104 111
104 112
104 113
104 117
104 122
104 123
104 124
104 125
104 126
104 128
104 129
104 130
104 131
104 132
104 133
104 134
104 135
104 136
104 137
104 138
104 139
104 141
104 145
104 148
104 150
104 156
104 166
104 170
104 172
104 175
104 181
104 184
104 186
104 188
104 200
104 201
104 202
104 203
104 204
104 206
104 207
104 208
104 209
104 210
104 211
104 212
104 216
104 228
104 229
104 230
104 231
104 232
104 233
104 234
104 235
104 236
104 238
104 239
104 240
104 241
104 242
104 243
104 244
104 245
104 246
104 247
104 248
104 249
104 250
104 255
104 256
104 257
104 259
104 260
104 261
104 262
104 263
104 264
104 265
104 266
104 267
104 268
104 270
104 272
104 273
104 274
104 278
104 279
104 280
104 281
104 282
104 283
104 285
104 286
104 287
104 288
104 289
104 290
104 291
104 293
104 294
104 295
104 296
104 297
104 298
104 299
104 300
104 301
104 302
104 303
104 304
104 305
104 306
104 308
104 309
104 310
104 311
104 312
104 313
104 314
104 315
104 316
104 317
104 318
104 319
104 320
104 324
104 327
104 335
104 337
104 338
104 339
104 345
104 348
104 350
104 351
104 352
104 353
104 355
104 357
104 358
104 359
104 375
104 387
104 391
104 395
104 397
104 398
104 399
104 400
104 402
104 404
104 406
104 407
104 409
104 410
104 411
104 412
104 413
104 414
104 415
104 416
104 417
104 418
104 420
104 423
104 426
104 427
104 428
104 430
104 433
104 434
104 439
104 464
104 466
104 467
104 468
104 469
104 470
104 471
105 106
105 107
105 108
105 109
105 110
105 111
105 112
105 113
105 117
105 124
105 127
105 129
105 130
105 134
105 136
105 139
105 141
105 145
105 148
105 150
105 156
105 166
105 170
105 172
105 175
105 181
105 184
105 186
105 188
105 199
105 200
105 201
105 202
105 205
105 207
105 210
105 216
105 234
105 237
105 239
105 245
105 258
105 260
105 261
105 264
105 266
105 267
105 269
105 270
105 271
105 272
105 273
105 275
105 284
105 285
105 290
105 292
105 295
105 307
105 308
105 311
105 313
105 316
105 318
105 319
105 324
105 327
105 336
105 337
105 345
105 348
105 349
105 350
105 352
105 353
105 354
105 355
105 356
105 357
105 358
105 359
105 375
105 387
105 391
105 396
105 397
105 400
105 402
105 404
105 408
105 410
105 411
105 414
105 416
105 418
105 420
105 421
105 422
105 423
105 424
105 425
105 426
105 428
105 429
105 430
105 431
105 432
105 433
105 434
105 435
105 436
105 437
105 438
105 439
105 440
105 464
105 466
105 467
105 469
105 470
105 472
105 473
106 107
106 108
106 109
106 110
106 111
106 112
106 113
106 117
106 124
106 127
106 129
106 130
106 134
106 136
106 139
106 141
106 145
106 148
106 150
106 156
106 166
106 170
106 172
106 175
106 181
106 184
106 186
106 188
106 199
106 200
106 201
106 202
106 205
106 207
106 210
106 216
106 234
106 237
106 239
106 245
106 258
106 260
106 261
106 264
106 266
106 267
106 268
106 270
106 272
106 273
106 274
106 284
106 285
106 290
106 292
106 295
106 303
106 304
106 305
106 306
106 307
106 309
106 310
106 311
106 312
106 313
106 314
106 315
106 316
106 317
106 318
106 319
106 320
106 324
106 327
106 336
106 337
106 345
106 348
106 350
106 351
106 352
106 353
106 355
106 356
106 358
106 359
106 375
106 387
106 391
106 396
106 397
106 400
106 402
106 404
106 408
106 410
106 411
106 414
106 416
106 418
106 420
106 423
106 426
106 427
106 428
106 430
106 433
106 434
106 439
106 464
106 466
106 467
106 468
106 469
106 470
106 471
107 108
107 109
107 110
107 111
107 112
107 113
107 114
107 115
107 116
107 118
107 119
107 120
107 121
107 124
107 127
107 129
107 130
107 134
107 136
107 139
107 141
107 144
107 145
107 146
107 147
107 149
107 150
107 151
107 152
107 153
107 156
107 166
107 170
107 172
107 175
107 181
107 184
107 186
107 188
107 199
107 200
107 201
107 202
107 205
107 207
107 210
107 216
107 234
107 237
107 239
107 245
107 258
107 260
107 261
107 264
107 266
107 267
107 268
107 270
107 272
107 273
107 274
107 284
107 285
107 290
107 292
107 295
107 307
107 308
107 311
107 313
107 316
107 318
107 319
107 324
107 327
107 336
107 337
107 345
107 348
107 350
107 351
107 352
107 353
107 355
107 356
107 357
107 358
107 359
107 375
107 387
107 391
107 396
107 397
107 400
107 402
107 404
107 408
107 410
107 411
107 414
107 416
107 418
107 420
107 421
107 422
107 423
107 424
107 425
107 426
107 427
107 429
107 430
107 431
107 432
107 433
107 434
107 435
107 436
107 437
107 438
107 439
107 440
107 464
107 466
107 467
107 468
107 469
107 470
107 471
108 109
108 110
108 111
108 112
108 113
108 117
108 122
108 123
108 124
108 125
108 126
108 127
108 128
108 130
108 131
108 132
108 133
108 134
108 135
108 136
108 137
108 138
108 139
108 141
108 145
108 148
108 150
108 156
108 167
108 170
108 172
108 175
108 181
108 184
108 187
108 189
108 190
108 199
108 201
108 202
108 203
108 204
108 205
108 206
108 208
108 209
108 210
108 211
108 212
108 216
108 228
108 229
108 230
108 231
108 232
108 233
108 234
108 235
108 236
108 237
108 238
108 240
108 241
108 242
108 243
108 244
108 245
108 246
108 247
108 248
108 249
108 250
108 255
108 256
108 257
108 258
108 259
108 261
108 262
108 263
108 264
108 265
108 266
108 267
108 268
108 269
108 271
108 272
108 273
108 274
108 278
108 279
108 280
108 281
108 282
108 283
108 284
108 286
108 287
108 288
108 289
108 290
108 291
108 292
108 293
108 294
108 296
108 297
108 298
108 299
108 300
108 301
108 302
108 303
108 304
108 305
108 306
108 307
108 308
108 309
108 310
108 312
108 313
108 314
108 315
108 316
108 317
108 318
108 319
108 320
108 321
108 322
108 323
108 324
108 325
108 326
108 328
108 329
108 330
108 331
108 332
108 333
108 334
108 335
108 336
108 338
108 339
108 345
108 348
108 349
108 350
108 351
108 353
108 354
108 355
108 356
108 357
108 359
108 375
108 387
108 389
108 390
108 392
108 395
108 396
108 398
108 399
108 401
108 403
108 405
108 406
108 407
108 408
108 409
108 411
108 412
108 413
108 414
108 415
108 416
108 417
108 418
108 420
108 421
108 422
108 423
108 424
108 425
108 426
108 427
108 428
108 429
108 431
108 432
108 433
108 434
108 435
108 436
108 437
108 438
108 439
108 440
108 463
108 465
108 466
108 467
108 468
108 469
108 470
108 471
109 110
109 111
109 112
109 113
109 117
109 122
109 123
109 124
109 125
109 126
109 127
109 128
109 129
109 131
109 132
109 133
109 134
109 135
109 136
109 137
109 138
109 140
109 141
109 145
109 148
109 150
109 156
109 166
109 170
109 172
109 174
109 175
109 176
109 177
109 178
109 179
109 180
109 182
109 183
109 184
109 185
109 186
109 188
109 199
109 200
109 201
109 202
109 205
109 207
109 210
109 216
109 234
109 237
109 239
109 245
109 255
109 256
109 257
109 258
109 259
109 260
109 262
109 263
109 264
109 265
109 266
109 267
109 268
109 270
109 272
109 273
109 274
109 284
109 285
109 290
109 292
109 295
109 303
109 304
109 305
109 306
109 307
109 308
109 309
109 310
109 311
109 312
109 314
109 315
109 316
109 317
109 318
109 319
109 320
109 324
109 327
109 336
109 337
109 345
109 348
109 350
109 351
109 352
109 353
109 355
109 356
109 357
109 358
109 359
109 375
109 387
109 391
109 396
109 397
109 400
109 402
109 404
109 406
109 407
109 408
109 409
109 410
109 412
109 413
109 414
109 415
109 416
109 417
109 418
109 420
109 423
109 426
109 427
109 428
109 430
109 433
109 434
109 439
109 464
109 466
109 467
109 468
109 469
109 470
109 471
110 111
110 112
110 113
110 117
110 122
110 123
110 124
110 125
110 126
110 127
110 128
110 129
110 130
110 131
110 132
110 133
110 135
110 136
110 137
110 138
110 139
110 141
110 145
110 148
110 150
110 156
110 166
110 170
110 171
110 173
110 174
110 175
110 176
110 177
110 178
110 179
110 180
110 181
110 182
110 183
110 185
110 186
110 188
110 199
110 200
110 201
110 202
110 203
110 204
110 205
110 206
110 207
110 208
110 209
110 211
110 212
110 216
110 228
110 229
110 230
110 231
110 232
110 233
110 234
110 235
110 236
110 237
110 238
110 239
110 240
110 241
110 242
110 243
110 244
110 246
110 247
110 248
110 249
110 250
110 255
110 256
110 257
110 258
110 259
110 260
110 261
110 262
110 263
110 265
110 266
110 267
110 268
110 270
110 272
110 273
110 274
110 284
110 285
110 290
110 292
110 295
110 303
110 304
110 305
110 306
110 307
110 308
110 309
110 310
110 311
110 312
110 313
110 314
110 315
110 317
110 318
110 319
110 320
110 324
110 327
110 336
110 337
110 340
110 341
110 342
110 343
110 344
110 346
110 347
110 348
110 350
110 351
110 352
110 353
110 355
110 356
110 357
110 358
110 359
110 375
110 386
110 391
110 396
110 397
110 400
110 402
110 404
110 406
110 407
110 408
110 409
110 410
110 411
110 412
110 413
110 415
110 416
110 417
110 418
110 420
110 421
110 422
110 423
110 424
110 425
110 426
110 427
110 428
110 429
110 430
110 431
110 432
110 434
110 435
110 436
110 437
110 438
110 439
110 440
110 464
110 466
110 467
110 468
110 469
110 470
110 471
111 112
111 113
111 117
111 122
111 123
111 124
111 125
111 126
111 127
111 128
111 129
111 130
111 131
111 132
111 133
111 134
111 135
111 137
111 138
111 139
111 141
111 144
111 145
111 146
111 147
111 148
111 149
111 151
111 152
111 153
111 156
111 166
111 170
111 172
111 175
111 181
111 184
111 186
111 188
111 199
111 200
111 202
111 205
111 207
111 210
111 216
111 234
111 237
111 239
111 245
111 258
111 260
111 261
111 264
111 266
111 267
111 268
111 269
111 270
111 271
111 273
111 274
111 284
111 285
111 290
111 292
111 295
111 303
111 304
111 305
111 306
111 307
111 308
111 309
111 310
111 311
111 312
111 313
111 314
111 315
111 316
111 317
111 319
111 320
111 324
111 327
111 336
111 337
111 345
111 348
111 349
111 350
111 351
111 352
111 354
111 355
111 356
111 357
111 358
111 375
111 387
111 391
111 396
111 397
111 400
111 402
111 404
111 406
111 407
111 408
111 409
111 410
111 411
111 412
111 413
111 414
111 415
111 417
111 418
111 420
111 421
111 422
111 423
111 424
111 425
111 426
111 427
111 428
111 429
111 430
111 431
111 432
111 433
111 435
111 436
111 437
111 438
111 439
111 440
111 464
111 466
111 467
111 468
111 470
111 471
112 113
112 117
112 124
112 127
112 129
112 130
112 134
112 136
112 139
112 141
112 145
112 148
112 150
112 156
112 166
112 170
112 172
112 175
112 181
112 184
112 186
112 188
112 199
112 200
112 201
112 205
112 207
112 210
112 216
112 234
112 237
112 239
112 245
112 258
112 260
112 261
112 264
112 266
112 267
112 268
112 270
112 272
112 273
112 274
112 284
112 285
112 290
112 292
112 295
112 303
112 304
112 305
112 306
112 307
112 308
112 309
112 310
112 311
112 312
112 313
112 314
112 315
112 316
112 317
112 318
112 320
112 324
112 327
112 336
112 337
112 345
112 348
112 350
112 351
112 352
112 353
112 355
112 356
112 357
112 358
112 359
112 375
112 387
112 391
112 396
112 397
112 400
112 402
112 404
112 408
112 410
112 411
112 414
112 416
112 418
112 420
112 423
112 426
112 427
112 428
112 430
112 433
112 434
112 439
112 464
112 466
112 467
112 468
112 469
112 470
112 471
113 117
113 124
113 127
113 129
113 130
113 134
113 136
113 139
113 140
113 145
113 148
113 150
113 156
113 166
113 170
113 172
113 175
113 181
113 184
113 186
113 188
113 199
113 200
113 201
113 202
113 205
113 207
113 210
113 216
113 234
113 237
113 239
113 245
113 258
113 260
113 261
113 264
113 266
113 267
113 268
113 269
113 270
113 271
113 272
113 274
113 284
113 285
113 290
113 292
113 295
113 307
113 308
113 311
113 313
113 316
113 318
113 319
113 324
113 327
113 336
113 337
113 345
113 348
113 349
113 350
113 351
113 352
113 353
113 354
113 356
113 357
113 358
113 359
113 375
113 387
113 391
113 396
113 397
113 400
113 402
113 404
113 408
113 410
113 411
113 414
113 416
113 418
113 419
113 421
113 422
113 423
113 424
113 425
113 426
113 427
113 428
113 429
113 430
113 431
113 432
113 433
113 434
113 435
113 436
113 437
113 438
113 440
113 464
113 466
113 467
113 468
113 469
113 471
114 115
114 116
114 117
114 118
114 119
114 120
114 121
114 123
114 124
114 125
114 126
114 127
114 128
114 129
114 130
114 131
114 132
114 133
114 134
114 135
114 136
114 137
114 138
114 145
114 146
114 147
114 148
114 149
114 150
114 151
114 152
114 153
114 279
114 280
114 281
114 282
114 283
114 284
114 285
114 286
114 304
114 305
114 306
114 307
114 308
114 309
114 310
114 311
114 312
114 313
114 314
114 315
114 316
114 317
114 318
114 319
114 320
114 396
114 397
114 398
114 399
114 407
114 408
114 409
114 410
114 411
114 412
114 413
114 414
114 415
114 416
114 417
114 428
114 445
114 446
114 464
114 465
115 116
115 117
115 118
115 119
115 120
115 121
115 122
115 144
115 145
115 147
115 148
115 149
115 150
115 151
115 152
115 153
115 278
115 303
115 395
115 406
115 428
115 444
115 463
116 117
116 118
116 119
116 120
116 121
116 122
116 144
116 145
116 146
116 148
116 149
116 150
116 151
116 152
116 153
116 278
116 303
116 395
116 406
116 428
116 444
116 463
117 118
117 119
117 120
117 121
117 122
117 144
117 145
117 146
117 147
117 149
117 150
117 151
117 152
117 153
117 278
117 303
117 395
117 406
117 421
117 422
117 423
117 424
117 425
117 426
117 427
117 429
117 430
117 431
117 432
117 433
117 434
117 435
117 436
117 437
117 438
117 439
117 440
117 444
117 463
118 119
118 120
118 121
118 122
118 144
118 145
118 146
118 147
118 148
118 150
118 151
118 152
118 153
118 278
118 303
118 395
118 406
118 428
118 444
118 463
119 120
119 121
119 122
119 144
119 145
119 146
119 147
119 148
119 149
119 150
119 152
119 153
119 278
119 303
119 395
119 406
119 428
119 444
119 463
120 121
120 122
120 144
120 145
120 146
120 147
120 148
120 149
120 150
120 151
120 153
120 278
120 303
120 395
120 406
120 428
120 444
120 463
121 122
121 144
121 145
121 146
121 147
121 148
121 149
121 150
121 151
121 152
121 278
121 303
121 395
121 406
121 428
121 444
121 463
122 123
122 124
122 125
122 126
122 127
122 128
122 129
122 130
122 131
122 132
122 133
122 134
122 135
122 136
122 137
122 138
122 139
122 145
122 146
122 147
122 148
122 149
122 150
122 151
122 152
122 153
122 156
122 160
122 164
122 166
122 170
122 172
122 173
122 174
122 175
122 176
122 177
122 179
122 181
122 182
122 183
122 184
122 185
122 186
122 188
122 198
122 199
122 200
122 201
122 203
122 204
122 205
122 206
122 207
122 208
122 209
122 210
122 211
122 212
122 216
122 224
122 229
122 234
122 235
122 237
122 239
122 244
122 245
122 246
122 249
122 255
122 257
122 258
122 259
122 260
122 261
122 262
122 263
122 264
122 265
122 266
122 270
122 272
122 279
122 280
122 281
122 282
122 283
122 284
122 285
122 286
122 290
122 292
122 294
122 295
122 301
122 304
122 305
122 306
122 307
122 308
122 309
122 310
122 311
122 312
122 313
122 314
122 315
122 316
122 317
122 318
122 319
122 320
122 324
122 327
122 333
122 336
122 337
122 340
122 341
122 342
122 343
122 344
122 345
122 346
122 347
122 348
122 352
122 353
122 356
122 358
122 359
122 368
122 375
122 380
122 384
122 386
122 387
122 391
122 396
122 397
122 398
122 399
122 400
122 402
122 404
122 407
122 408
122 409
122 410
122 411
122 412
122 413
122 414
122 415
122 416
122 417
122 418
122 423
122 430
122 432
122 433
122 434
122 437
122 438
122 443
122 445
122 446
122 449
122 459
122 464
122 465
122 466
122 469
122 473
123 124
123 125
123 126
123 127
123 128
123 129
123 130
123 131
123 132
123 133
123 134
123 135
123 136
123 137
123 138
123 139
123 144
123 145
123 150
123 156
123 160
123 164
123 166
123 170
123 172
123 173
123 175
123 176
123 177
123 178
123 179
123 180
123 181
123 182
123 183
123 184
123 185
123 186
123 188
123 198
123 199
123 200
123 201
123 204
123 205
123 206
123 207
123 208
123 209
123 210
123 211
123 212
123 216
123 224
123 228
123 230
123 231
123 232
123 233
123 234
123 235
123 236
123 237
123 238
123 239
123 240
123 241
123 242
123 243
123 244
123 245
123 246
123 247
123 248
123 249
123 250
123 256
123 257
123 258
123 259
123 260
123 261
123 262
123 263
123 264
123 265
123 266
123 270
123 272
123 278
123 284
123 285
123 290
123 292
123 294
123 295
123 301
123 303
123 304
123 306
123 307
123 308
123 309
123 310
123 311
123 312
123 313
123 314
123 315
123 316
123 317
123 318
123 319
123 320
123 324
123 327
123 333
123 336
123 337
123 341
123 342
123 343
123 344
123 345
123 346
123 347
123 348
123 352
123 353
123 356
123 358
123 359
123 368
123 375
123 380
123 384
123 386
123 387
123 391
123 395
123 396
123 397
123 400
123 402
123 404
123 406
123 407
123 408
123 409
123 410
123 411
123 412
123 413
123 414
123 415
123 416
123 418
123 423
123 430
123 432
123 433
123 434
123 437
123 438
123 443
123 444
123 449
123 459
123 463
123 464
123 466
123 469
123 473
124 125
124 126
124 127
124 128
124 129
124 130
124 131
124 132
124 133
124 134
124 135
124 136
124 137
124 138
124 139
124 144
124 146
124 147
124 148
124 149
124 150
124 151
124 152
124 153
124 154
124 155
124 157
124 158
124 159
124 160
124 161
124 162
124 163
124 164
124 165
124 166
124 171
124 172
124 173
124 174
124 176
124 177
124 178
124 179
124 180
124 181
124 182
124 183
124 184
124 185
124 186
124 188
124 198
124 199
124 200
124 201
124 203
124 204
124 205
124 206
124 207
124 208
124 209
124 210
124 211
124 212
124 213
124 214
124 215
124 217
124 218
124 219
124 220
124 221
124 222
124 223
124 224
124 225
124 228
124 229
124 230
124 231
124 232
124 233
124 235
124 236
124 237
124 238
124 239
124 240
124 241
124 242
124 243
124 244
124 245
124 246
124 247
124 248
124 249
124 250
124 255
124 257
124 258
124 259
124 260
124 261
124 262
124 263
124 264
124 265
124 267
124 268
124 269
124 270
124 271
124 272
124 273
124 278
124 284
124 285
124 287
124 288
124 289
124 291
124 292
124 293
124 294
124 295
124 296
124 297
124 298
124 299
124 300
124 301
124 302
124 303
124 305
124 307
124 310
124 311
124 313
124 315
124 316
124 317
124 318
124 320
124 321
124 322
124 323
124 325
124 326
124 327
124 328
124 329
124 330
124 331
124 332
124 333
124 334
124 336
124 337
124 340
124 341
124 342
124 343
124 344
124 345
124 346
124 347
124 349
124 350
124 351
124 352
124 353
124 354
124 355
124 356
124 358
124 359
124 368
124 372
124 373
124 374
124 376
124 377
124 378
124 379
124 380
124 381
124 382
124 383
124 384
124 385
124 386
124 387
124 391
124 395
124 396
124 397
124 400
124 402
124 404
124 406
124 407
124 408
124 409
124 410
124 411
124 412
124 413
124 414
124 415
124 416
124 419
124 420
124 421
124 422
124 424
124 425
124 426
124 427
124 428
124 429
124 430
124 431
124 432
124 433
124 434
124 435
124 436
124 437
124 438
124 439
124 440
124 443
124 444
124 449
124 459
124 463
124 464
124 467
124 468
124 469
124 470
124 473
125 126
125 127
125 128
125 129
125 130
125 131
125 132
125 133
125 134
125 135
125 136
125 137
125 138
125 139
125 144
125 145
125 150
125 156
125 160
125 164
125 166
125 170
125 172
125 173
125 174
125 175
125 177
125 178
125 179
125 180
125 181
125 182
125 183
125 184
125 185
125 186
125 188
125 198
125 199
125 200
125 201
125 203
125 205
125 206
125 207
125 208
125 209
125 210
125 211
125 212
125 216
125 224
125 228
125 229
125 230
125 231
125 232
125 233
125 234
125 236
125 237
125 238
125 239
125 240
125 241
125 242
125 243
125 244
125 245
125 246
125 247
125 248
125 249
125 250
125 255
125 256
125 258
125 259
125 260
125 261
125 262
125 263
125 264
125 265
125 266
125 270
125 272
125 278
125 284
125 285
125 290
125 292
125 294
125 295
125 301
125 303
125 305
125 307
125 310
125 311
125 313
125 315
125 316
125 317
125 318
125 320
125 324
125 327
125 333
125 336
125 337
125 340
125 342
125 343
125 344
125 345
125 346
125 347
125 348
125 352
125 353
125 356
125 358
125 359
125 368
125 375
125 380
125 384
125 386
125 387
125 391
125 395
125 396
125 397
125 400
125 402
125 404
125 406
125 407
125 408
125 409
125 410
125 411
125 412
125 413
125 414
125 415
125 416
125 418
125 423
125 430
125 432
125 433
125 434
125 437
125 438
125 443
125 444
125 449
125 459
125 463
125 464
125 466
125 469
125 473
126 127
126 128
126 129
126 130
126 131
126 132
126 133
126 134
126 135
126 136
126 137
126 138
126 139
126 144
126 145
126 150
126 156
126 160
126 164
126 166
126 170
126 172
126 173
126 174
126 175
126 176
126 178
126 179
126 180
126 181
126 182
126 183
126 184
126 185
126 186
126 188
126 198
126 199
126 200
126 201
126 203
126 204
126 205
126 206
126 207
126 208
126 209
126 210
126 211
126 212
126 216
126 224
126 229
126 234
126 235
126 237
126 239
126 244
126 245
126 246
126 249
126 255
126 257
126 258
126 259
126 260
126 261
126 262
126 263
126 264
126 265
126 266
126 270
126 272
126 278
126 284
126 285
126 290
126 292
126 294
126 295
126 301
126 303
126 305
126 307
126 310
126 311
126 313
126 315
126 316
126 317
126 318
126 320
126 324
126 327
126 333
126 336
126 337
126 340
126 341
126 342
126 343
126 344
126 345
126 346
126 347
126 348
126 352
126 353
126 356
126 358
126 359
126 368
126 375
126 380
126 384
126 386
126 387
126 391
126 395
126 396
126 397
126 400
126 402
126 404
126 406
126 408
126 409
126 410
126 411
126 412
126 413
126 414
126 415
126 416
126 417
126 418
126 423
126 430
126 432
126 433
126 434
126 437
126 438
126 443
126 444
126 449
126 459
126 463
126 464
126 466
126 469
126 473
127 128
127 129
127 130
127 131
127 132
127 133
127 134
127 135
127 136
127 137
127 138
127 139
127 144
127 145
127 150
127 156
127 160
127 164
127 166
127 170
127 172
127 173
127 174
127 175
127 176
127 177
127 179
127 181
127 182
127 183
127 184
127 185
127 186
127 188
127 198
127 200
127 201
127 202
127 203
127 204
127 206
127 207
127 208
127 209
127 210
127 211
127 212
127 216
127 224
127 228
127 229
127 230
127 231
127 232
127 233
127 234
127 235
127 236
127 238
127 239
127 240
127 241
127 242
127 243
127 244
127 245
127 246
127 247
127 248
127 249
127 250
127 255
127 256
127 257
127 259
127 260
127 261
127 262
127 263
127 264
127 265
127 266
127 270
127 272
127 278
127 279
127 280
127 281
127 282
127 283
127 285
127 286
127 287
127 288
127 289
127 290
127 291
127 293
127 294
127 295
127 296
127 297
127 298
127 299
127 300
127 301
127 302
127 303
127 304
127 305
127 306
127 308
127 309
127 310
127 311
127 312
127 313
127 314
127 315
127 316
127 317
127 318
127 319
127 320
127 324
127 327
127 333
127 335
127 337
127 338
127 339
127 340
127 341
127 342
127 343
127 344
127 345
127 346
127 347
127 348
127 352
127 353
127 357
127 358
127 359
127 368
127 375
127 380
127 384
127 386
127 387
127 391
127 395
127 397
127 398
127 399
127 400
127 402
127 404
127 406
127 407
127 409
127 410
127 411
127 412
127 413
127 414
127 415
127 416
127 417
127 418
127 423
127 430
127 432
127 433
127 434
127 437
127 438
127 443
127 444
127 449
127 459
127 463
127 464
127 466
127 469
127 473
128 129
128 130
128 131
128 132
128 133
128 134
128 135
128 136
128 137
128 138
128 139
128 144
128 145
128 150
128 156
128 160
128 164
128 166
128 170
128 172
128 173
128 174
128 175
128 176
128 177
128 178
128 180
128 181
128 182
128 183
128 184
128 185
128 186
128 188
128 198
128 199
128 200
128 201
128 203
128 204
128 205
128 207
128 208
128 209
128 210
128 211
128 212
128 216
128 224
128 229
128 234
128 235
128 237
128 239
128 244
128 245
128 246
128 249
128 255
128 256
128 257
128 258
128 260
128 261
128 262
128 263
128 264
128 265
128 266
128 270
128 272
128 278
128 284
128 285
128 287
128 288
128 289
128 290
128 291
128 292
128 293
128 295
128 296
128 297
128 298
128 299
128 300
128 301
128 302
128 303
128 304
128 305
128 306
128 307
128 308
128 309
128 311
128 312
128 313
128 314
128 315
128 316
128 317
128 318
128 319
128 320
128 324
128 327
128 333
128 336
128 337
128 340
128 341
128 343
128 344
128 345
128 346
128 347
128 348
128 352
128 353
128 356
128 358
128 359
128 368
128 375
128 380
128 384
128 386
128 387
128 391
128 395
128 396
128 397
128 400
128 402
128 404
128 406
128 407
128 408
128 410
128 411
128 412
128 413
128 414
128 415
128 416
128 417
128 418
128 423
128 430
128 432
128 433
128 434
128 437
128 438
128 443
128 444
128 449
128 459
128 463
128 464
128 466
128 469
128 473
129 130
129 131
129 132
129 133
129 134
129 135
129 136
129 137
129 138
129 139
129 144
129 145
129 150
129 156
129 160
129 164
129 167
129 170
129 172
129 173
129 174
129 175
129 176
129 177
129 179
129 181
129 182
129 183
129 184
129 185
129 187
129 189
129 190
129 198
129 199
129 201
129 202
129 203
129 204
129 205
129 206
129 208
129 209
129 210
129 211
129 212
129 216
129 224
129 228
129 229
129 230
129 231
129 232
129 233
129 234
129 235
129 236
129 237
129 238
129 240
129 241
129 242
129 243
129 244
129 245
129 246
129 247
129 248
129 249
129 250
129 255
129 256
129 257
129 258
129 259
129 261
129 262
129 263
129 264
129 265
129 266
129 267
129 268
129 269
129 271
129 272
129 273
129 278
129 279
129 280
129 281
129 282
129 283
129 284
129 286
129 287
129 288
129 289
129 290
129 291
129 292
129 293
129 294
129 296
129 297
129 298
129 299
129 300
129 301
129 302
129 303
129 304
129 305
129 306
129 307
129 308
129 309
129 310
129 312
129 313
129 314
129 315
129 316
129 317
129 318
129 319
129 320
129 321
129 322
129 323
129 324
129 325
129 326
129 328
129 329
129 330
129 331
129 332
129 333
129 334
129 335
129 336
129 338
129 339
129 340
129 341
129 342
129 343
129 344
129 345
129 346
129 347
129 348
129 349
129 350
129 351
129 353
129 354
129 355
129 356
129 357
129 359
129 368
129 375
129 380
129 384
129 386
129 387
129 389
129 390
129 392
129 395
129 396
129 398
129 399
129 401
129 403
129 405
129 406
129 407
129 408
129 409
129 411
129 412
129 413
129 414
129 415
129 416
129 417
129 418
129 421
129 422
129 423
129 424
129 425
129 426
129 427
129 428
129 429
129 431
129 432
129 433
129 434
129 435
129 436
129 437
129 438
129 439
129 440
129 443
129 444
129 449
129 459
129 463
129 465
129 466
129 469
129 473
130 131
130 132
130 133
130 134
130 135
130 136
130 137
130 138
130 140
130 141
130 144
130 145
130 150
130 156
130 160
130 164
130 166
130 170
130 172
130 173
130 174
130 175
130 176
130 177
130 178
130 179
130 180
130 182
130 183
130 184
130 185
130 186
130 188
130 198
130 199
130 200
130 201
130 203
130 204
130 205
130 206
130 207
130 208
130 209
130 210
130 211
130 212
130 216
130 224
130 229
130 234
130 235
130 237
130 239
130 244
130 245
130 246
130 249
130 255
130 256
130 257
130 258
130 259
130 260
130 262
130 263
130 264
130 265
130 266
130 270
130 272
130 278
130 284
130 285
130 290
130 292
130 294
130 295
130 301
130 303
130 304
130 305
130 306
130 307
130 308
130 309
130 310
130 311
130 312
130 314
130 315
130 316
130 317
130 318
130 319
130 320
130 324
130 327
130 333
130 336
130 337
130 340
130 341
130 342
130 343
130 344
130 345
130 346
130 347
130 348
130 352
130 353
130 356
130 358
130 359
130 368
130 375
130 380
130 384
130 386
130 387
130 391
130 395
130 396
130 397
130 400
130 402
130 404
130 406
130 407
130 408
130 409
130 410
130 412
130 413
130 414
130 415
130 416
130 417
130 418
130 423
130 430
130 432
130 433
130 434
130 437
130 438
130 443
130 444
130 449
130 459
130 463
130 464
130 466
130 469
130 473
131 132
131 133
131 134
131 135
131 136
131 137
131 138
131 139
131 144
131 145
131 150
131 154
131 155
131 156
131 157
131 158
131 159
131 161
131 162
131 163
131 164
131 165
131 166
131 170
131 172
131 173
131 174
131 175
131 176
131 177
131 178
131 179
131 180
131 181
131 183
131 184
131 185
131 186
131 188
131 198
131 199
131 200
131 201
131 203
131 204
131 205
131 206
131 207
131 209
131 210
131 211
131 212
131 216
131 224
131 229
131 234
131 235
131 237
131 239
131 244
131 245
131 246
131 249
131 255
131 256
131 257
131 258
131 259
131 260
131 261
131 263
131 264
131 265
131 266
131 270
131 272
131 278
131 284
131 285
131 290
131 292
131 294
131 295
131 301
131 303
131 305
131 307
131 310
131 311
131 313
131 315
131 316
131 317
131 318
131 320
131 324
131 327
131 333
131 336
131 337
131 340
131 341
131 342
131 344
131 345
131 346
131 347
131 348
131 352
131 353
131 356
131 358
131 359
131 368
131 372
131 373
131 374
131 375
131 376
131 377
131 378
131 379
131 381
131 382
131 383
131 384
131 385
131 386
131 387
131 391
131 395
131 396
131 397
131 400
131 402
131 404
131 406
131 407
131 408
131 409
131 410
131 411
131 413
131 414
131 415
131 416
131 417
131 418
131 421
131 422
131 423
131 424
131 425
131 426
131 427
131 428
131 429
131 430
131 431
131 433
131 434
131 435
131 436
131 437
131 438
131 439
131 440
131 443
131 444
131 449
131 459
131 463
131 464
131 466
131 469
131 473
132 133
132 134
132 135
132 136
132 137
132 138
132 139
132 144
132 145
132 150
132 156
132 160
132 164
132 166
132 170
132 172
132 173
132 174
132 175
132 176
132 177
132 179
132 181
132 182
132 183
132 184
132 185
132 186
132 188
132 198
132 199
132 200
132 201
132 203
132 204
132 205
132 206
132 207
132 208
132 209
132 210
132 211
132 212
132 216
132 224
132 229
132 234
132 235
132 237
132 239
132 244
132 245
132 246
132 249
132 255
132 257
132 258
132 259
132 260
132 261
132 262
132 263
132 264
132 265
132 266
132 270
132 272
132 278
132 284
132 285
132 290
132 292
132 294
132 295
132 301
132 303
132 305
132 307
132 310
132 311
132 313
132 315
132 316
132 317
132 318
132 320
132 324
132 327
132 333
132 336
132 337
132 340
132 341
132 342
132 343
132 344
132 345
132 346
132 347
132 348
132 352
132 353
132 356
132 358
132 359
132 368
132 375
132 380
132 384
132 387
132 391
132 395
132 396
132 397
132 400
132 402
132 404
132 406
132 407
132 408
132 409
132 410
132 411
132 412
132 413
132 414
132 415
132 416
132 418
132 423
132 430
132 432
132 433
132 434
132 437
132 438
132 443
132 444
132 449
132 459
132 463
132 464
132 466
132 469
132 473
133 134
133 135
133 136
133 137
133 138
133 139
133 144
133 145
133 150
133 156
133 160
133 164
133 166
133 170
133 172
133 173
133 174
133 175
133 176
133 177
133 178
133 179
133 180
133 181
133 182
133 184
133 185
133 186
133 188
133 198
133 199
133 200
133 201
133 203
133 204
133 205
133 206
133 207
133 208
133 210
133 211
133 212
133 216
133 224
133 228
133 229
133 230
133 231
133 232
133 233
133 234
133 235
133 236
133 237
133 238
133 239
133 240
133 241
133 242
133 243
133 245
133 246
133 247
133 248
133 249
133 250
133 255
133 256
133 257
133 258
133 259
133 260
133 261
133 262
133 264
133 265
133 266
133 270
133 272
133 278
133 284
133 285
133 290
133 292
133 294
133 295
133 301
133 303
133 304
133 305
133 306
133 307
133 308
133 309
133 310
133 311
133 312
133 313
133 314
133 316
133 317
133 318
133 319
133 320
133 324
133 327
133 333
133 336
133 337
133 340
133 341
133 342
133 343
133 345
133 346
133 347
133 348
133 352
133 353
133 356
133 358
133 359
133 368
133 375
133 380
133 384
133 386
133 387
133 391
133 395
133 396
133 397
133 400
133 402
133 404
133 406
133 407
133 408
133 409
133 410
133 411
133 412
133 414
133 415
133 416
133 417
133 418
133 423
133 430
133 432
133 433
133 434
133 437
133 438
133 443
133 444
133 449
133 459
133 463
133 464
133 466
133 469
133 473
134 135
134 136
134 137
134 138
134 139
134 144
134 145
134 150
134 156
134 160
134 164
134 166
134 170
134 171
134 173
134 174
134 175
134 176
134 177
134 178
134 179
134 180
134 181
134 182
134 183
134 185
134 186
134 188
134 198
134 199
134 200
134 201
134 203
134 204
134 205
134 206
134 207
134 208
134 209
134 211
134 212
134 216
134 224
134 228
134 229
134 230
134 231
134 232
134 233
134 234
134 235
134 236
134 237
134 238
134 239
134 240
134 241
134 242
134 243
134 244
134 246
134 247
134 248
134 249
134 250
134 255
134 256
134 257
134 258
134 259
134 260
134 261
134 262
134 263
134 265
134 266
134 270
134 272
134 278
134 284
134 285
134 290
134 292
134 294
134 295
134 301
134 303
134 304
134 305
134 306
134 307
134 308
134 309
134 310
134 311
134 312
134 313
134 314
134 315
134 317
134 318
134 319
134 320
134 324
134 327
134 333
134 336
134 337
134 340
134 341
134 342
134 343
134 344
134 346
134 347
134 348
134 352
134 353
134 356
134 358
134 359
134 368
134 375
134 380
134 384
134 386
134 391
134 395
134 396
134 397
134 400
134 402
134 404
134 406
134 407
134 408
134 409
134 410
134 411
134 412
134 413
134 415
134 416
134 417
134 418
134 421
134 422
134 423
134 424
134 425
134 426
134 427
134 428
134 429
134 430
134 431
134 432
134 434
134 435
134 436
134 437
134 438
134 439
134 440
134 443
134 444
134 449
134 459
134 463
134 464
134 466
134 469
134 473
135 136
135 137
135 138
135 139
135 144
135 145
135 150
135 156
135 160
135 164
135 166
135 170
135 172
135 173
135 174
135 175
135 176
135 177
135 178
135 179
135 180
135 181
135 182
135 183
135 184
135 186
135 188
135 198
135 199
135 200
135 201
135 203
135 204
135 205
135 206
135 207
135 208
135 209
135 210
135 212
135 216
135 224
135 228
135 229
135 230
135 231
135 232
135 233
135 234
135 235
135 236
135 237
135 238
135 239
135 240
135 241
135 242
135 243
135 244
135 245
135 247
135 248
135 249
135 250
135 255
135 256
135 257
135 258
135 259
135 260
135 261
135 262
135 263
135 264
135 266
135 270
135 272
135 278
135 284
135 285
135 290
135 292
135 294
135 295
135 301
135 303
135 304
135 305
135 306
135 307
135 308
135 309
135 310
135 311
135 312
135 313
135 314
135 315
135 316
135 318
135 319
135 320
135 324
135 327
135 333
135 336
135 337
135 340
135 341
135 342
135 343
135 344
135 345
135 347
135 348
135 352
135 353
135 356
135 358
135 359
135 368
135 375
135 380
135 384
135 386
135 387
135 391
135 395
135 396
135 397
135 400
135 402
135 404
135 406
135 407
135 408
135 409
135 410
135 411
135 412
135 413
135 414
135 416
135 417
135 418
135 423
135 430
135 432
135 433
135 434
135 437
135 438
135 443
135 444
135 449
135 459
135 463
135 464
135 466
135 469
135 473
136 137
136 138
136 139
136 144
136 145
136 146
136 147
136 148
136 149
136 151
136 152
136 153
136 156
136 160
136 164
136 166
136 170
136 172
136 173
136 174
136 175
136 176
136 177
136 179
136 181
136 182
136 183
136 184
136 185
136 186
136 188
136 198
136 199
136 200
136 202
136 203
136 204
136 205
136 206
136 207
136 208
136 209
136 210
136 211
136 212
136 216
136 224
136 229
136 234
136 235
136 237
136 239
136 244
136 245
136 246
136 249
136 255
136 257
136 258
136 259
136 260
136 261
136 262
136 263
136 264
136 265
136 266
136 267
136 268
136 269
136 270
136 271
136 273
136 278
136 284
136 285
136 290
136 292
136 294
136 295
136 301
136 303
136 304
136 305
136 306
136 307
136 308
136 309
136 310
136 311
136 312
136 313
136 314
136 315
136 316
136 317
136 319
136 320
136 324
136 327
136 333
136 336
136 337
136 340
136 341
136 342
136 343
136 344
136 345
136 346
136 347
136 348
136 349
136 350
136 351
136 352
136 354
136 355
136 356
136 357
136 358
136 368
136 375
136 380
136 384
136 386
136 387
136 391
136 395
136 396
136 397
136 400
136 402
136 404
136 406
136 407
136 408
136 409
136 410
136 411
136 412
136 413
136 414
136 415
136 417
136 418
136 421
136 422
136 423
136 424
136 425
136 426
136 427
136 428
136 429
136 430
136 431
136 432
136 433
136 435
136 436
136 437
136 438
136 439
136 440
136 443
136 444
136 449
136 459
136 463
136 464
136 466
136 467
136 468
136 470
136 473
137 138
137 139
137 144
137 145
137 150
137 154
137 155
137 156
137 157
137 158
137 159
137 160
137 161
137 162
137 163
137 165
137 166
137 170
137 172
137 173
137 174
137 175
137 176
137 177
137 179
137 181
137 182
137 183
137 184
137 185
137 186
137 188
137 191
137 192
137 193
137 194
137 195
137 196
137 197
137 199
137 200
137 201
137 203
137 204
137 205
137 206
137 207
137 208
137 209
137 210
137 211
137 213
137 214
137 215
137 216
137 217
137 218
137 219
137 220
137 221
137 222
137 223
137 225
137 228
137 229
137 230
137 231
137 232
137 233
137 234
137 235
137 236
137 237
137 238
137 239
137 240
137 241
137 242
137 243
137 244
137 245
137 246
137 247
137 248
137 250
137 255
137 257
137 258
137 259
137 260
137 261
137 262
137 263
137 264
137 265
137 266
137 270
137 272
137 278
137 284
137 285
137 287
137 288
137 289
137 290
137 291
137 292
137 293
137 294
137 295
137 296
137 297
137 298
137 299
137 300
137 302
137 303
137 304
137 305
137 306
137 307
137 308
137 309
137 310
137 311
137 312
137 313
137 314
137 315
137 316
137 317
137 318
137 319
137 321
137 322
137 323
137 324
137 325
137 326
137 327
137 328
137 329
137 330
137 331
137 332
137 334
137 336
137 337
137 340
137 341
137 342
137 343
137 344
137 345
137 346
137 348
137 352
137 353
137 356
137 358
137 359
137 360
137 361
137 362
137 363
137 364
137 365
137 366
137 367
137 369
137 372
137 373
137 374
137 375
137 376
137 377
137 378
137 379
137 380
137 381
137 382
137 383
137 385
137 386
137 387
137 391
137 395
137 396
137 397
137 400
137 402
137 404
137 406
137 407
137 408
137 409
137 410
137 411
137 412
137 413
137 414
137 415
137 416
137 418
137 421
137 422
137 423
137 424
137 425
137 426
137 427
137 428
137 429
137 430
137 431
137 432
137 433
137 434
137 435
137 436
137 438
137 439
137 440
137 441
137 442
137 444
137 447
137 448
137 450
137 451
137 452
137 453
137 454
137 455
137 456
137 457
137 458
137 460
137 463
137 464
137 466
137 469
137 473
138 139
138 144
138 145
138 150
138 156
138 160
138 164
138 166
138 170
138 171
138 172
138 174
138 175
138 176
138 177
138 179
138 181
138 182
138 183
138 184
138 185
138 186
138 188
138 198
138 199
138 200
138 201
138 203
138 204
138 205
138 206
138 207
138 208
138 209
138 210
138 211
138 212
138 216
138 224
138 229
138 234
138 235
138 237
138 239
138 244
138 245
138 246
138 249
138 255
138 257
138 258
138 259
138 260
138 261
138 262
138 263
138 264
138 265
138 266
138 270
138 272
138 278
138 284
138 285
138 290
138 292
138 294
138 295
138 301
138 303
138 305
138 307
138 310
138 311
138 313
138 315
138 316
138 317
138 318
138 320
138 324
138 327
138 333
138 336
138 337
138 340
138 341
138 342
138 343
138 344
138 345
138 346
138 347
138 348
138 352
138 353
138 356
138 358
138 359
138 368
138 375
138 380
138 384
138 386
138 387
138 391
138 395
138 396
138 397
138 400
138 402
138 404
138 406
138 407
138 408
138 409
138 410
138 411
138 412
138 413
138 414
138 415
138 416
138 418
138 421
138 422
138 423
138 424
138 425
138 426
138 427
138 428
138 429
138 430
138 431
138 432
138 433
138 434
138 435
138 436
138 437
138 439
138 440
138 443
138 444
138 449
138 459
138 463
138 464
138 466
138 469
138 471
138 472
139 140
139 141
139 174
139 175
139 176
139 177
139 178
139 179
139 180
139 182
139 183
139 184
139 185
139 255
139 256
139 257
139 258
139 259
139 260
139 262
139 263
139 264
139 265
139 273
139 303
139 304
139 305
139 306
139 307
139 308
139 309
139 310
139 311
139 312
139 314
139 315
139 316
139 317
139 318
139 319
139 320
139 354
139 355
139 406
139 407
139 408
139 409
139 410
139 412
139 413
139 414
139 415
139 416
139 417
139 420
139 439
139 470
140 141
140 181
140 261
140 273
140 313
140 348
140 349
140 350
140 351
140 352
140 353
140 355
140 406
140 407
140 408
140 409
140 410
140 411
140 412
140 413
140 414
140 415
140 416
140 420
140 439
140 470
141 181
141 261
141 266
141 267
141 268
141 269
141 270
141 271
141 272
141 313
141 348
141 349
141 350
141 351
141 352
141 353
141 354
141 411
141 417
141 418
141 419
141 421
141 422
141 423
141 424
141 425
141 426
141 427
141 428
141 429
141 430
141 431
141 432
141 433
141 434
141 435
141 436
141 437
141 438
141 440
141 466
141 467
141 468
141 469
142 143
142 251
142 253
142 371
142 389
142 391
142 392
142 394
142 462
142 476
143 252
143 254
143 370
143 390
143 393
143 461
143 475
144 145
144 146
144 147
144 148
144 149
144 150
144 151
144 152
144 153
144 156
144 170
144 175
144 201
144 216
144 234
144 266
144 272
144 279
144 280
144 281
144 282
144 283
144 284
144 285
144 286
144 290
144 304
144 305
144 306
144 307
144 308
144 309
144 310
144 311
144 312
144 313
144 314
144 315
144 316
144 317
144 318
144 319
144 320
144 324
144 348
144 353
144 359
144 375
144 396
144 397
144 398
144 399
144 407
144 408
144 409
144 410
144 411
144 412
144 413
144 414
144 415
144 416
144 417
144 418
144 423
144 428
144 434
144 445
144 446
144 464
144 465
144 466
144 469
145 146
145 147
145 148
145 149
145 150
145 151
145 152
145 153
145 154
145 155
145 157
145 158
145 159
145 160
145 161
145 162
145 163
145 164
145 165
145 171
145 172
145 173
145 174
145 176
145 177
145 178
145 179
145 180
145 181
145 182
145 183
145 184
145 185
145 201
145 213
145 214
145 215
145 217
145 218
145 219
145 220
145 221
145 222
145 223
145 224
145 225
145 228
145 229
145 230
145 231
145 232
145 233
145 235
145 236
145 237
145 238
145 239
145 240
145 241
145 242
145 243
145 244
145 245
145 246
145 247
145 248
145 249
145 250
145 267
145 268
145 269
145 270
145 271
145 272
145 273
145 278
145 287
145 288
145 289
145 291
145 292
145 293
145 294
145 295
145 296
145 297
145 298
145 299
145 300
145 301
145 302
145 303
145 318
145 321
145 322
145 323
145 325
145 326
145 327
145 328
145 329
145 330
145 331
145 332
145 333
145 334
145 349
145 350
145 351
145 352
145 353
145 354
145 355
145 359
145 372
145 373
145 374
145 376
145 377
145 378
145 379
145 380
145 381
145 382
145 383
145 384
145 385
145 395
145 406
145 416
145 419
145 420
145 421
145 422
145 424
145 425
145 426
145 427
145 428
145 429
145 430
145 431
145 432
145 433
145 434
145 435
145 436
145 437
145 438
145 439
145 440
145 444
145 463
145 467
145 468
145 469
145 470
146 147
146 148
146 149
146 150
146 151
146 152
146 153
146 156
146 170
146 175
146 201
146 216
146 234
146 266
146 272
146 278
146 290
146 303
146 318
146 324
146 348
146 353
146 359
146 375
146 395
146 406
146 416
146 418
146 423
146 428
146 434
146 444
146 463
146 466
146 469
147 148
147 149
147 150
147 151
147 152
147 153
147 156
147 170
147 175
147 201
147 216
147 234
147 266
147 272
147 278
147 290
147 303
147 318
147 324
147 348
147 353
147 359
147 375
147 395
147 406
147 416
147 418
147 423
147 428
147 434
147 444
147 463
147 466
147 469
148 149
148 150
148 151
148 152
148 153
148 156
148 170
148 175
148 201
148 216
148 234
148 266
148 272
148 278
148 290
148 303
148 318
148 324
148 348
148 353
148 359
148 375
148 395
148 406
148 416
148 418
148 421
148 422
148 423
148 424
148 425
148 426
148 427
148 429
148 430
148 431
148 432
148 433
148 434
148 435
148 436
148 437
148 438
148 439
148 440
148 444
148 463
148 466
148 469
149 150
149 151
149 152
149 153
149 156
149 170
149 175
149 201
149 216
149 234
149 266
149 272
149 278
149 290
149 303
149 318
149 324
149 348
149 353
149 359
149 375
149 395
149 406
149 416
149 418
149 423
149 428
149 434
149 444
149 463
149 466
149 469
150 151
150 152
150 153
150 156
150 170
150 175
150 199
150 200
150 202
150 216
150 234
150 266
150 267
150 268
150 269
150 270
150 271
150 273
150 278
150 290
150 303
150 304
150 305
150 306
150 307
150 308
150 309
150 310
150 311
150 312
150 313
150 314
150 315
150 316
150 317
150 319
150 320
150 324
150 348
150 349
150 350
150 351
150 352
150 354
150 355
150 356
150 357
150 358
150 375
150 395
150 406
150 407
150 408
150 409
150 410
150 411
150 412
150 413
150 414
150 415
150 417
150 418
150 421
150 422
150 423
150 424
150 425
150 426
150 427
150 428
150 429
150 430
150 431
150 432
150 433
150 435
150 436
150 437
150 438
150 439
150 440
150 444
150 463
150 466
150 467
150 468
150 470
151 152
151 153
151 156
151 170
151 175
151 201
151 216
151 234
151 266
151 272
151 278
151 290
151 303
151 318
151 324
151 348
151 353
151 359
151 375
151 395
151 406
151 416
151 418
151 423
151 428
151 434
151 444
151 463
151 466
151 469
152 153
152 156
152 170
152 175
152 201
152 216
152 234
152 266
152 272
152 278
152 290
152 303
152 318
152 324
152 348
152 353
152 359
152 375
152 395
152 406
152 416
152 418
152 423
152 428
152 434
152 444
152 463
152 466
152 469
153 156
153 170
153 175
153 201
153 216
153 234
153 266
153 272
153 278
153 290
153 303
153 318
153 324
153 348
153 353
153 359
153 375
153 395
153 406
153 416
153 418
153 423
153 428
153 434
153 444
153 463
153 466
153 469
154 155
154 156
154 157
154 158
154 159
154 160
154 161
154 162
154 163
154 164
154 165
154 168
154 169
154 170
154 175
154 178
154 180
154 182
154 191
154 193
154 194
154 195
154 196
154 197
154 198
154 208
154 212
154 213
154 215
154 216
154 217
154 218
154 219
154 220
154 221
154 222
154 223
154 224
154 225
154 228
154 229
154 231
154 232
154 233
154 234
154 235
154 236
154 237
154 238
154 239
154 240
154 241
154 242
154 243
154 244
154 245
154 246
154 247
154 248
154 249
154 250
154 256
154 262
154 266
154 287
154 289
154 290
154 291
154 292
154 293
154 294
154 295
154 296
154 297
154 298
154 299
154 300
154 301
154 302
154 306
154 320
154 321
154 323
154 324
154 325
154 326
154 327
154 328
154 329
154 330
154 331
154 332
154 333
154 334
154 343
154 347
154 348
154 360
154 362
154 363
154 364
154 365
154 366
154 367
154 368
154 369
154 372
154 374
154 375
154 376
154 377
154 378
154 379
154 380
154 381
154 382
154 383
154 384
154 385
154 412
154 418
154 422
154 423
154 424
154 425
154 426
154 427
154 428
154 429
154 430
154 431
154 432
154 433
154 434
154 435
154 436
154 437
154 438
154 439
154 440
154 443
154 449
154 450
154 452
154 453
154 454
154 455
154 456
154 457
154 458
154 459
154 460
154 466
155 156
155 157
155 158
155 159
155 160
155 161
155 162
155 163
155 164
155 165
155 168
155 169
155 170
155 175
155 178
155 180
155 182
155 191
155 192
155 194
155 195
155 196
155 197
155 198
155 208
155 212
155 213
155 214
155 216
155 217
155 218
155 219
155 220
155 221
155 222
155 223
155 224
155 225
155 228
155 229
155 230
155 231
155 233
155 234
155 235
155 236
155 237
155 238
155 239
155 240
155 241
155 242
155 243
155 244
155 245
155 246
155 247
155 248
155 249
155 250
155 255
155 257
155 258
155 259
155 260
155 261
155 262
155 263
155 264
155 265
155 266
155 287
155 288
155 290
155 291
155 292
155 293
155 294
155 295
155 296
155 297
155 298
155 299
155 300
155 301
155 302
155 303
155 304
155 305
155 307
155 308
155 309
155 310
155 311
155 312
155 313
155 314
155 315
155 316
155 317
155 318
155 319
155 320
155 321
155 322
155 324
155 325
155 326
155 327
155 328
155 329
155 330
155 331
155 332
155 333
155 334
155 343
155 347
155 348
155 360
155 361
155 363
155 364
155 365
155 366
155 367
155 368
155 369
155 372
155 373
155 375
155 376
155 377
155 378
155 379
155 380
155 381
155 382
155 383
155 384
155 385
155 412
155 418
155 421
155 423
155 424
155 425
155 426
155 427
155 428
155 429
155 430
155 431
155 432
155 433
155 434
155 435
155 436
155 437
155 438
155 439
155 440
155 443
155 449
155 450
155 451
155 453
155 454
155 455
155 456
155 457
155 458
155 459
155 460
155 466
156 157
156 158
156 159
156 160
156 161
156 162
156 163
156 164
156 165
156 168
156 169
156 171
156 172
156 173
156 174
156 176
156 177
156 178
156 179
156 180
156 181
156 182
156 183
156 184
156 185
156 192
156 193
156 194
156 195
156 197
156 198
156 208
156 212
156 213
156 214
156 215
156 217
156 218
156 219
156 220
156 221
156 222
156 223
156 224
156 225
156 228
156 229
156 230
156 231
156 232
156 233
156 235
156 236
156 237
156 238
156 239
156 240
156 241
156 242
156 243
156 244
156 245
156 246
156 247
156 248
156 249
156 250
156 256
156 262
156 267
156 268
156 269
156 270
156 271
156 272
156 273
156 287
156 288
156 289
156 291
156 292
156 293
156 294
156 295
156 296
156 297
156 298
156 299
156 300
156 301
156 302
156 306
156 320
156 321
156 322
156 323
156 325
156 326
156 327
156 328
156 329
156 330
156 331
156 332
156 333
156 334
156 343
156 347
156 349
156 350
156 351
156 352
156 353
156 354
156 355
156 361
156 362
156 363
156 364
156 366
156 367
156 368
156 369
156 372
156 373
156 374
156 376
156 377
156 378
156 379
156 380
156 381
156 382
156 383
156 384
156 385
156 412
156 419
156 420
156 421
156 422
156 424
156 425
156 426
156 427
156 428
156 429
156 430
156 431
156 432
156 433
156 434
156 435
156 436
156 437
156 438
156 439
156 440
156 443
156 449
156 451
156 452
156 453
156 454
156 457
156 458
156 459
156 460
156 467
156 468
156 469
156 470
157 158
157 159
157 160
157 161
157 162
157 163
157 164
157 165
157 168
157 169
157 170
157 175
157 178
157 180
157 182
157 191
157 192
157 193
157 195
157 196
157 197
157 198
157 208
157 212
157 213
157 214
157 215
157 216
157 218
157 219
157 220
157 221
157 222
157 223
157 224
157 225
157 228
157 229
157 230
157 231
157 232
157 233
157 234
157 235
157 237
157 238
157 239
157 240
157 241
157 242
157 243
157 244
157 245
157 246
157 247
157 248
157 249
157 250
157 256
157 262
157 266
157 287
157 288
157 289
157 290
157 292
157 293
157 294
157 295
157 296
157 297
157 298
157 299
157 300
157 301
157 302
157 306
157 320
157 321
157 322
157 323
157 324
157 326
157 327
157 328
157 329
157 330
157 331
157 332
157 333
157 334
157 343
157 347
157 348
157 360
157 361
157 362
157 364
157 365
157 366
157 367
157 368
157 369
157 372
157 373
157 374
157 375
157 377
157 378
157 379
157 380
157 381
157 382
157 383
157 384
157 385
157 412
157 418
157 421
157 422
157 423
157 425
157 426
157 427
157 428
157 429
157 430
157 431
157 432
157 433
157 434
157 435
157 436
157 437
157 438
157 439
157 440
157 443
157 449
157 450
157 451
157 452
157 454
157 455
157 456
157 457
157 458
157 459
157 460
157 466
158 159
158 160
158 161
158 162
158 163
158 164
158 165
158 168
158 169
158 170
158 174
158 175
158 176
158 177
158 179
158 180
158 181
158 182
158 183
158 184
158 185
158 191
158 192
158 193
158 194
158 196
158 197
158 198
158 208
158 212
158 213
158 214
158 215
158 216
158 217
158 219
158 220
158 221
158 222
158 223
158 224
158 225
158 228
158 229
158 230
158 231
158 232
158 233
158 234
158 235
158 236
158 237
158 239
158 240
158 241
158 242
158 243
158 244
158 245
158 246
158 247
158 248
158 249
158 250
158 256
158 262
158 266
158 287
158 288
158 289
158 290
158 291
158 292
158 294
158 295
158 296
158 297
158 298
158 299
158 300
158 301
158 302
158 306
158 320
158 321
158 322
158 323
158 324
158 325
158 327
158 328
158 329
158 330
158 331
158 332
158 333
158 334
158 343
158 347
158 348
158 360
158 361
158 362
158 363
158 365
158 366
158 367
158 368
158 369
158 372
158 373
158 374
158 375
158 376
158 378
158 379
158 380
158 381
158 382
158 383
158 384
158 385
158 412
158 418
158 421
158 422
158 423
158 424
158 425
158 426
158 427
158 428
158 430
158 431
158 432
158 433
158 434
158 435
158 436
158 437
158 438
158 439
158 440
158 443
158 449
158 450
158 451
158 452
158 453
158 455
158 456
158 457
158 458
158 459
158 460
158 466
159 160
159 161
159 162
159 163
159 164
159 165
159 169
159 170
159 174
159 175
159 176
159 177
159 178
159 179
159 181
159 182
159 183
159 184
159 185
159 192
159 193
159 194
159 195
159 197
159 198
159 208
159 212
159 213
159 214
159 215
159 216
159 217
159 218
159 220
159 221
159 222
159 223
159 224
159 225
159 228
159 229
159 230
159 231
159 232
159 233
159 234
159 235
159 236
159 237
159 238
159 239
159 241
159 242
159 243
159 244
159 245
159 246
159 247
159 248
159 249
159 250
159 256
159 262
159 266
159 287
159 288
159 289
159 290
159 291
159 292
159 293
159 294
159 295
159 297
159 298
159 299
159 300
159 301
159 302
159 306
159 320
159 321
159 322
159 323
159 324
159 325
159 326
159 327
159 329
159 330
159 331
159 332
159 333
159 334
159 343
159 347
159 348
159 361
159 362
159 363
159 364
159 366
159 367
159 368
159 369
159 372
159 373
159 374
159 375
159 376
159 377
159 379
159 380
159 381
159 382
159 383
159 384
159 385
159 412
159 418
159 421
159 422
159 423
159 424
159 425
159 426
159 427
159 428
159 429
159 430
159 432
159 433
159 434
159 435
159 436
159 437
159 438
159 439
159 440
159 443
159 449
159 451
159 452
159 453
159 454
159 457
159 458
159 459
159 460
159 466
160 161
160 162
160 163
160 164
160 165
160 168
160 169
160 170
160 174
160 175
160 176
160 177
160 178
160 179
160 180
160 181
160 183
160 184
160 185
160 192
160 193
160 194
160 195
160 197
160 198
160 203
160 204
160 205
160 206
160 207
160 209
160 210
160 211
160 212
160 214
160 215
160 216
160 217
160 218
160 219
160 222
160 223
160 224
160 225
160 230
160 232
160 234
160 236
160 238
160 240
160 247
160 248
160 249
160 250
160 255
160 256
160 257
160 258
160 259
160 260
160 261
160 263
160 264
160 265
160 266
160 288
160 289
160 290
160 291
160 293
160 296
160 299
160 300
160 301
160 302
160 306
160 320
160 322
160 323
160 324
160 325
160 326
160 328
160 331
160 332
160 333
160 334
160 340
160 341
160 342
160 344
160 345
160 346
160 347
160 348
160 361
160 362
160 363
160 364
160 366
160 367
160 368
160 369
160 372
160 373
160 374
160 375
160 376
160 377
160 378
160 379
160 381
160 382
160 383
160 384
160 385
160 406
160 407
160 408
160 409
160 410
160 411
160 413
160 414
160 415
160 416
160 417
160 418
160 421
160 422
160 423
160 424
160 425
160 426
160 427
160 428
160 429
160 430
160 431
160 433
160 434
160 435
160 436
160 437
160 438
160 439
160 440
160 443
160 449
160 451
160 452
160 453
160 454
160 457
160 458
160 459
160 460
160 466
161 162
161 163
161 164
161 165
161 168
161 170
161 175
161 178
161 180
161 182
161 192
161 193
161 194
161 195
161 197
161 198
161 208
161 212
161 214
161 215
161 216
161 217
161 218
161 219
161 222
161 223
161 224
161 225
161 230
161 232
161 234
161 236
161 238
161 240
161 247
161 248
161 249
161 250
161 256
161 262
161 266
161 288
161 289
161 290
161 291
161 293
161 296
161 299
161 300
161 301
161 302
161 306
161 320
161 322
161 323
161 324
161 325
161 326
161 328
161 331
161 332
161 333
161 334
161 343
161 347
161 348
161 361
161 362
161 363
161 364
161 366
161 367
161 368
161 369
161 373
161 374
161 375
161 376
161 377
161 378
161 380
161 382
161 383
161 384
161 385
161 412
161 418
161 421
161 422
161 423
161 424
161 429
161 431
161 432
161 435
161 436
161 437
161 440
161 443
161 449
161 451
161 452
161 453
161 454
161 457
161 458
161 459
161 460
161 466
162 163
162 164
162 165
162 168
162 169
162 170
162 175
162 178
162 180
162 182
162 191
162 192
162 193
162 194
162 195
162 196
162 198
162 208
162 212
162 213
162 214
162 215
162 216
162 217
162 218
162 219
162 220
162 221
162 223
162 224
162 225
162 228
162 229
162 230
162 231
162 232
162 233
162 234
162 235
162 236
162 237
162 238
162 239
162 240
162 241
162 242
162 243
162 244
162 245
162 246
162 248
162 249
162 250
162 256
162 262
162 266
162 287
162 288
162 289
162 290
162 291
162 292
162 293
162 294
162 295
162 296
162 297
162 298
162 300
162 301
162 302
162 306
162 320
162 321
162 322
162 323
162 324
162 325
162 326
162 327
162 328
162 329
162 330
162 332
162 333
162 334
162 343
162 347
162 348
162 360
162 361
162 362
162 363
162 364
162 365
162 367
162 368
162 369
162 372
162 373
162 374
162 375
162 376
162 377
162 378
162 379
162 380
162 381
162 383
162 384
162 385
162 412
162 418
162 421
162 422
162 423
162 424
162 425
162 426
162 427
162 428
162 429
162 430
162 431
162 432
162 433
162 434
162 436
162 437
162 438
162 439
162 440
162 443
162 449
162 450
162 451
162 452
162 453
162 454
162 455
162 456
162 458
162 459
162 460
162 466
163 164
163 165
163 168
163 169
163 170
163 175
163 178
163 180
163 182
163 192
163 193
163 194
163 195
163 197
163 198
163 208
163 212
163 213
163 214
163 215
163 216
163 217
163 218
163 219
163 220
163 221
163 222
163 224
163 225
163 228
163 229
163 230
163 231
163 232
163 233
163 234
163 235
163 236
163 237
163 238
163 239
163 240
163 241
163 242
163 243
163 244
163 245
163 246
163 247
163 249
163 250
163 256
163 262
163 266
163 287
163 288
163 289
163 290
163 291
163 292
163 293
163 294
163 295
163 296
163 297
163 298
163 299
163 301
163 302
163 306
163 320
163 321
163 322
163 323
163 324
163 325
163 326
163 327
163 328
163 329
163 330
163 331
163 333
163 334
163 343
163 347
163 348
163 360
163 361
163 362
163 363
163 364
163 365
163 366
163 368
163 369
163 372
163 373
163 374
163 375
163 376
163 377
163 378
163 379
163 380
163 381
163 382
163 384
163 385
163 412
163 418
163 421
163 422
163 423
163 424
163 425
163 426
163 427
163 428
163 429
163 430
163 431
163 432
163 433
163 434
163 435
163 437
163 438
163 439
163 440
163 443
163 449
163 450
163 451
163 452
163 453
163 454
163 455
163 456
163 457
163 459
163 460
163 466
164 165
164 168
164 169
164 170
164 175
164 178
164 180
164 182
164 191
164 192
164 193
164 194
164 195
164 196
164 197
164 203
164 204
164 205
164 206
164 207
164 208
164 209
164 210
164 211
164 213
164 214
164 215
164 216
164 217
164 218
164 219
164 220
164 221
164 222
164 223
164 225
164 228
164 229
164 230
164 231
164 232
164 233
164 234
164 235
164 236
164 237
164 238
164 239
164 240
164 241
164 242
164 243
164 244
164 245
164 246
164 247
164 248
164 250
164 256
164 262
164 266
164 287
164 288
164 289
164 290
164 291
164 292
164 293
164 294
164 295
164 296
164 297
164 298
164 299
164 300
164 302
164 303
164 304
164 305
164 306
164 307
164 308
164 309
164 310
164 311
164 312
164 313
164 314
164 315
164 316
164 317
164 318
164 319
164 321
164 322
164 323
164 324
164 325
164 326
164 327
164 328
164 329
164 330
164 331
164 332
164 334
164 340
164 341
164 342
164 343
164 344
164 345
164 346
164 348
164 360
164 361
164 362
164 363
164 364
164 365
164 366
164 367
164 369
164 372
164 373
164 374
164 375
164 376
164 377
164 378
164 379
164 380
164 381
164 382
164 383
164 385
164 412
164 418
164 421
164 422
164 423
164 424
164 425
164 426
164 427
164 428
164 429
164 430
164 431
164 432
164 433
164 434
164 435
164 436
164 438
164 439
164 440
164 441
164 442
164 447
164 448
164 450
164 451
164 452
164 453
164 454
164 455
164 456
164 457
164 458
164 460
164 466
165 168
165 169
165 170
165 175
165 178
165 180
165 182
165 192
165 193
165 194
165 195
165 197
165 198
165 208
165 212
165 213
165 214
165 215
165 216
165 217
165 218
165 219
165 220
165 221
165 222
165 223
165 224
165 228
165 229
165 230
165 231
165 232
165 233
165 234
165 235
165 236
165 237
165 238
165 239
165 240
165 241
165 242
165 243
165 244
165 245
165 246
165 247
165 248
165 249
165 256
165 262
165 266
165 287
165 288
165 289
165 290
165 291
165 292
165 293
165 294
165 295
165 296
165 297
165 298
165 299
165 300
165 301
165 306
165 320
165 321
165 322
165 323
165 324
165 325
165 326
165 327
165 328
165 329
165 330
165 331
165 332
165 333
165 343
165 347
165 348
165 360
165 361
165 362
165 363
165 364
165 365
165 366
165 367
165 368
165 372
165 373
165 374
165 375
165 376
165 377
165 378
165 379
165 380
165 381
165 382
165 383
165 384
165 412
165 418
165 421
165 422
165 423
165 424
165 425
165 426
165 427
165 428
165 429
165 430
165 431
165 432
165 433
165 434
165 435
165 436
165 437
165 438
165 439
165 443
165 449
165 450
165 451
165 452
165 453
165 454
165 455
165 456
165 457
165 458
165 459
165 466
166 167
166 187
166 189
166 190
166 199
166 201
166 202
166 203
166 204
166 205
166 206
166 208
166 209
166 210
166 211
166 212
166 228
166 229
166 230
166 231
166 232
166 233
166 234
166 235
166 236
166 237
166 238
166 240
166 241
166 242
166 243
166 244
166 245
166 246
166 247
166 248
166 249
166 250
166 255
166 256
166 257
166 258
166 259
166 261
166 262
166 263
166 264
166 265
166 266
166 267
166 268
166 269
166 271
166 272
166 273
166 278
166 279
166 280
166 281
166 282
166 283
166 284
166 286
166 287
166 288
166 289
166 290
166 291
166 292
166 293
166 294
166 296
166 297
166 298
166 299
166 300
166 301
166 302
166 303
166 304
166 305
166 306
166 307
166 308
166 309
166 310
166 312
166 313
166 314
166 315
166 316
166 317
166 318
166 319
166 320
166 321
166 322
166 323
166 324
166 325
166 326
166 328
166 329
166 330
166 331
166 332
166 333
166 334
166 335
166 336
166 338
166 339
166 348
166 349
166 350
166 351
166 353
166 354
166 355
166 356
166 357
166 359
166 389
166 390
166 392
166 395
166 396
166 398
166 399
166 401
166 403
166 405
166 406
166 407
166 408
166 409
166 411
166 412
166 413
166 414
166 415
166 416
166 417
166 421
166 422
166 423
166 424
166 425
166 426
166 427
166 428
166 429
166 431
166 432
166 433
166 434
166 435
166 436
166 437
166 438
166 439
166 440
166 463
166 465
167 186
167 188
167 200
167 207
167 239
167 260
167 270
167 285
167 295
167 311
167 327
167 337
167 352
167 358
167 391
167 397
167 400
167 402
167 404
167 410
167 430
167 464
168 169
168 174
168 175
168 176
168 177
168 178
168 179
168 181
168 182
168 183
168 184
168 185
168 213
168 214
168 215
168 216
168 217
168 218
168 220
168 221
168 222
168 223
168 224
168 225
168 228
168 229
168 230
168 231
168 232
168 233
168 234
168 235
168 236
168 237
168 238
168 239
168 241
168 242
168 243
168 244
168 245
168 246
168 247
168 248
168 249
168 250
168 287
168 288
168 289
168 290
168 291
168 292
168 293
168 294
168 295
168 297
168 298
168 299
168 300
168 301
168 302
168 321
168 322
168 323
168 324
168 325
168 326
168 327
168 329
168 330
168 331
168 332
168 333
168 334
168 372
168 373
168 374
168 375
168 376
168 377
168 379
168 380
168 381
168 382
168 383
168 384
168 385
168 421
168 422
168 423
168 424
168 425
168 426
168 427
168 428
168 429
168 430
168 432
168 433
168 434
168 435
168 436
168 437
168 438
168 439
168 440
169 180
169 219
169 240
169 296
169 328
169 378
169 431
170 171
170 172
170 173
170 174
170 176
170 177
170 178
170 179
170 180
170 181
170 182
170 183
170 184
170 185
170 210
170 213
170 214
170 215
170 217
170 218
170 219
170 220
170 221
170 222
170 223
170 224
170 225
170 228
170 229
170 230
170 231
170 232
170 233
170 235
170 236
170 237
170 238
170 239
170 240
170 241
170 242
170 243
170 244
170 245
170 246
170 247
170 248
170 249
170 250
170 264
170 267
170 268
170 269
170 270
170 271
170 272
170 273
170 287
170 288
170 289
170 291
170 292
170 293
170 294
170 295
170 296
170 297
170 298
170 299
170 300
170 301
170 302
170 316
170 321
170 322
170 323
170 325
170 326
170 327
170 328
170 329
170 330
170 331
170 332
170 333
170 334
170 345
170 349
170 350
170 351
170 352
170 353
170 354
170 355
170 372
170 373
170 374
170 376
170 377
170 378
170 379
170 380
170 381
170 382
170 383
170 384
170 385
170 387
170 414
170 419
170 420
170 421
170 422
170 424
170 425
170 426
170 427
170 428
170 429
170 430
170 431
170 432
170 433
170 434
170 435
170 436
170 437
170 438
170 439
170 440
170 467
170 468
170 469
170 470
170 472
170 473
171 172
171 173
171 175
171 184
171 210
171 216
171 234
171 245
171 264
171 266
171 267
171 268
171 269
171 270
171 272
171 273
171 290
171 316
171 324
171 345
171 348
171 375
171 387
171 414
171 418
171 423
171 433
171 438
171 466
171 471
171 473
172 173
172 174
172 175
172 176
172 177
172 178
172 179
172 180
172 181
172 182
172 183
172 185
172 203
172 204
172 205
172 206
172 207
172 208
172 209
172 211
172 212
172 216
172 228
172 229
172 230
172 231
172 232
172 233
172 234
172 235
172 236
172 237
172 238
172 239
172 240
172 241
172 242
172 243
172 244
172 246
172 247
172 248
172 249
172 250
172 255
172 256
172 257
172 258
172 259
172 260
172 261
172 262
172 263
172 265
172 266
172 271
172 290
172 303
172 304
172 305
172 306
172 307
172 308
172 309
172 310
172 311
172 312
172 313
172 314
172 315
172 317
172 318
172 319
172 320
172 324
172 340
172 341
172 342
172 343
172 344
172 346
172 347
172 348
172 375
172 386
172 406
172 407
172 408
172 409
172 410
172 411
172 412
172 413
172 415
172 416
172 417
172 418
172 421
172 422
172 423
172 424
172 425
172 426
172 427
172 428
172 429
172 430
172 431
172 432
172 434
172 435
172 436
172 437
172 438
172 439
172 440
172 466
172 472
172 473
173 175
173 184
173 210
173 216
173 234
173 245
173 264
173 266
173 271
173 290
173 316
173 324
173 345
173 348
173 375
173 387
173 414
173 418
173 421
173 422
173 423
173 424
173 425
173 426
173 427
173 428
173 429
173 430
173 431
173 432
173 433
173 434
173 435
173 436
173 437
173 439
173 440
173 466
173 471
173 472
174 175
174 176
174 177
174 178
174 179
174 180
174 181
174 182
174 183
174 184
174 185
174 195
174 204
174 205
174 206
174 207
174 208
174 209
174 210
174 211
174 212
174 216
174 218
174 219
174 228
174 230
174 231
174 232
174 233
174 234
174 235
174 236
174 237
174 238
174 239
174 240
174 241
174 242
174 243
174 244
174 245
174 246
174 247
174 248
174 249
174 250
174 256
174 257
174 258
174 259
174 260
174 261
174 262
174 263
174 264
174 265
174 266
174 290
174 293
174 294
174 296
174 303
174 304
174 306
174 307
174 308
174 309
174 310
174 311
174 312
174 313
174 314
174 315
174 316
174 317
174 318
174 319
174 320
174 324
174 326
174 328
174 341
174 342
174 343
174 344
174 345
174 346
174 347
174 348
174 364
174 375
174 377
174 378
174 380
174 387
174 407
174 409
174 411
174 412
174 413
174 414
174 415
174 418
174 423
174 429
174 431
174 432
174 433
174 454
174 466
175 176
175 177
175 178
175 179
175 180
175 181
175 182
175 183
175 184
175 185
175 195
175 203
175 204
175 206
175 208
175 209
175 210
175 211
175 213
175 214
175 215
175 217
175 218
175 219
175 220
175 221
175 222
175 223
175 224
175 225
175 228
175 229
175 230
175 231
175 232
175 233
175 235
175 236
175 237
175 238
175 239
175 240
175 241
175 242
175 243
175 244
175 245
175 246
175 247
175 248
175 249
175 250
175 255
175 257
175 259
175 261
175 262
175 263
175 264
175 265
175 267
175 268
175 269
175 270
175 271
175 272
175 273
175 287
175 288
175 289
175 291
175 292
175 293
175 294
175 295
175 296
175 297
175 298
175 299
175 300
175 301
175 302
175 305
175 310
175 313
175 315
175 316
175 317
175 321
175 322
175 323
175 325
175 326
175 327
175 328
175 329
175 330
175 331
175 332
175 333
175 334
175 340
175 341
175 342
175 343
175 344
175 345
175 346
175 349
175 350
175 351
175 352
175 353
175 354
175 355
175 364
175 372
175 373
175 374
175 376
175 377
175 378
175 379
175 380
175 381
175 382
175 383
175 384
175 385
175 387
175 407
175 409
175 411
175 412
175 413
175 414
175 415
175 419
175 420
175 421
175 422
175 424
175 425
175 426
175 427
175 428
175 429
175 430
175 431
175 432
175 433
175 434
175 435
175 436
175 437
175 438
175 439
175 440
175 454
175 467
175 468
175 469
175 470
176 177
176 178
176 179
176 180
176 181
176 182
176 183
176 184
176 185
176 195
176 203
176 205
176 206
176 207
176 208
176 209
176 210
176 211
176 212
176 216
176 218
176 219
176 228
176 229
176 230
176 231
176 232
176 233
176 234
176 236
176 237
176 238
176 239
176 240
176 241
176 242
176 243
176 244
176 245
176 246
176 247
176 248
176 249
176 250
176 255
176 256
176 258
176 259
176 260
176 261
176 262
176 263
176 264
176 265
176 266
176 290
176 293
176 294
176 296
176 305
176 310
176 313
176 315
176 316
176 317
176 324
176 326
176 328
176 340
176 342
176 343
176 344
176 345
176 346
176 347
176 348
176 364
176 375
176 377
176 378
176 380
176 387
176 407
176 409
176 411
176 412
176 413
176 414
176 415
176 418
176 423
176 429
176 431
176 432
176 433
176 454
176 466
177 178
177 179
177 180
177 181
177 182
177 183
177 184
177 185
177 195
177 203
177 204
177 206
177 208
177 209
177 210
177 211
177 216
177 218
177 219
177 229
177 234
177 235
177 238
177 240
177 244
177 245
177 246
177 255
177 257
177 259
177 261
177 262
177 263
177 264
177 265
177 266
177 290
177 293
177 294
177 296
177 305
177 310
177 313
177 315
177 316
177 317
177 324
177 326
177 328
177 340
177 341
177 342
177 343
177 344
177 345
177 346
177 348
177 364
177 375
177 377
177 378
177 380
177 387
177 406
177 408
177 409
177 410
177 411
177 412
177 413
177 414
177 415
177 416
177 417
177 418
177 423
177 429
177 431
177 432
177 433
177 454
177 466
178 179
178 180
178 181
178 182
178 183
178 184
178 185
178 191
178 192
178 193
178 194
178 196
178 197
178 198
178 203
178 204
178 206
178 208
178 209
178 210
178 211
178 213
178 214
178 215
178 216
178 217
178 219
178 220
178 221
178 222
178 223
178 224
178 225
178 228
178 229
178 230
178 231
178 232
178 233
178 234
178 235
178 236
178 237
178 239
178 240
178 241
178 242
178 243
178 244
178 245
178 246
178 247
178 248
178 249
178 250
178 255
178 257
178 259
178 261
178 262
178 263
178 264
178 265
178 266
178 287
178 288
178 289
178 290
178 291
178 292
178 294
178 295
178 296
178 297
178 298
178 299
178 300
178 301
178 302
178 305
178 310
178 313
178 315
178 316
178 317
178 321
178 322
178 323
178 324
178 325
178 327
178 328
178 329
178 330
178 331
178 332
178 333
178 334
178 340
178 341
178 342
178 343
178 344
178 345
178 346
178 348
178 360
178 361
178 362
178 363
178 365
178 366
178 367
178 368
178 369
178 372
178 373
178 374
178 375
178 376
178 378
178 379
178 380
178 381
178 382
178 383
178 384
178 385
178 387
178 407
178 409
178 411
178 412
178 413
178 414
178 415
178 418
178 421
178 422
178 423
178 424
178 425
178 426
178 427
178 428
178 430
178 431
178 432
178 433
178 434
178 435
178 436
178 437
178 438
178 439
178 440
178 450
178 451
178 452
178 453
178 455
178 456
178 457
178 458
178 459
178 460
178 466
179 180
179 181
179 182
179 183
179 184
179 185
179 195
179 203
179 204
179 205
179 207
179 208
179 209
179 210
179 211
179 212
179 216
179 218
179 219
179 229
179 234
179 235
179 238
179 240
179 244
179 245
179 246
179 255
179 256
179 257
179 258
179 260
179 261
179 262
179 263
179 264
179 265
179 266
179 287
179 288
179 289
179 290
179 291
179 292
179 293
179 295
179 296
179 297
179 298
179 299
179 300
179 301
179 302
179 303
179 304
179 305
179 306
179 307
179 308
179 309
179 311
179 312
179 313
179 314
179 315
179 316
179 317
179 318
179 319
179 320
179 324
179 326
179 328
179 340
179 341
179 343
179 344
179 345
179 346
179 347
179 348
179 364
179 375
179 377
179 378
179 380
179 387
179 406
179 407
179 408
179 410
179 411
179 412
179 413
179 414
179 415
179 416
179 417
179 418
179 423
179 429
179 431
179 432
179 433
179 454
179 466
180 181
180 182
180 183
180 184
180 185
180 195
180 203
180 204
180 206
180 208
180 209
180 210
180 211
180 213
180 214
180 215
180 216
180 217
180 218
180 220
180 221
180 222
180 223
180 224
180 225
180 228
180 229
180 230
180 231
180 232
180 233
180 234
180 235
180 236
180 237
180 238
180 239
180 241
180 242
180 243
180 244
180 245
180 246
180 247
180 248
180 249
180 250
180 255
180 257
180 259
180 261
180 262
180 263
180 264
180 265
180 266
180 287
180 288
180 289
180 290
180 291
180 292
180 293
180 294
180 295
180 297
180 298
180 299
180 300
180 301
180 302
180 305
180 310
180 313
180 315
180 316
180 317
180 321
180 322
180 323
180 324
180 325
180 326
180 327
180 329
180 330
180 331
180 332
180 333
180 334
180 340
180 341
180 342
180 343
180 344
180 345
180 346
180 348
180 364
180 372
180 373
180 374
180 375
180 376
180 377
180 379
180 380
180 381
180 382
180 383
180 384
180 385
180 387
180 407
180 409
180 411
180 412
180 413
180 414
180 415
180 418
180 421
180 422
180 423
180 424
180 425
180 426
180 427
180 428
180 429
180 430
180 432
180 433
180 434
180 435
180 436
180 437
180 438
180 439
180 440
180 454
180 466
181 182
181 183
181 184
181 185
181 195
181 203
181 204
181 206
181 208
181 209
181 210
181 211
181 216
181 218
181 219
181 229
181 234
181 235
181 238
181 240
181 244
181 245
181 246
181 255
181 256
181 257
181 258
181 259
181 260
181 262
181 263
181 264
181 265
181 266
181 290
181 293
181 294
181 296
181 303
181 304
181 305
181 306
181 307
181 308
181 309
181 310
181 311
181 312
181 314
181 315
181 316
181 317
181 318
181 319
181 320
181 324
181 326
181 328
181 340
181 341
181 342
181 343
181 344
181 345
181 346
181 348
181 364
181 375
181 377
181 378
181 380
181 387
181 406
181 407
181 408
181 409
181 410
181 412
181 413
181 414
181 415
181 416
181 417
181 418
181 423
181 429
181 431
181 432
181 433
181 454
181 466
182 183
182 184
182 185
182 195
182 203
182 204
182 205
182 206
182 207
182 209
182 210
182 211
182 212
182 216
182 218
182 219
182 229
182 234
182 235
182 238
182 240
182 244
182 245
182 246
182 255
182 256
182 257
182 258
182 259
182 260
182 261
182 263
182 264
182 265
182 266
182 290
182 293
182 294
182 296
182 305
182 310
182 313
182 315
182 316
182 317
182 324
182 326
182 328
182 340
182 341
182 342
182 344
182 345
182 346
182 347
182 348
182 364
182 372
182 373
182 374
182 375
182 376
182 377
182 378
182 379
182 381
182 382
182 383
182 384
182 385
182 387
182 406
182 407
182 408
182 409
182 410
182 411
182 413
182 414
182 415
182 416
182 417
182 418
182 421
182 422
182 423
182 424
182 425
182 426
182 427
182 428
182 429
182 430
182 431
182 433
182 434
182 435
182 436
182 437
182 438
182 439
182 440
182 454
182 466
183 184
183 185
183 195
183 203
183 204
183 205
183 206
183 207
183 208
183 210
183 211
183 212
183 216
183 218
183 219
183 228
183 229
183 230
183 231
183 232
183 233
183 234
183 235
183 236
183 237
183 238
183 239
183 240
183 241
183 242
183 243
183 245
183 246
183 247
183 248
183 249
183 250
183 255
183 256
183 257
183 258
183 259
183 260
183 261
183 262
183 264
183 265
183 266
183 290
183 293
183 294
183 296
183 303
183 304
183 305
183 306
183 307
183 308
183 309
183 310
183 311
183 312
183 313
183 314
183 316
183 317
183 318
183 319
183 320
183 324
183 326
183 328
183 340
183 341
183 342
183 343
183 345
183 346
183 347
183 348
183 364
183 375
183 377
183 378
183 380
183 387
183 406
183 407
183 408
183 409
183 410
183 411
183 412
183 414
183 415
183 416
183 417
183 418
183 423
183 429
183 431
183 432
183 433
183 454
183 466
184 185
184 195
184 203
184 204
184 205
184 206
184 207
184 208
184 209
184 211
184 212
184 216
184 218
184 219
184 228
184 229
184 230
184 231
184 232
184 233
184 234
184 235
184 236
184 237
184 238
184 239
184 240
184 241
184 242
184 243
184 244
184 246
184 247
184 248
184 249
184 250
184 255
184 256
184 257
184 258
184 259
184 260
184 261
184 262
184 263
184 265
184 266
184 290
184 293
184 294
184 296
184 303
184 304
184 305
184 306
184 307
184 308
184 309
184 310
184 311
184 312
184 313
184 314
184 315
184 317
184 318
184 319
184 320
184 324
184 326
184 328
184 340
184 341
184 342
184 343
184 344
184 346
184 347
184 348
184 364
184 375
184 377
184 378
184 380
184 386
184 406
184 407
184 408
184 409
184 410
184 411
184 412
184 413
184 415
184 416
184 417
184 418
184 421
184 422
184 423
184 424
184 425
184 426
184 427
184 428
184 429
184 430
184 431
184 432
184 434
184 435
184 436
184 437
184 438
184 439
184 440
184 454
184 466
185 195
185 203
185 204
185 205
185 206
185 207
185 208
185 209
185 210
185 212
185 216
185 218
185 219
185 228
185 229
185 230
185 231
185 232
185 233
185 234
185 235
185 236
185 237
185 238
185 239
185 240
185 241
185 242
185 243
185 244
185 245
185 247
185 248
185 249
185 250
185 255
185 256
185 257
185 258
185 259
185 260
185 261
185 262
185 263
185 264
185 266
185 290
185 293
185 294
185 296
185 303
185 304
185 305
185 306
185 307
185 308
185 309
185 310
185 311
185 312
185 313
185 314
185 315
185 316
185 318
185 319
185 320
185 324
185 326
185 328
185 340
185 341
185 342
185 343
185 344
185 345
185 347
185 348
185 364
185 375
185 377
185 378
185 380
185 387
185 406
185 407
185 408
185 409
185 410
185 411
185 412
185 413
185 414
185 416
185 417
185 418
185 423
185 429
185 431
185 432
185 433
185 454
185 466
186 187
186 189
186 190
186 199
186 201
186 202
186 203
186 204
186 205
186 206
186 208
186 209
186 210
186 211
186 212
186 228
186 229
186 230
186 231
186 232
186 233
186 234
186 235
186 236
186 237
186 238
186 240
186 241
186 242
186 243
186 244
186 245
186 246
186 247
186 248
186 249
186 250
186 255
186 256
186 257
186 258
186 259
186 261
186 262
186 263
186 264
186 265
186 266
186 267
186 268
186 269
186 271
186 272
186 273
186 278
186 279
186 280
186 281
186 282
186 283
186 284
186 286
186 287
186 288
186 289
186 290
186 291
186 292
186 293
186 294
186 296
186 297
186 298
186 299
186 300
186 301
186 302
186 303
186 304
186 305
186 306
186 307
186 308
186 309
186 310
186 312
186 313
186 314
186 315
186 316
186 317
186 318
186 319
186 320
186 321
186 322
186 323
186 324
186 325
186 326
186 328
186 329
186 330
186 331
186 332
186 333
186 334
186 335
186 336
186 338
186 339
186 348
186 349
186 350
186 351
186 353
186 354
186 355
186 356
186 357
186 359
186 389
186 390
186 392
186 395
186 396
186 398
186 399
186 401
186 403
186 405
186 406
186 407
186 408
186 409
186 411
186 412
186 413
186 414
186 415
186 416
186 417
186 421
186 422
186 423
186 424
186 425
186 426
186 427
186 428
186 429
186 431
186 432
186 433
186 434
186 435
186 436
186 437
186 438
186 439
186 440
186 463
186 465
187 188
187 200
187 207
187 239
187 260
187 270
187 285
187 295
187 311
187 327
187 337
187 352
187 358
187 391
187 397
187 400
187 402
187 404
187 410
187 430
187 464
188 189
188 190
188 199
188 201
188 202
188 203
188 204
188 205
188 206
188 208
188 209
188 210
188 211
188 212
188 227
188 228
188 229
188 230
188 231
188 232
188 233
188 234
188 235
188 236
188 237
188 238
188 240
188 241
188 242
188 243
188 244
188 245
188 246
188 247
188 248
188 249
188 250
188 255
188 256
188 257
188 258
188 259
188 261
188 262
188 263
188 264
188 265
188 266
188 267
188 268
188 269
188 271
188 272
188 273
188 278
188 279
188 280
188 281
188 282
188 283
188 284
188 286
188 287
188 288
188 289
188 290
188 291
188 292
188 293
188 294
188 296
188 297
188 298
188 299
188 300
188 301
188 302
188 303
188 304
188 305
188 306
188 307
188 308
188 309
188 310
188 312
188 313
188 314
188 315
188 316
188 317
188 318
188 319
188 320
188 321
188 322
188 323
188 324
188 325
188 326
188 328
188 329
188 330
188 331
188 332
188 333
188 334
188 335
188 336
188 338
188 339
188 348
188 349
188 350
188 351
188 353
188 354
188 355
188 356
188 357
188 359
188 389
188 390
188 392
188 395
188 396
188 398
188 399
188 401
188 403
188 405
188 406
188 407
188 408
188 409
188 411
188 412
188 413
188 414
188 415
188 416
188 417
188 421
188 422
188 423
188 424
188 425
188 426
188 427
188 428
188 429
188 431
188 432
188 433
188 434
188 435
188 436
188 437
188 438
188 439
188 440
188 463
188 465
189 190
189 200
189 207
189 226
189 239
189 260
189 270
189 285
189 295
189 303
189 304
189 305
189 306
189 307
189 308
189 309
189 310
189 311
189 313
189 314
189 315
189 316
189 317
189 318
189 319
189 320
189 327
189 335
189 336
189 337
189 339
189 352
189 358
189 391
189 397
189 400
189 402
189 404
189 410
189 430
189 464
190 200
190 207
190 227
190 239
190 260
190 270
190 285
190 295
190 311
190 312
190 327
190 335
190 336
190 337
190 338
190 352
190 358
190 391
190 397
190 400
190 402
190 404
190 410
190 430
190 464
191 192
191 193
191 194
191 195
191 196
191 197
191 198
191 212
191 214
191 215
191 216
191 217
191 218
191 219
191 220
191 221
191 222
191 223
191 224
191 225
191 229
191 230
191 231
191 232
191 233
191 234
191 235
191 236
191 237
191 238
191 239
191 240
191 241
191 242
191 243
191 244
191 245
191 246
191 247
191 248
191 249
191 250
191 256
191 288
191 289
191 290
191 291
191 292
191 293
191 294
191 295
191 296
191 297
191 298
191 299
191 300
191 301
191 302
191 306
191 320
191 322
191 323
191 324
191 325
191 326
191 327
191 328
191 329
191 330
191 331
191 332
191 333
191 334
191 347
191 361
191 362
191 363
191 364
191 365
191 366
191 367
191 368
191 369
191 373
191 374
191 375
191 376
191 377
191 378
191 379
191 380
191 381
191 382
191 383
191 384
191 385
191 421
191 422
191 424
191 429
191 435
191 437
191 443
191 449
191 451
191 452
191 453
191 454
191 455
191 456
191 457
191 458
191 459
191 460
192 193
192 194
192 195
192 196
192 197
192 198
192 212
192 213
192 215
192 216
192 217
192 218
192 219
192 220
192 221
192 222
192 223
192 224
192 225
192 228
192 229
192 231
192 232
192 233
192 234
192 235
192 236
192 237
192 238
192 239
192 240
192 241
192 242
192 243
192 244
192 245
192 246
192 247
192 248
192 249
192 250
192 256
192 287
192 289
192 290
192 291
192 292
192 293
192 294
192 295
192 296
192 297
192 298
192 299
192 300
192 301
192 302
192 306
192 320
192 321
192 323
192 324
192 325
192 326
192 327
192 328
192 329
192 330
192 331
192 332
192 333
192 334
192 347
192 360
192 362
192 363
192 364
192 365
192 366
192 367
192 368
192 369
192 372
192 374
192 375
192 376
192 377
192 378
192 379
192 380
192 381
192 382
192 383
192 384
192 385
192 422
192 423
192 424
192 425
192 426
192 427
192 428
192 429
192 430
192 431
192 432
192 433
192 434
192 435
192 436
192 437
192 438
192 439
192 440
192 443
192 449
192 450
192 452
192 453
192 454
192 455
192 456
192 457
192 458
192 459
192 460
193 194
193 195
193 196
193 197
193 198
193 212
193 213
193 214
193 216
193 217
193 218
193 219
193 220
193 221
193 222
193 223
193 224
193 225
193 228
193 229
193 230
193 231
193 233
193 234
193 235
193 236
193 237
193 238
193 239
193 240
193 241
193 242
193 243
193 244
193 245
193 246
193 247
193 248
193 249
193 250
193 255
193 257
193 258
193 259
193 260
193 261
193 262
193 263
193 264
193 265
193 287
193 288
193 290
193 291
193 292
193 293
193 294
193 295
193 296
193 297
193 298
193 299
193 300
193 301
193 302
193 303
193 304
193 305
193 307
193 308
193 309
193 310
193 311
193 312
193 313
193 314
193 315
193 316
193 317
193 318
193 319
193 320
193 321
193 322
193 324
193 325
193 326
193 327
193 328
193 329
193 330
193 331
193 332
193 333
193 334
193 347
193 360
193 361
193 363
193 364
193 365
193 366
193 367
193 368
193 369
193 372
193 373
193 375
193 376
193 377
193 378
193 379
193 380
193 381
193 382
193 383
193 384
193 385
193 421
193 423
193 424
193 425
193 426
193 427
193 428
193 429
193 430
193 431
193 432
193 433
193 434
193 435
193 436
193 437
193 438
193 439
193 440
193 443
193 449
193 450
193 451
193 453
193 454
193 455
193 456
193 457
193 458
193 459
193 460
194 195
194 196
194 197
194 198
194 212
194 213
194 214
194 215
194 216
194 218
194 219
194 220
194 221
194 222
194 223
194 224
194 225
194 228
194 229
194 230
194 231
194 232
194 233
194 234
194 235
194 237
194 238
194 239
194 240
194 241
194 242
194 243
194 244
194 245
194 246
194 247
194 248
194 249
194 250
194 256
194 287
194 288
194 289
194 290
194 292
194 293
194 294
194 295
194 296
194 297
194 298
194 299
194 300
194 301
194 302
194 306
194 320
194 321
194 322
194 323
194 324
194 326
194 327
194 328
194 329
194 330
194 331
194 332
194 333
194 334
194 347
194 360
194 361
194 362
194 364
194 365
194 366
194 367
194 368
194 369
194 372
194 373
194 374
194 375
194 377
194 378
194 379
194 380
194 381
194 382
194 383
194 384
194 385
194 421
194 422
194 423
194 425
194 426
194 427
194 428
194 429
194 430
194 431
194 432
194 433
194 434
194 435
194 436
194 437
194 438
194 439
194 440
194 443
194 449
194 450
194 451
194 452
194 454
194 455
194 456
194 457
194 458
194 459
194 460
195 196
195 197
195 198
195 212
195 213
195 214
195 215
195 216
195 217
195 219
195 220
195 221
195 222
195 223
195 224
195 225
195 228
195 229
195 230
195 231
195 232
195 233
195 234
195 235
195 236
195 237
195 239
195 240
195 241
195 242
195 243
195 244
195 245
195 246
195 247
195 248
195 249
195 250
195 256
195 287
195 288
195 289
195 290
195 291
195 292
195 294
195 295
195 296
195 297
195 298
195 299
195 300
195 301
195 302
195 306
195 320
195 321
195 322
195 323
195 324
195 325
195 327
195 328
195 329
195 330
195 331
195 332
195 333
195 334
195 347
195 360
195 361
195 362
195 363
195 365
195 366
195 367
195 368
195 369
195 372
195 373
195 374
195 375
195 376
195 378
195 379
195 380
195 381
195 382
195 383
195 384
195 385
195 421
195 422
195 423
195 424
195 425
195 426
195 427
195 428
195 430
195 431
195 432
195 433
195 434
195 435
195 436
195 437
195 438
195 439
195 440
195 443
195 449
195 450
195 451
195 452
195 453
195 455
195 456
195 457
195 458
195 459
195 460
196 197
196 198
196 212
196 213
196 214
196 215
196 216
196 217
196 218
196 219
196 221
196 222
196 223
196 224
196 225
196 228
196 229
196 230
196 231
196 232
196 233
196 234
196 235
196 236
196 237
196 238
196 239
196 240
196 241
196 243
196 244
196 245
196 246
196 247
196 248
196 249
196 250
196 256
196 287
196 288
196 289
196 290
196 291
196 292
196 293
196 294
196 295
196 296
196 298
196 299
196 300
196 301
196 302
196 306
196 320
196 321
196 322
196 323
196 324
196 325
196 326
196 327
196 328
196 330
196 331
196 332
196 333
196 334
196 347
196 360
196 361
196 362
196 363
196 364
196 366
196 368
196 372
196 373
196 374
196 375
196 376
196 377
196 378
196 380
196 381
196 382
196 383
196 384
196 385
196 421
196 422
196 424
196 429
196 435
196 437
196 443
196 449
196 450
196 451
196 452
196 453
196 454
196 456
196 457
196 458
196 459
196 460
197 198
197 212
197 213
197 214
197 215
197 216
197 217
197 218
197 219
197 220
197 221
197 223
197 224
197 225
197 228
197 229
197 230
197 231
197 232
197 233
197 234
197 235
197 236
197 237
197 238
197 239
197 240
197 241
197 242
197 243
197 244
197 245
197 246
197 248
197 249
197 250
197 256
197 287
197 288
197 289
197 290
197 291
197 292
197 293
197 294
197 295
197 296
197 297
197 298
197 300
197 301
197 302
197 306
197 320
197 321
197 322
197 323
197 324
197 325
197 326
197 327
197 328
197 329
197 330
197 332
197 333
197 334
197 347
197 360
197 361
197 362
197 363
197 364
197 365
197 367
197 368
197 369
197 372
197 373
197 374
197 375
197 376
197 377
197 378
197 379
197 380
197 381
197 383
197 384
197 385
197 421
197 422
197 423
197 424
197 425
197 426
197 427
197 428
197 429
197 430
197 431
197 432
197 433
197 434
197 436
197 437
197 438
197 439
197 440
197 443
197 449
197 450
197 451
197 452
197 453
197 454
197 455
197 456
197 458
197 459
197 460
198 203
198 204
198 205
198 206
198 207
198 208
198 209
198 210
198 211
198 213
198 214
198 215
198 216
198 217
198 218
198 219
198 220
198 221
198 222
198 223
198 225
198 228
198 229
198 230
198 231
198 232
198 233
198 234
198 235
198 236
198 237
198 238
198 239
198 240
198 241
198 242
198 243
198 244
198 245
198 246
198 247
198 248
198 250
198 256
198 287
198 288
198 289
198 290
198 291
198 292
198 293
198 294
198 295
198 296
198 297
198 298
198 299
198 300
198 302
198 303
198 304
198 305
198 306
198 307
198 308
198 309
198 310
198 311
198 312
198 313
198 314
198 315
198 316
198 317
198 318
198 319
198 321
198 322
198 323
198 324
198 325
198 326
198 327
198 328
198 329
198 330
198 331
198 332
198 334
198 340
198 341
198 342
198 343
198 344
198 345
198 346
198 360
198 361
198 362
198 363
198 364
198 365
198 366
198 367
198 369
198 372
198 373
198 374
198 375
198 376
198 377
198 378
198 379
198 380
198 381
198 382
198 383
198 385
198 421
198 422
198 423
198 424
198 425
198 426
198 427
198 428
198 429
198 430
198 431
198 432
198 433
198 434
198 435
198 436
198 438
198 439
198 440
198 441
198 442
198 447
198 448
198 450
198 451
198 452
198 453
198 454
198 455
198 456
198 457
198 458
198 460
199 200
199 201
199 202
199 203
199 204
199 206
199 207
199 208
199 209
199 210
199 211
199 212
199 228
199 229
199 230
199 231
199 232
199 233
199 234
199 235
199 236
199 238
199 239
199 240
199 241
199 242
199 243
199 244
199 245
199 246
199 247
199 248
199 249
199 250
199 255
199 256
199 257
199 259
199 260
199 261
199 262
199 263
199 264
199 265
199 270
199 272
199 278
199 279
199 280
199 281
199 282
199 283
199 285
199 286
199 287
199 288
199 289
199 290
199 291
199 293
199 294
199 295
199 296
199 297
199 298
199 299
199 300
199 301
199 302
199 303
199 304
199 305
199 306
199 308
199 309
199 310
199 311
199 312
199 313
199 314
199 315
199 316
199 317
199 318
199 319
199 320
199 327
199 335
199 337
199 338
199 339
199 352
199 353
199 357
199 358
199 359
199 391
199 395
199 397
199 398
199 399
199 400
199 402
199 404
199 406
199 407
199 409
199 410
199 411
199 412
199 413
199 414
199 415
199 416
199 417
199 430
199 434
199 464
199 469
200 201
200 202
200 203
200 204
200 205
200 206
200 208
200 209
200 210
200 211
200 212
200 228
200 229
200 230
200 231
200 232
200 233
200 234
200 235
200 236
200 237
200 238
200 240
200 241
200 242
200 243
200 244
200 245
200 246
200 247
200 248
200 249
200 250
200 255
200 256
200 257
200 258
200 259
200 261
200 262
200 263
200 264
200 265
200 266
200 267
200 268
200 269
200 271
200 272
200 273
200 278
200 279
200 280
200 281
200 282
200 283
200 284
200 286
200 287
200 288
200 289
200 290
200 291
200 292
200 293
200 294
200 296
200 297
200 298
200 299
200 300
200 301
200 302
200 303
200 304
200 305
200 306
200 307
200 308
200 309
200 310
200 312
200 313
200 314
200 315
200 316
200 317
200 318
200 319
200 320
200 321
200 322
200 323
200 324
200 325
200 326
200 328
200 329
200 330
200 331
200 332
200 333
200 334
200 335
200 336
200 338
200 339
200 348
200 349
200 350
200 351
200 353
200 354
200 355
200 356
200 357
200 359
200 389
200 390
200 392
200 395
200 396
200 398
200 399
200 401
200 403
200 405
200 406
200 407
200 408
200 409
200 411
200 412
200 413
200 414
200 415
200 416
200 417
200 421
200 422
200 423
200 424
200 425
200 426
200 427
200 428
200 429
200 431
200 432
200 433
200 434
200 435
200 436
200 437
200 438
200 439
200 440
200 463
200 465
200 469
201 202
201 205
201 207
201 237
201 239
201 258
201 260
201 266
201 267
201 268
201 269
201 270
201 271
201 273
201 284
201 285
201 292
201 295
201 303
201 304
201 305
201 306
201 307
201 308
201 309
201 310
201 311
201 312
201 313
201 314
201 315
201 316
201 317
201 319
201 320
201 327
201 336
201 337
201 348
201 349
201 350
201 351
201 352
201 354
201 355
201 356
201 357
201 358
201 391
201 396
201 397
201 400
201 402
201 404
201 406
201 407
201 408
201 409
201 410
201 411
201 412
201 413
201 414
201 415
201 417
201 421
201 422
201 423
201 424
201 425
201 426
201 427
201 428
201 429
201 430
201 431
201 432
201 433
201 435
201 436
201 437
201 438
201 439
201 440
201 464
201 466
201 467
201 468
201 470
202 205
202 207
202 237
202 239
202 258
202 260
202 270
202 272
202 284
202 285
202 292
202 295
202 303
202 304
202 305
202 306
202 307
202 308
202 309
202 310
202 311
202 312
202 313
202 314
202 315
202 316
202 317
202 318
202 320
202 327
202 336
202 337
202 352
202 353
202 356
202 358
202 359
202 391
202 396
202 397
202 400
202 402
202 404
202 408
202 410
202 416
202 430
202 434
202 464
202 469
203 204
203 205
203 206
203 207
203 208
203 209
203 210
203 211
203 212
203 224
203 228
203 230
203 231
203 232
203 233
203 234
203 235
203 236
203 237
203 238
203 239
203 240
203 241
203 242
203 243
203 244
203 245
203 246
203 247
203 248
203 249
203 250
203 256
203 257
203 258
203 259
203 260
203 261
203 262
203 263
203 264
203 265
203 270
203 284
203 285
203 292
203 294
203 295
203 301
203 303
203 304
203 306
203 307
203 308
203 309
203 310
203 311
203 312
203 313
203 314
203 315
203 316
203 317
203 318
203 319
203 320
203 327
203 333
203 336
203 337
203 341
203 342
203 343
203 344
203 345
203 346
203 347
203 352
203 356
203 358
203 368
203 380
203 384
203 387
203 391
203 396
203 397
203 400
203 402
203 404
203 408
203 409
203 410
203 412
203 413
203 414
203 415
203 430
203 432
203 433
203 437
203 443
203 449
203 459
203 464
204 205
204 206
204 207
204 208
204 209
204 210
204 211
204 212
204 224
204 228
204 229
204 230
204 231
204 232
204 233
204 234
204 236
204 237
204 238
204 239
204 240
204 241
204 242
204 243
204 244
204 245
204 246
204 247
204 248
204 249
204 250
204 255
204 256
204 258
204 259
204 260
204 261
204 262
204 263
204 264
204 265
204 270
204 284
204 285
204 292
204 294
204 295
204 301
204 305
204 307
204 310
204 311
204 315
204 316
204 317
204 320
204 327
204 333
204 336
204 337
204 340
204 342
204 343
204 344
204 345
204 346
204 347
204 352
204 356
204 358
204 368
204 380
204 384
204 387
204 391
204 396
204 397
204 400
204 402
204 404
204 408
204 409
204 410
204 412
204 413
204 414
204 415
204 430
204 432
204 433
204 437
204 443
204 449
204 459
204 464
205 206
205 207
205 208
205 209
205 210
205 211
205 212
205 224
205 228
205 229
205 230
205 231
205 232
205 233
205 234
205 235
205 236
205 238
205 239
205 240
205 241
205 242
205 243
205 244
205 245
205 246
205 247
205 248
205 249
205 250
205 255
205 256
205 257
205 259
205 260
205 261
205 262
205 263
205 264
205 265
205 270
205 278
205 279
205 280
205 281
205 282
205 283
205 285
205 286
205 287
205 288
205 289
205 290
205 291
205 293
205 294
205 295
205 296
205 297
205 298
205 299
205 300
205 301
205 302
205 303
205 304
205 305
205 306
205 308
205 309
205 310
205 311
205 312
205 313
205 314
205 315
205 316
205 317
205 318
205 319
205 320
205 327
205 333
205 335
205 337
205 338
205 339
205 340
205 341
205 342
205 343
205 344
205 345
205 346
205 347
205 352
205 357
205 358
205 359
205 368
205 380
205 384
205 387
205 391
205 395
205 397
205 398
205 399
205 400
205 402
205 404
205 406
205 407
205 409
205 410
205 411
205 412
205 413
205 414
205 415
205 416
205 417
205 430
205 432
205 433
205 437
205 443
205 449
205 459
205 464
206 207
206 208
206 209
206 210
206 211
206 212
206 224
206 229
206 235
206 237
206 239
206 244
206 245
206 246
206 249
206 255
206 256
206 257
206 258
206 260
206 261
206 262
206 263
206 264
206 265
206 270
206 284
206 285
206 287
206 288
206 289
206 290
206 291
206 292
206 293
206 295
206 296
206 297
206 298
206 299
206 300
206 301
206 302
206 303
206 304
206 305
206 306
206 307
206 308
206 309
206 311
206 312
206 313
206 314
206 315
206 316
206 317
206 318
206 319
206 320
206 327
206 333
206 336
206 337
206 340
206 341
206 343
206 344
206 345
206 346
206 347
206 352
206 356
206 358
206 368
206 380
206 384
206 387
206 391
206 396
206 397
206 400
206 402
206 404
206 406
206 407
206 408
206 410
206 411
206 412
206 413
206 414
206 415
206 416
206 417
206 430
206 432
206 433
206 437
206 443
206 449
206 459
206 464
207 208
207 209
207 210
207 211
207 212
207 224
207 228
207 229
207 230
207 231
207 232
207 233
207 234
207 235
207 236
207 237
207 238
207 240
207 241
207 242
207 243
207 244
207 245
207 246
207 247
207 248
207 249
207 250
207 255
207 256
207 257
207 258
207 259
207 261
207 262
207 263
207 264
207 265
207 266
207 267
207 268
207 269
207 271
207 272
207 273
207 278
207 279
207 280
207 281
207 282
207 283
207 284
207 286
207 287
207 288
207 289
207 290
207 291
207 292
207 293
207 294
207 296
207 297
207 298
207 299
207 300
207 301
207 302
207 303
207 304
207 305
207 306
207 307
207 308
207 309
207 310
207 312
207 313
207 314
207 315
207 316
207 317
207 318
207 319
207 320
207 321
207 322
207 323
207 324
207 325
207 326
207 328
207 329
207 330
207 331
207 332
207 333
207 334
207 335
207 336
207 338
207 339
207 340
207 341
207 342
207 343
207 344
207 345
207 346
207 347
207 348
207 349
207 350
207 351
207 353
207 354
207 355
207 356
207 357
207 359
207 368
207 380
207 384
207 387
207 389
207 390
207 392
207 395
207 396
207 398
207 399
207 401
207 403
207 405
207 406
207 407
207 408
207 409
207 411
207 412
207 413
207 414
207 415
207 416
207 417
207 421
207 422
207 423
207 424
207 425
207 426
207 427
207 428
207 429
207 431
207 432
207 433
207 434
207 435
207 436
207 437
207 438
207 439
207 440
207 443
207 449
207 459
207 463
207 465
208 209
208 210
208 211
208 212
208 224
208 229
208 235
208 237
208 239
208 244
208 245
208 246
208 249
208 255
208 256
208 257
208 258
208 259
208 260
208 261
208 263
208 264
208 265
208 270
208 284
208 285
208 292
208 294
208 295
208 301
208 305
208 307
208 310
208 311
208 315
208 316
208 317
208 320
208 327
208 333
208 336
208 337
208 340
208 341
208 342
208 344
208 345
208 346
208 347
208 352
208 356
208 358
208 368
208 372
208 373
208 374
208 375
208 376
208 377
208 378
208 379
208 381
208 382
208 383
208 384
208 385
208 387
208 391
208 396
208 397
208 400
208 402
208 404
208 406
208 407
208 408
208 409
208 410
208 411
208 413
208 414
208 415
208 416
208 417
208 421
208 422
208 423
208 424
208 425
208 426
208 427
208 428
208 429
208 430
208 431
208 433
208 434
208 435
208 436
208 437
208 438
208 439
208 440
208 443
208 449
208 459
208 464
209 210
209 211
209 212
209 224
209 228
209 229
209 230
209 231
209 232
209 233
209 234
209 235
209 236
209 237
209 238
209 239
209 240
209 241
209 242
209 243
209 245
209 246
209 247
209 248
209 249
209 250
209 255
209 256
209 257
209 258
209 259
209 260
209 261
209 262
209 264
209 265
209 270
209 284
209 285
209 292
209 294
209 295
209 301
209 303
209 304
209 305
209 306
209 307
209 308
209 309
209 310
209 311
209 312
209 313
209 314
209 316
209 317
209 318
209 319
209 320
209 327
209 333
209 336
209 337
209 340
209 341
209 342
209 343
209 345
209 346
209 347
209 352
209 356
209 358
209 368
209 380
209 384
209 387
209 391
209 396
209 397
209 400
209 402
209 404
209 406
209 407
209 408
209 409
209 410
209 411
209 412
209 414
209 415
209 416
209 417
209 430
209 432
209 433
209 437
209 443
209 449
209 459
209 464
210 211
210 212
210 224
210 228
210 229
210 230
210 231
210 232
210 233
210 234
210 235
210 236
210 237
210 238
210 239
210 240
210 241
210 242
210 243
210 244
210 246
210 247
210 248
210 249
210 250
210 255
210 256
210 257
210 258
210 259
210 260
210 261
210 262
210 263
210 265
210 270
210 284
210 285
210 292
210 294
210 295
210 301
210 303
210 304
210 305
210 306
210 307
210 308
210 309
210 310
210 311
210 312
210 313
210 314
210 315
210 317
210 318
210 319
210 320
210 327
210 333
210 336
210 337
210 340
210 341
210 342
210 343
210 344
210 346
210 347
210 352
210 356
210 358
210 368
210 380
210 384
210 386
210 391
210 396
210 397
210 400
210 402
210 404
210 406
210 407
210 408
210 409
210 410
210 411
210 412
210 413
210 415
210 416
210 417
210 421
210 422
210 423
210 424
210 425
210 426
210 427
210 428
210 429
210 430
210 431
210 432
210 434
210 435
210 436
210 437
210 438
210 439
210 440
210 443
210 449
210 459
210 464
211 212
211 224
211 228
211 229
211 230
211 231
211 232
211 233
211 234
211 235
211 236
211 237
211 238
211 239
211 240
211 241
211 242
211 243
211 244
211 245
211 247
211 248
211 249
211 250
211 255
211 256
211 257
211 258
211 259
211 260
211 261
211 262
211 263
211 264
211 270
211 284
211 285
211 292
211 294
211 295
211 301
211 303
211 304
211 305
211 306
211 307
211 308
211 309
211 310
211 311
211 312
211 313
211 314
211 315
211 316
211 318
211 319
211 320
211 327
211 333
211 336
211 337
211 340
211 341
211 342
211 343
211 344
211 345
211 347
211 352
211 356
211 358
211 368
211 380
211 384
211 387
211 391
211 396
211 397
211 400
211 402
211 404
211 406
211 407
211 408
211 409
211 410
211 411
211 412
211 413
211 414
211 416
211 417
211 430
211 432
211 433
211 437
211 443
211 449
211 459
211 464
212 213
212 214
212 215
212 216
212 217
212 218
212 219
212 220
212 221
212 222
212 223
212 225
212 228
212 229
212 230
212 231
212 232
212 233
212 234
212 235
212 236
212 237
212 238
212 239
212 240
212 241
212 242
212 243
212 244
212 245
212 246
212 247
212 248
212 250
212 255
212 257
212 258
212 259
212 260
212 262
212 263
212 264
212 265
212 270
212 284
212 285
212 287
212 288
212 289
212 290
212 291
212 292
212 293
212 294
212 295
212 296
212 297
212 298
212 299
212 300
212 302
212 303
212 304
212 305
212 306
212 307
212 308
212 309
212 310
212 311
212 312
212 313
212 314
212 315
212 316
212 317
212 318
212 319
212 321
212 322
212 323
212 324
212 325
212 326
212 327
212 328
212 329
212 330
212 331
212 332
212 334
212 336
212 337
212 340
212 341
212 342
212 343
212 344
212 345
212 346
212 352
212 356
212 358
212 360
212 361
212 362
212 363
212 364
212 365
212 366
212 367
212 369
212 372
212 373
212 374
212 375
212 376
212 377
212 378
212 379
212 380
212 381
212 382
212 383
212 385
212 387
212 391
212 396
212 397
212 400
212 402
212 404
212 408
212 409
212 410
212 412
212 413
212 414
212 415
212 421
212 422
212 423
212 424
212 425
212 426
212 427
212 428
212 429
212 430
212 431
212 432
212 433
212 434
212 435
212 436
212 438
212 439
212 440
212 441
212 442
212 447
212 448
212 450
212 451
212 452
212 453
212 454
212 455
212 456
212 457
212 458
212 460
212 464
213 214
213 215
213 216
213 217
213 218
213 219
213 220
213 221
213 222
213 223
213 224
213 225
213 229
213 230
213 231
213 232
213 233
213 234
213 235
213 236
213 237
213 238
213 239
213 240
213 241
213 242
213 243
213 244
213 245
213 246
213 247
213 248
213 249
213 250
213 256
213 266
213 288
213 289
213 290
213 291
213 292
213 293
213 294
213 295
213 296
213 297
213 298
213 299
213 300
213 301
213 302
213 306
213 320
213 322
213 323
213 324
213 325
213 326
213 327
213 328
213 329
213 330
213 331
213 332
213 333
213 334
213 347
213 348
213 361
213 362
213 363
213 364
213 365
213 366
213 367
213 368
213 369
213 373
213 374
213 375
213 376
213 377
213 378
213 379
213 380
213 381
213 382
213 383
213 384
213 385
213 418
213 421
213 422
213 423
213 424
213 429
213 431
213 435
213 436
213 437
213 440
213 443
213 449
213 451
213 452
213 453
213 454
213 455
213 456
213 457
213 458
213 459
213 460
213 466
214 215
214 216
214 217
214 218
214 219
214 220
214 221
214 222
214 223
214 224
214 225
214 228
214 229
214 231
214 232
214 233
214 234
214 235
214 236
214 237
214 238
214 239
214 240
214 241
214 242
214 243
214 244
214 245
214 246
214 247
214 248
214 249
214 250
214 256
214 266
214 287
214 289
214 290
214 291
214 292
214 293
214 294
214 295
214 296
214 297
214 298
214 299
214 300
214 301
214 302
214 306
214 320
214 321
214 323
214 324
214 325
214 326
214 327
214 328
214 329
214 330
214 331
214 332
214 333
214 334
214 347
214 348
214 360
214 362
214 363
214 364
214 365
214 366
214 367
214 368
214 369
214 372
214 374
214 375
214 376
214 377
214 378
214 379
214 380
214 381
214 382
214 383
214 384
214 385
214 418
214 422
214 423
214 424
214 425
214 426
214 427
214 428
214 429
214 430
214 431
214 432
214 433
214 434
214 435
214 436
214 437
214 438
214 439
214 440
214 443
214 449
214 450
214 452
214 453
214 454
214 455
214 456
214 457
214 458
214 459
214 460
214 466
215 216
215 217
215 218
215 219
215 220
215 221
215 222
215 223
215 224
215 225
215 228
215 229
215 230
215 231
215 233
215 234
215 235
215 236
215 237
215 238
215 239
215 240
215 241
215 242
215 243
215 244
215 245
215 246
215 247
215 248
215 249
215 250
215 255
215 257
215 258
215 259
215 260
215 261
215 262
215 263
215 264
215 265
215 266
215 287
215 288
215 290
215 291
215 292
215 293
215 294
215 295
215 296
215 297
215 298
215 299
215 300
215 301
215 302
215 303
215 304
215 305
215 307
215 308
215 309
215 310
215 311
215 312
215 313
215 314
215 315
215 316
215 317
215 318
215 319
215 320
215 321
215 322
215 324
215 325
215 326
215 327
215 328
215 329
215 330
215 331
215 332
215 333
215 334
215 347
215 348
215 360
215 361
215 363
215 364
215 365
215 366
215 367
215 368
215 369
215 372
215 373
215 375
215 376
215 377
215 378
215 379
215 380
215 381
215 382
215 383
215 384
215 385
215 418
215 421
215 423
215 424
215 425
215 426
215 427
215 428
215 429
215 430
215 431
215 432
215 433
215 434
215 435
215 436
215 437
215 438
215 439
215 440
215 443
215 449
215 450
215 451
215 453
215 454
215 455
215 456
215 457
215 458
215 459
215 460
215 466
216 217
216 218
216 219
216 220
216 221
216 222
216 223
216 224
216 225
216 228
216 229
216 230
216 231
216 232
216 233
216 235
216 236
216 237
216 238
216 239
216 240
216 241
216 242
216 243
216 244
216 245
216 246
216 247
216 248
216 249
216 250
216 256
216 267
216 268
216 269
216 270
216 271
216 272
216 273
216 287
216 288
216 289
216 291
216 292
216 293
216 294
216 295
216 296
216 297
216 298
216 299
216 300
216 301
216 302
216 306
216 320
216 321
216 322
216 323
216 325
216 326
216 327
216 328
216 329
216 330
216 331
216 332
216 333
216 334
216 347
216 349
216 350
216 351
216 352
216 353
216 354
216 355
216 360
216 361
216 362
216 363
216 364
216 365
216 366
216 367
216 368
216 369
216 372
216 373
216 374
216 376
216 377
216 378
216 379
216 380
216 381
216 382
216 383
216 384
216 385
216 419
216 420
216 421
216 422
216 424
216 425
216 426
216 427
216 428
216 429
216 430
216 431
216 432
216 433
216 434
216 435
216 436
216 437
216 438
216 439
216 440
216 443
216 449
216 450
216 451
216 452
216 453
216 454
216 455
216 456
216 457
216 458
216 459
216 460
216 467
216 468
216 469
216 470
217 218
217 219
217 220
217 221
217 222
217 223
217 224
217 225
217 228
217 229
217 230
217 231
217 232
217 233
217 234
217 235
217 237
217 238
217 239
217 240
217 241
217 242
217 243
217 244
217 245
217 246
217 247
217 248
217 249
217 250
217 256
217 266
217 287
217 288
217 289
217 290
217 292
217 293
217 294
217 295
217 296
217 297
217 298
217 299
217 300
217 301
217 302
217 306
217 320
217 321
217 322
217 323
217 324
217 326
217 327
217 328
217 329
217 330
217 331
217 332
217 333
217 334
217 347
217 348
217 360
217 361
217 362
217 364
217 365
217 366
217 367
217 368
217 369
217 372
217 373
217 374
217 375
217 377
217 378
217 379
217 380
217 381
217 382
217 383
217 384
217 385
217 418
217 421
217 422
217 423
217 425
217 426
217 427
217 428
217 429
217 430
217 431
217 432
217 433
217 434
217 435
217 436
217 437
217 438
217 439
217 440
217 443
217 449
217 450
217 451
217 452
217 454
217 455
217 456
217 457
217 458
217 459
217 460
217 466
218 219
218 220
218 221
218 222
218 223
218 224
218 225
218 228
218 229
218 230
218 231
218 232
218 233
218 234
218 235
218 236
218 237
218 239
218 240
218 241
218 242
218 243
218 244
218 245
218 246
218 247
218 248
218 249
218 250
218 256
218 266
218 287
218 288
218 289
218 290
218 291
218 292
218 294
218 295
218 296
218 297
218 298
218 299
218 300
218 301
218 302
218 306
218 320
218 321
218 322
218 323
218 324
218 325
218 327
218 328
218 329
218 330
218 331
218 332
218 333
218 334
218 347
218 348
218 360
218 361
218 362
218 363
218 365
218 366
218 367
218 368
218 369
218 372
218 373
218 374
218 375
218 376
218 378
218 379
218 380
218 381
218 382
218 383
218 384
218 385
218 418
218 421
218 422
218 423
218 424
218 425
218 426
218 427
218 428
218 430
218 431
218 432
218 433
218 434
218 435
218 436
218 437
218 438
218 439
218 440
218 443
218 449
218 450
218 451
218 452
218 453
218 455
218 456
218 457
218 458
218 459
218 460
218 466
219 220
219 221
219 222
219 223
219 224
219 225
219 228
219 229
219 230
219 231
219 232
219 233
219 234
219 235
219 236
219 237
219 238
219 239
219 241
219 242
219 243
219 244
219 245
219 246
219 247
219 248
219 249
219 250
219 256
219 266
219 287
219 288
219 289
219 290
219 291
219 292
219 293
219 294
219 295
219 297
219 298
219 299
219 300
219 301
219 302
219 306
219 320
219 321
219 322
219 323
219 324
219 325
219 326
219 327
219 329
219 330
219 331
219 332
219 333
219 334
219 347
219 348
219 360
219 361
219 362
219 363
219 364
219 365
219 366
219 367
219 368
219 369
219 372
219 373
219 374
219 375
219 376
219 377
219 379
219 380
219 381
219 382
219 383
219 384
219 385
219 418
219 421
219 422
219 423
219 424
219 425
219 426
219 427
219 428
219 429
219 430
219 432
219 433
219 434
219 435
219 436
219 437
219 438
219 439
219 440
219 443
219 449
219 450
219 451
219 452
219 453
219 454
219 455
219 456
219 457
219 458
219 459
219 460
219 466
220 221
220 222
220 223
220 224
220 225
220 228
220 229
220 230
220 231
220 232
220 233
220 234
220 235
220 236
220 237
220 238
220 239
220 240
220 241
220 243
220 244
220 245
220 246
220 247
220 248
220 249
220 250
220 256
220 266
220 287
220 288
220 289
220 290
220 291
220 292
220 293
220 294
220 295
220 296
220 298
220 299
220 300
220 301
220 302
220 306
220 320
220 321
220 322
220 323
220 324
220 325
220 326
220 327
220 328
220 330
220 331
220 332
220 333
220 334
220 347
220 348
220 360
220 361
220 362
220 363
220 364
220 365
220 366
220 367
220 368
220 369
220 372
220 373
220 374
220 375
220 376
220 377
220 378
220 380
220 381
220 382
220 383
220 384
220 385
220 418
220 421
220 422
220 423
220 424
220 429
220 431
220 435
220 436
220 437
220 440
220 443
220 449
220 450
220 451
220 452
220 453
220 454
220 456
220 457
220 458
220 459
220 460
220 466
221 222
221 223
221 224
221 225
221 228
221 229
221 230
221 231
221 232
221 233
221 234
221 235
221 236
221 237
221 238
221 239
221 240
221 241
221 242
221 244
221 245
221 246
221 247
221 248
221 249
221 250
221 256
221 266
221 287
221 288
221 289
221 290
221 291
221 292
221 293
221 294
221 295
221 296
221 297
221 299
221 300
221 301
221 302
221 306
221 320
221 321
221 322
221 323
221 324
221 325
221 326
221 327
221 328
221 329
221 331
221 332
221 333
221 334
221 347
221 348
221 360
221 361
221 362
221 363
221 364
221 366
221 367
221 368
221 369
221 372
221 373
221 374
221 375
221 376
221 377
221 378
221 379
221 380
221 382
221 383
221 384
221 385
221 418
221 421
221 422
221 423
221 424
221 429
221 431
221 435
221 436
221 437
221 440
221 443
221 449
221 450
221 451
221 452
221 453
221 454
221 455
221 457
221 458
221 459
221 460
221 466
222 223
222 224
222 225
222 228
222 229
222 230
222 231
222 232
222 233
222 234
222 235
222 236
222 237
222 238
222 239
222 240
222 241
222 242
222 243
222 244
222 245
222 246
222 248
222 249
222 250
222 256
222 266
222 287
222 288
222 289
222 290
222 291
222 292
222 293
222 294
222 295
222 296
222 297
222 298
222 300
222 301
222 302
222 306
222 320
222 321
222 322
222 323
222 324
222 325
222 326
222 327
222 328
222 329
222 330
222 332
222 333
222 334
222 347
222 348
222 360
222 361
222 362
222 363
222 364
222 365
222 367
222 368
222 369
222 372
222 373
222 374
222 375
222 376
222 377
222 378
222 379
222 380
222 381
222 383
222 384
222 385
222 418
222 421
222 422
222 423
222 424
222 425
222 426
222 427
222 428
222 429
222 430
222 431
222 432
222 433
222 434
222 436
222 437
222 438
222 439
222 440
222 443
222 449
222 450
222 451
222 452
222 453
222 454
222 455
222 456
222 458
222 459
222 460
222 466
223 224
223 225
223 228
223 229
223 230
223 231
223 232
223 233
223 234
223 235
223 236
223 237
223 238
223 239
223 240
223 241
223 242
223 243
223 244
223 245
223 246
223 247
223 249
223 250
223 256
223 266
223 287
223 288
223 289
223 290
223 291
223 292
223 293
223 294
223 295
223 296
223 297
223 298
223 299
223 301
223 302
223 306
223 320
223 321
223 322
223 323
223 324
223 325
223 326
223 327
223 328
223 329
223 330
223 331
223 333
223 334
223 347
223 348
223 360
223 361
223 362
223 363
223 364
223 365
223 366
223 368
223 369
223 372
223 373
223 374
223 375
223 376
223 377
223 378
223 379
223 380
223 381
223 382
223 384
223 385
223 418
223 421
223 422
223 423
223 424
223 425
223 426
223 427
223 428
223 429
223 430
223 431
223 432
223 433
223 434
223 435
223 437
223 438
223 439
223 440
223 443
223 449
223 450
223 451
223 452
223 453
223 454
223 455
223 456
223 457
223 459
223 460
223 466
224 225
224 228
224 229
224 230
224 231
224 232
224 233
224 234
224 235
224 236
224 237
224 238
224 239
224 240
224 241
224 242
224 243
224 244
224 245
224 246
224 247
224 248
224 250
224 256
224 266
224 287
224 288
224 289
224 290
224 291
224 292
224 293
224 294
224 295
224 296
224 297
224 298
224 299
224 300
224 302
224 303
224 304
224 305
224 306
224 307
224 308
224 309
224 310
224 311
224 312
224 313
224 314
224 315
224 316
224 317
224 318
224 319
224 321
224 322
224 323
224 324
224 325
224 326
224 327
224 328
224 329
224 330
224 331
224 332
224 334
224 340
224 341
224 342
224 343
224 344
224 345
224 346
224 348
224 360
224 361
224 362
224 363
224 364
224 365
224 366
224 367
224 369
224 372
224 373
224 374
224 375
224 376
224 377
224 378
224 379
224 380
224 381
224 382
224 383
224 385
224 418
224 421
224 422
224 423
224 424
224 425
224 426
224 427
224 428
224 429
224 430
224 431
224 432
224 433
224 434
224 435
224 436
224 438
224 439
224 440
224 441
224 442
224 447
224 448
224 450
224 451
224 452
224 453
224 454
224 455
224 456
224 457
224 458
224 460
224 466
225 228
225 229
225 230
225 231
225 232
225 233
225 234
225 235
225 236
225 237
225 238
225 239
225 240
225 241
225 242
225 243
225 244
225 245
225 246
225 247
225 248
225 249
225 256
225 266
225 287
225 288
225 289
225 290
225 291
225 292
225 293
225 294
225 295
225 296
225 297
225 298
225 299
225 300
225 301
225 306
225 320
225 321
225 322
225 323
225 324
225 325
225 326
225 327
225 328
225 329
225 330
225 331
225 332
225 333
225 347
225 348
225 360
225 361
225 362
225 363
225 364
225 365
225 366
225 367
225 368
225 372
225 373
225 374
225 375
225 376
225 377
225 378
225 379
225 380
225 381
225 382
225 383
225 384
225 418
225 421
225 422
225 423
225 424
225 425
225 426
225 427
225 428
225 429
225 430
225 431
225 432
225 433
225 434
225 435
225 436
225 437
225 438
225 439
225 443
225 449
225 450
225 451
225 452
225 453
225 454
225 455
225 456
225 457
225 458
225 459
225 466
226 227
226 312
226 336
226 337
226 338
226 339
227 303
227 304
227 305
227 306
227 307
227 308
227 309
227 310
227 311
227 313
227 314
227 315
227 316
227 317
227 318
227 319
227 320
227 335
227 336
227 337
227 339
228 229
228 230
228 231
228 232
228 233
228 234
228 235
228 236
228 237
228 238
228 239
228 240
228 241
228 242
228 243
228 244
228 245
228 246
228 247
228 248
228 249
228 250
228 255
228 256
228 257
228 258
228 260
228 263
228 264
228 265
228 266
228 270
228 276
228 284
228 285
228 288
228 289
228 290
228 291
228 292
228 293
228 294
228 295
228 296
228 297
228 298
228 299
228 300
228 301
228 302
228 305
228 306
228 307
228 311
228 315
228 316
228 317
228 320
228 322
228 323
228 324
228 325
228 326
228 327
228 328
228 329
228 330
228 331
228 332
228 333
228 334
228 336
228 337
228 340
228 341
228 344
228 345
228 346
228 347
228 348
228 352
228 356
228 358
228 361
228 362
228 363
228 364
228 365
228 366
228 367
228 368
228 369
228 373
228 374
228 375
228 376
228 377
228 378
228 379
228 380
228 381
228 382
228 383
228 384
228 385
228 387
228 391
228 396
228 397
228 400
228 402
228 404
228 408
228 410
228 413
228 414
228 415
228 418
228 421
228 422
228 423
228 424
228 429
228 430
228 431
228 433
228 435
228 436
228 437
228 440
228 441
228 443
228 447
228 448
228 449
228 451
228 452
228 453
228 454
228 455
228 456
228 457
228 458
228 459
228 460
228 464
228 466
229 230
229 231
229 232
229 233
229 234
229 235
229 236
229 237
229 238
229 239
229 240
229 241
229 242
229 243
229 244
229 245
229 246
229 247
229 248
229 249
229 250
229 256
229 257
229 258
229 259
229 260
229 261
229 262
229 263
229 264
229 265
229 266
229 270
229 276
229 284
229 285
229 287
229 288
229 289
229 290
229 291
229 292
229 293
229 295
229 296
229 297
229 298
229 299
229 300
229 301
229 302
229 303
229 304
229 306
229 307
229 308
229 309
229 310
229 311
229 312
229 313
229 314
229 315
229 316
229 317
229 318
229 319
229 320
229 321
229 322
229 323
229 324
229 325
229 326
229 327
229 328
229 329
229 330
229 331
229 332
229 333
229 334
229 336
229 337
229 341
229 342
229 343
229 344
229 345
229 346
229 347
229 348
229 352
229 356
229 358
229 360
229 361
229 362
229 363
229 364
229 365
229 366
229 367
229 368
229 369
229 372
229 373
229 374
229 375
229 376
229 377
229 378
229 379
229 381
229 382
229 383
229 384
229 385
229 387
229 391
229 396
229 397
229 400
229 402
229 404
229 408
229 410
229 413
229 414
229 415
229 418
229 421
229 422
229 423
229 424
229 429
229 430
229 431
229 433
229 435
229 436
229 437
229 440
229 441
229 443
229 447
229 448
229 449
229 450
229 451
229 452
229 453
229 454
229 455
229 456
229 457
229 458
229 459
229 460
229 464
229 466
230 231
230 232
230 233
230 234
230 235
230 236
230 237
230 238
230 239
230 240
230 241
230 242
230 243
230 244
230 245
230 246
230 247
230 248
230 249
230 250
230 255
230 256
230 257
230 258
230 260
230 263
230 264
230 265
230 266
230 270
230 276
230 284
230 285
230 287
230 289
230 290
230 291
230 292
230 293
230 294
230 295
230 296
230 297
230 298
230 299
230 300
230 301
230 302
230 305
230 306
230 307
230 311
230 315
230 316
230 317
230 320
230 321
230 323
230 324
230 325
230 326
230 327
230 328
230 329
230 330
230 331
230 332
230 333
230 334
230 336
230 337
230 340
230 341
230 344
230 345
230 346
230 347
230 348
230 352
230 356
230 358
230 360
230 362
230 363
230 364
230 365
230 366
230 367
230 368
230 369
230 372
230 374
230 375
230 376
230 377
230 378
230 379
230 380
230 381
230 382
230 383
230 384
230 385
230 387
230 391
230 396
230 397
230 400
230 402
230 404
230 408
230 410
230 413
230 414
230 415
230 418
230 422
230 423
230 424
230 425
230 426
230 427
230 428
230 429
230 430
230 431
230 432
230 433
230 434
230 435
230 436
230 437
230 438
230 439
230 440
230 441
230 443
230 447
230 448
230 449
230 450
230 452
230 453
230 454
230 455
230 456
230 457
230 458
230 459
230 460
230 464
230 466
231 232
231 233
231 234
231 235
231 236
231 237
231 238
231 239
231 240
231 241
231 242
231 243
231 244
231 245
231 246
231 247
231 248
231 249
231 250
231 255
231 256
231 257
231 258
231 260
231 263
231 264
231 265
231 266
231 270
231 277
231 284
231 285
231 287
231 288
231 289
231 290
231 291
231 292
231 293
231 295
231 296
231 297
231 298
231 299
231 300
231 301
231 302
231 305
231 306
231 307
231 311
231 315
231 316
231 317
231 320
231 321
231 322
231 323
231 324
231 325
231 326
231 327
231 328
231 329
231 330
231 331
231 332
231 333
231 334
231 336
231 337
231 340
231 341
231 344
231 345
231 346
231 347
231 348
231 352
231 356
231 358
231 360
231 361
231 362
231 363
231 364
231 365
231 366
231 367
231 368
231 369
231 372
231 373
231 374
231 375
231 376
231 377
231 378
231 379
231 381
231 382
231 383
231 384
231 385
231 387
231 391
231 396
231 397
231 400
231 402
231 404
231 408
231 410
231 413
231 414
231 415
231 418
231 421
231 422
231 423
231 424
231 429
231 430
231 431
231 433
231 435
231 436
231 437
231 440
231 442
231 443
231 447
231 448
231 449
231 450
231 451
231 452
231 453
231 454
231 455
231 456
231 457
231 458
231 459
231 460
231 464
231 466
232 233
232 234
232 235
232 236
232 237
232 238
232 239
232 240
232 241
232 242
232 243
232 244
232 245
232 246
232 247
232 248
232 249
232 250
232 255
232 257
232 258
232 259
232 260
232 261
232 262
232 263
232 264
232 265
232 266
232 270
232 276
232 284
232 285
232 287
232 288
232 290
232 291
232 292
232 293
232 294
232 295
232 296
232 297
232 298
232 299
232 300
232 301
232 302
232 303
232 304
232 305
232 307
232 308
232 309
232 310
232 311
232 312
232 313
232 314
232 315
232 316
232 317
232 318
232 319
232 320
232 321
232 322
232 324
232 325
232 326
232 327
232 328
232 329
232 330
232 331
232 332
232 333
232 334
232 336
232 337
232 340
232 341
232 344
232 345
232 346
232 347
232 348
232 352
232 356
232 358
232 360
232 361
232 363
232 364
232 365
232 366
232 367
232 368
232 369
232 372
232 373
232 375
232 376
232 377
232 378
232 379
232 380
232 381
232 382
232 383
232 384
232 385
232 387
232 391
232 396
232 397
232 400
232 402
232 404
232 408
232 410
232 413
232 414
232 415
232 418
232 421
232 423
232 424
232 425
232 426
232 427
232 428
232 429
232 430
232 431
232 432
232 433
232 434
232 435
232 436
232 437
232 438
232 439
232 440
232 441
232 443
232 447
232 448
232 449
232 450
232 451
232 453
232 454
232 455
232 456
232 457
232 458
232 459
232 460
232 464
232 466
233 234
233 235
233 236
233 237
233 238
233 239
233 240
233 241
233 242
233 243
233 244
233 245
233 246
233 247
233 248
233 249
233 250
233 255
233 256
233 257
233 258
233 260
233 263
233 264
233 265
233 266
233 270
233 276
233 284
233 285
233 287
233 288
233 289
233 290
233 291
233 292
233 293
233 295
233 296
233 297
233 298
233 299
233 300
233 301
233 302
233 305
233 306
233 307
233 311
233 315
233 316
233 317
233 320
233 321
233 322
233 323
233 324
233 325
233 326
233 327
233 328
233 329
233 330
233 331
233 332
233 333
233 334
233 336
233 337
233 340
233 341
233 344
233 345
233 346
233 347
233 348
233 352
233 356
233 358
233 360
233 361
233 362
233 363
233 364
233 365
233 366
233 367
233 368
233 369
233 372
233 373
233 374
233 375
233 376
233 377
233 378
233 379
233 381
233 382
233 383
233 384
233 385
233 387
233 391
233 396
233 397
233 400
233 402
233 404
233 408
233 410
233 413
233 414
233 415
233 418
233 421
233 422
233 423
233 424
233 429
233 430
233 431
233 433
233 435
233 436
233 437
233 440
233 441
233 443
233 448
233 449
233 450
233 451
233 452
233 453
233 454
233 455
233 456
233 457
233 458
233 459
233 460
233 464
233 466
234 235
234 236
234 237
234 238
234 239
234 240
234 241
234 242
234 243
234 244
234 245
234 246
234 247
234 248
234 249
234 250
234 255
234 256
234 257
234 258
234 260
234 263
234 264
234 265
234 267
234 268
234 269
234 270
234 271
234 272
234 273
234 276
234 284
234 285
234 287
234 288
234 289
234 291
234 292
234 293
234 294
234 295
234 296
234 297
234 298
234 299
234 300
234 301
234 302
234 305
234 306
234 307
234 311
234 315
234 316
234 317
234 320
234 321
234 322
234 323
234 325
234 326
234 327
234 328
234 329
234 330
234 331
234 332
234 333
234 334
234 336
234 337
234 340
234 341
234 344
234 345
234 346
234 347
234 349
234 350
234 351
234 352
234 353
234 354
234 355
234 356
234 358
234 360
234 361
234 362
234 363
234 364
234 365
234 366
234 367
234 368
234 369
234 372
234 373
234 374
234 376
234 377
234 378
234 379
234 380
234 381
234 382
234 383
234 384
234 385
234 387
234 391
234 396
234 397
234 400
234 402
234 404
234 408
234 410
234 413
234 414
234 415
234 419
234 420
234 421
234 422
234 424
234 425
234 426
234 427
234 428
234 429
234 430
234 431
234 432
234 433
234 434
234 435
234 436
234 437
234 438
234 439
234 440
234 441
234 443
234 447
234 448
234 449
234 450
234 451
234 452
234 453
234 454
234 455
234 456
234 457
234 458
234 459
234 460
234 464
234 467
234 468
234 469
234 470
235 236
235 237
235 238
235 239
235 240
235 241
235 242
235 243
235 244
235 245
235 246
235 247
235 248
235 249
235 250
235 255
235 256
235 258
235 259
235 260
235 261
235 262
235 263
235 264
235 265
235 266
235 270
235 276
235 284
235 285
235 287
235 288
235 289
235 290
235 291
235 292
235 293
235 295
235 296
235 297
235 298
235 299
235 300
235 301
235 302
235 305
235 306
235 307
235 311
235 315
235 316
235 317
235 320
235 321
235 322
235 323
235 324
235 325
235 326
235 327
235 328
235 329
235 330
235 331
235 332
235 333
235 334
235 336
235 337
235 340
235 342
235 343
235 344
235 345
235 346
235 347
235 348
235 352
235 356
235 358
235 360
235 361
235 362
235 363
235 364
235 365
235 366
235 367
235 368
235 369
235 372
235 373
235 374
235 375
235 376
235 377
235 378
235 379
235 381
235 382
235 383
235 384
235 385
235 387
235 391
235 396
235 397
235 400
235 402
235 404
235 408
235 410
235 413
235 414
235 415
235 418
235 421
235 422
235 423
235 424
235 429
235 430
235 431
235 433
235 435
235 436
235 437
235 440
235 441
235 443
235 447
235 448
235 449
235 450
235 451
235 452
235 453
235 454
235 455
235 456
235 457
235 458
235 459
235 460
235 464
235 466
236 237
236 238
236 239
236 240
236 241
236 242
236 243
236 244
236 245
236 246
236 247
236 248
236 249
236 250
236 255
236 256
236 257
236 258
236 260
236 263
236 264
236 265
236 266
236 270
236 276
236 284
236 285
236 287
236 288
236 289
236 290
236 292
236 293
236 294
236 295
236 296
236 297
236 298
236 299
236 300
236 301
236 302
236 305
236 306
236 307
236 311
236 315
236 316
236 317
236 320
236 321
236 322
236 323
236 324
236 326
236 327
236 328
236 329
236 330
236 331
236 332
236 333
236 334
236 336
236 337
236 340
236 341
236 344
236 345
236 346
236 347
236 348
236 352
236 356
236 358
236 360
236 361
236 362
236 364
236 365
236 366
236 367
236 368
236 369
236 372
236 373
236 374
236 375
236 377
236 378
236 379
236 380
236 381
236 382
236 383
236 384
236 385
236 387
236 391
236 396
236 397
236 400
236 402
236 404
236 408
236 410
236 413
236 414
236 415
236 418
236 421
236 422
236 423
236 425
236 426
236 427
236 428
236 429
236 430
236 431
236 432
236 433
236 434
236 435
236 436
236 437
236 438
236 439
236 440
236 441
236 443
236 447
236 448
236 449
236 450
236 451
236 452
236 454
236 455
236 456
236 457
236 458
236 459
236 460
236 464
236 466
237 238
237 239
237 240
237 241
237 242
237 243
237 244
237 245
237 246
237 247
237 248
237 249
237 250
237 255
237 256
237 257
237 259
237 260
237 261
237 262
237 263
237 264
237 265
237 266
237 270
237 276
237 278
237 279
237 280
237 281
237 282
237 283
237 285
237 286
237 287
237 288
237 289
237 290
237 291
237 293
237 294
237 295
237 296
237 297
237 298
237 299
237 300
237 301
237 302
237 303
237 304
237 305
237 306
237 308
237 309
237 310
237 311
237 312
237 313
237 314
237 315
237 316
237 317
237 318
237 319
237 320
237 321
237 322
237 323
237 324
237 325
237 326
237 327
237 328
237 329
237 330
237 331
237 332
237 333
237 334
237 335
237 337
237 338
237 339
237 340
237 341
237 344
237 345
237 346
237 347
237 348
237 352
237 357
237 358
237 359
237 360
237 361
237 362
237 363
237 364
237 365
237 366
237 367
237 368
237 369
237 372
237 373
237 374
237 375
237 376
237 377
237 378
237 379
237 381
237 382
237 383
237 384
237 385
237 387
237 391
237 395
237 397
237 398
237 399
237 400
237 402
237 404
237 406
237 407
237 409
237 410
237 411
237 412
237 413
237 414
237 415
237 416
237 417
237 418
237 421
237 422
237 423
237 424
237 429
237 430
237 431
237 433
237 435
237 436
237 437
237 440
237 441
237 443
237 447
237 448
237 449
237 450
237 451
237 452
237 453
237 454
237 455
237 456
237 457
237 458
237 459
237 460
237 464
237 466
238 239
238 240
238 241
238 242
238 243
238 244
238 245
238 246
238 247
238 248
238 249
238 250
238 255
238 256
238 257
238 258
238 260
238 263
238 264
238 265
238 266
238 270
238 276
238 284
238 285
238 287
238 288
238 289
238 290
238 291
238 292
238 294
238 295
238 296
238 297
238 298
238 299
238 300
238 301
238 302
238 305
238 306
238 307
238 311
238 315
238 316
238 317
238 320
238 321
238 322
238 323
238 324
238 325
238 327
238 328
238 329
238 330
238 331
238 332
238 333
238 334
238 336
238 337
238 340
238 341
238 344
238 345
238 346
238 347
238 348
238 352
238 356
238 358
238 360
238 361
238 362
238 363
238 365
238 366
238 367
238 368
238 369
238 372
238 373
238 374
238 375
238 376
238 378
238 379
238 380
238 381
238 382
238 383
238 384
238 385
238 387
238 391
238 396
238 397
238 400
238 402
238 404
238 408
238 410
238 413
238 414
238 415
238 418
238 421
238 422
238 423
238 424
238 425
238 426
238 427
238 428
238 430
238 431
238 432
238 433
238 434
238 435
238 436
238 437
238 438
238 439
238 440
238 441
238 443
238 447
238 448
238 449
238 450
238 451
238 452
238 453
238 455
238 456
238 457
238 458
238 459
238 460
238 464
238 466
239 240
239 241
239 242
239 243
239 244
239 245
239 246
239 247
239 248
239 249
239 250
239 255
239 256
239 257
239 258
239 259
239 261
239 262
239 263
239 264
239 265
239 266
239 267
239 268
239 269
239 271
239 272
239 273
239 276
239 278
239 279
239 280
239 281
239 282
239 283
239 284
239 286
239 287
239 288
239 289
239 290
239 291
239 292
239 293
239 294
239 296
239 297
239 298
239 299
239 300
239 301
239 302
239 303
239 304
239 305
239 306
239 307
239 308
239 309
239 310
239 312
239 313
239 314
239 315
239 316
239 317
239 318
239 319
239 320
239 321
239 322
239 323
239 324
239 325
239 326
239 328
239 329
239 330
239 331
239 332
239 333
239 334
239 335
239 336
239 338
239 339
239 340
239 341
239 344
239 345
239 346
239 347
239 348
239 349
239 350
239 351
239 353
239 354
239 355
239 356
239 357
239 359
239 360
239 361
239 362
239 363
239 364
239 365
239 366
239 367
239 368
239 369
239 372
239 373
239 374
239 375
239 376
239 377
239 378
239 379
239 381
239 382
239 383
239 384
239 385
239 387
239 389
239 390
239 392
239 395
239 396
239 398
239 399
239 401
239 403
239 405
239 406
239 407
239 408
239 409
239 411
239 412
239 413
239 414
239 415
239 416
239 417
239 418
239 421
239 422
239 423
239 424
239 425
239 426
239 427
239 428
239 429
239 431
239 432
239 433
239 434
239 435
239 436
239 437
239 438
239 439
239 440
239 441
239 443
239 447
239 448
239 449
239 450
239 451
239 452
239 453
239 454
239 455
239 456
239 457
239 458
239 459
239 460
239 463
239 465
239 466
240 241
240 242
240 243
240 244
240 245
240 246
240 247
240 248
240 249
240 250
240 255
240 256
240 257
240 258
240 260
240 263
240 264
240 265
240 266
240 270
240 276
240 284
240 285
240 287
240 288
240 289
240 290
240 291
240 292
240 293
240 294
240 295
240 297
240 298
240 299
240 300
240 301
240 302
240 305
240 306
240 307
240 311
240 315
240 316
240 317
240 320
240 321
240 322
240 323
240 324
240 325
240 326
240 327
240 329
240 330
240 331
240 332
240 333
240 334
240 336
240 337
240 340
240 341
240 344
240 345
240 346
240 347
240 348
240 352
240 356
240 358
240 360
240 361
240 362
240 363
240 364
240 365
240 366
240 367
240 368
240 369
240 372
240 373
240 374
240 375
240 376
240 377
240 379
240 380
240 381
240 382
240 383
240 384
240 385
240 387
240 391
240 396
240 397
240 400
240 402
240 404
240 408
240 410
240 413
240 414
240 415
240 418
240 421
240 422
240 423
240 424
240 425
240 426
240 427
240 428
240 429
240 430
240 432
240 433
240 434
240 435
240 436
240 437
240 438
240 439
240 440
240 441
240 443
240 447
240 448
240 449
240 450
240 451
240 452
240 453
240 454
240 455
240 456
240 457
240 458
240 459
240 460
240 464
240 466
241 242
241 243
241 244
241 245
241 246
241 247
241 248
241 249
241 250
241 255
241 256
241 257
241 258
241 260
241 263
241 264
241 265
241 266
241 270
241 276
241 284
241 285
241 287
241 288
241 289
241 290
241 291
241 292
241 293
241 295
241 296
241 297
241 298
241 299
241 300
241 301
241 302
241 305
241 306
241 307
241 311
241 315
241 316
241 317
241 320
241 321
241 322
241 323
241 324
241 325
241 326
241 327
241 328
241 329
241 330
241 331
241 332
241 333
241 334
241 336
241 337
241 340
241 341
241 344
241 345
241 346
241 347
241 348
241 352
241 356
241 358
241 360
241 361
241 362
241 363
241 364
241 365
241 366
241 367
241 368
241 369
241 372
241 373
241 374
241 375
241 376
241 377
241 378
241 379
241 381
241 382
241 383
241 384
241 385
241 387
241 391
241 396
241 397
241 400
241 402
241 404
241 408
241 410
241 413
241 414
241 415
241 418
241 421
241 422
241 423
241 424
241 429
241 430
241 431
241 433
241 435
241 436
241 437
241 440
241 441
241 443
241 447
241 449
241 450
241 451
241 452
241 453
241 454
241 455
241 456
241 457
241 458
241 459
241 460
241 464
241 466
242 243
242 244
242 245
242 246
242 247
242 248
242 249
242 250
242 255
242 256
242 257
242 258
242 260
242 263
242 264
242 265
242 266
242 270
242 276
242 284
242 285
242 287
242 288
242 289
242 290
242 291
242 292
242 293
242 294
242 295
242 296
242 298
242 299
242 300
242 301
242 302
242 305
242 306
242 307
242 311
242 315
242 316
242 317
242 320
242 321
242 322
242 323
242 324
242 325
242 326
242 327
242 328
242 330
242 331
242 332
242 333
242 334
242 336
242 337
242 340
242 341
242 344
242 345
242 346
242 347
242 348
242 352
242 356
242 358
242 360
242 361
242 362
242 363
242 364
242 365
242 366
242 367
242 368
242 369
242 372
242 373
242 374
242 375
242 376
242 377
242 378
242 380
242 381
242 382
242 383
242 384
242 385
242 387
242 391
242 396
242 397
242 400
242 402
242 404
242 408
242 410
242 413
242 414
242 415
242 418
242 421
242 422
242 423
242 424
242 429
242 430
242 431
242 433
242 435
242 436
242 437
242 440
242 441
242 443
242 447
242 448
242 449
242 450
242 451
242 452
242 453
242 454
242 456
242 457
242 458
242 459
242 460
242 464
242 466
243 244
243 245
243 246
243 247
243 248
243 249
243 250
243 255
243 256
243 257
243 258
243 260
243 263
243 264
243 265
243 266
243 270
243 276
243 284
243 285
243 287
243 288
243 289
243 290
243 291
243 292
243 293
243 294
243 295
243 296
243 297
243 299
243 300
243 301
243 302
243 305
243 306
243 307
243 311
243 315
243 316
243 317
243 320
243 321
243 322
243 323
243 324
243 325
243 326
243 327
243 328
243 329
243 331
243 332
243 333
243 334
243 336
243 337
243 340
243 341
243 344
243 345
243 346
243 347
243 348
243 352
243 356
243 358
243 360
243 361
243 362
243 363
243 364
243 366
243 367
243 368
243 369
243 372
243 373
243 374
243 375
243 376
243 377
243 378
243 379
243 380
243 382
243 383
243 384
243 385
243 387
243 391
243 396
243 397
243 400
243 402
243 404
243 408
243 410
243 413
243 414
243 415
243 418
243 421
243 422
243 423
243 424
243 429
243 430
243 431
243 433
243 435
243 436
243 437
243 440
243 441
243 443
243 447
243 448
243 449
243 450
243 451
243 452
243 453
243 454
243 455
243 457
243 458
243 459
243 460
243 464
243 466
244 245
244 246
244 247
244 248
244 249
244 250
244 255
244 256
244 257
244 258
244 259
244 260
244 261
244 262
244 264
244 265
244 266
244 270
244 276
244 284
244 285
244 287
244 288
244 289
244 290
244 291
244 292
244 293
244 295
244 296
244 297
244 298
244 299
244 300
244 301
244 302
244 303
244 304
244 305
244 306
244 307
244 308
244 309
244 310
244 311
244 312
244 313
244 314
244 316
244 317
244 318
244 319
244 320
244 321
244 322
244 323
244 324
244 325
244 326
244 327
244 328
244 329
244 330
244 331
244 332
244 333
244 334
244 336
244 337
244 340
244 341
244 342
244 343
244 345
244 346
244 347
244 348
244 352
244 356
244 358
244 360
244 361
244 362
244 363
244 364
244 365
244 366
244 367
244 368
244 369
244 372
244 373
244 374
244 375
244 376
244 377
244 378
244 379
244 381
244 382
244 383
244 384
244 385
244 387
244 391
244 396
244 397
244 400
244 402
244 404
244 406
244 407
244 408
244 409
244 410
244 411
244 412
244 414
244 415
244 416
244 417
244 418
244 421
244 422
244 423
244 424
244 429
244 430
244 431
244 433
244 435
244 436
244 437
244 440
244 441
244 443
244 447
244 448
244 449
244 450
244 451
244 452
244 453
244 454
244 455
244 456
244 457
244 458
244 459
244 460
244 464
244 466
245 246
245 247
245 248
245 249
245 250
245 255
245 256
245 257
245 258
245 259
245 260
245 261
245 262
245 263
245 265
245 266
245 270
245 276
245 284
245 285
245 287
245 288
245 289
245 290
245 291
245 292
245 293
245 295
245 296
245 297
245 298
245 299
245 300
245 301
245 302
245 303
245 304
245 305
245 306
245 307
245 308
245 309
245 310
245 311
245 312
245 313
245 314
245 315
245 317
245 318
245 319
245 320
245 321
245 322
245 323
245 324
245 325
245 326
245 327
245 328
245 329
245 330
245 331
245 332
245 333
245 334
245 336
245 337
245 340
245 341
245 342
245 343
245 344
245 346
245 347
245 348
245 352
245 356
245 358
245 360
245 361
245 362
245 363
245 364
245 365
245 366
245 367
245 368
245 369
245 372
245 373
245 374
245 375
245 376
245 377
245 378
245 379
245 381
245 382
245 383
245 384
245 385
245 386
245 391
245 396
245 397
245 400
245 402
245 404
245 406
245 407
245 408
245 409
245 410
245 411
245 412
245 413
245 415
245 416
245 417
245 418
245 421
245 422
245 423
245 424
245 425
245 426
245 427
245 428
245 429
245 430
245 431
245 432
245 434
245 435
245 436
245 437
245 438
245 439
245 440
245 441
245 443
245 447
245 448
245 449
245 450
245 451
245 452
245 453
245 454
245 455
245 456
245 457
245 458
245 459
245 460
245 464
245 466
246 247
246 248
246 249
246 250
246 255
246 256
246 257
246 258
246 259
246 260
246 261
246 262
246 263
246 264
246 266
246 270
246 276
246 284
246 285
246 287
246 288
246 289
246 290
246 291
246 292
246 293
246 295
246 296
246 297
246 298
246 299
246 300
246 301
246 302
246 303
246 304
246 305
246 306
246 307
246 308
246 309
246 310
246 311
246 312
246 313
246 314
246 315
246 316
246 318
246 319
246 320
246 321
246 322
246 323
246 324
246 325
246 326
246 327
246 328
246 329
246 330
246 331
246 332
246 333
246 334
246 336
246 337
246 340
246 341
246 342
246 343
246 344
246 345
246 347
246 348
246 352
246 356
246 358
246 360
246 361
246 362
246 363
246 364
246 365
246 366
246 367
246 368
246 369
246 372
246 373
246 374
246 375
246 376
246 377
246 378
246 379
246 381
246 382
246 383
246 384
246 385
246 387
246 391
246 396
246 397
246 400
246 402
246 404
246 406
246 407
246 408
246 409
246 410
246 411
246 412
246 413
246 414
246 416
246 417
246 418
246 421
246 422
246 423
246 424
246 429
246 430
246 431
246 433
246 435
246 436
246 437
246 440
246 441
246 443
246 447
246 448
246 449
246 450
246 451
246 452
246 453
246 454
246 455
246 456
246 457
246 458
246 459
246 460
246 464
246 466
247 248
247 249
247 250
247 255
247 256
247 257
247 258
247 260
247 263
247 264
247 265
247 266
247 270
247 276
247 284
247 285
247 287
247 288
247 289
247 290
247 291
247 292
247 293
247 294
247 295
247 296
247 297
247 298
247 300
247 301
247 302
247 305
247 306
247 307
247 311
247 315
247 316
247 317
247 320
247 321
247 322
247 323
247 324
247 325
247 326
247 327
247 328
247 329
247 330
247 332
247 333
247 334
247 336
247 337
247 340
247 341
247 344
247 345
247 346
247 347
247 348
247 352
247 356
247 358
247 360
247 361
247 362
247 363
247 364
247 365
247 367
247 368
247 369
247 372
247 373
247 374
247 375
247 376
247 377
247 378
247 379
247 380
247 381
247 383
247 384
247 385
247 387
247 391
247 396
247 397
247 400
247 402
247 404
247 408
247 410
247 413
247 414
247 415
247 418
247 421
247 422
247 423
247 424
247 425
247 426
247 427
247 428
247 429
247 430
247 431
247 432
247 433
247 434
247 436
247 437
247 438
247 439
247 440
247 441
247 443
247 447
247 448
247 449
247 450
247 451
247 452
247 453
247 454
247 455
247 456
247 458
247 459
247 460
247 464
247 466
248 249
248 250
248 255
248 256
248 257
248 258
248 260
248 263
248 264
248 265
248 266
248 270
248 276
248 284
248 285
248 287
248 288
248 289
248 290
248 291
248 292
248 293
248 294
248 295
248 296
248 297
248 298
248 299
248 301
248 302
248 305
248 306
248 307
248 311
248 315
248 316
248 317
248 320
248 321
248 322
248 323
248 324
248 325
248 326
248 327
248 328
248 329
248 330
248 331
248 333
248 334
248 336
248 337
248 340
248 341
248 344
248 345
248 346
248 347
248 348
248 352
248 356
248 358
248 360
248 361
248 362
248 363
248 364
248 365
248 366
248 368
248 369
248 372
248 373
248 374
248 375
248 376
248 377
248 378
248 379
248 380
248 381
248 382
248 384
248 385
248 387
248 391
248 396
248 397
248 400
248 402
248 404
248 408
248 410
248 413
248 414
248 415
248 418
248 421
248 422
248 423
248 424
248 425
248 426
248 427
248 428
248 429
248 430
248 431
248 432
248 433
248 434
248 435
248 437
248 438
248 439
248 440
248 441
248 443
248 447
248 448
248 449
248 450
248 451
248 452
248 453
248 454
248 455
248 456
248 457
248 459
248 460
248 464
248 466
249 250
249 255
249 256
249 257
249 258
249 260
249 263
249 264
249 265
249 266
249 270
249 276
249 284
249 285
249 287
249 288
249 289
249 290
249 291
249 292
249 293
249 294
249 295
249 296
249 297
249 298
249 299
249 300
249 302
249 303
249 304
249 305
249 306
249 307
249 308
249 309
249 310
249 311
249 312
249 313
249 314
249 315
249 316
249 317
249 318
249 319
249 321
249 322
249 323
249 324
249 325
249 326
249 327
249 328
249 329
249 330
249 331
249 332
249 334
249 336
249 337
249 340
249 341
249 342
249 343
249 344
249 345
249 346
249 348
249 352
249 356
249 358
249 360
249 361
249 362
249 363
249 364
249 365
249 366
249 367
249 369
249 372
249 373
249 374
249 375
249 376
249 377
249 378
249 379
249 380
249 381
249 382
249 383
249 385
249 387
249 391
249 396
249 397
249 400
249 402
249 404
249 408
249 410
249 413
249 414
249 415
249 418
249 421
249 422
249 423
249 424
249 425
249 426
249 427
249 428
249 429
249 430
249 431
249 432
249 433
249 434
249 435
249 436
249 438
249 439
249 440
249 441
249 442
249 447
249 448
249 450
249 451
249 452
249 453
249 454
249 455
249 456
249 457
249 458
249 460
249 464
249 466
250 255
250 256
250 257
250 258
250 260
250 263
250 264
250 265
250 266
250 270
250 276
250 284
250 285
250 287
250 288
250 289
250 290
250 291
250 292
250 293
250 294
250 295
250 296
250 297
250 298
250 299
250 300
250 301
250 305
250 306
250 307
250 311
250 315
250 316
250 317
250 320
250 321
250 322
250 323
250 324
250 325
250 326
250 327
250 328
250 329
250 330
250 331
250 332
250 333
250 336
250 337
250 340
250 341
250 344
250 345
250 346
250 347
250 348
250 352
250 356
250 358
250 360
250 361
250 362
250 363
250 364
250 365
250 366
250 367
250 368
250 372
250 373
250 374
250 375
250 376
250 377
250 378
250 379
250 380
250 381
250 382
250 383
250 384
250 387
250 391
250 396
250 397
250 400
250 402
250 404
250 408
250 410
250 413
250 414
250 415
250 418
250 421
250 422
250 423
250 424
250 425
250 426
250 427
250 428
250 429
250 430
250 431
250 432
250 433
250 434
250 435
250 436
250 437
250 438
250 439
250 441
250 443
250 447
250 448
250 449
250 450
250 451
250 452
250 453
250 454
250 455
250 456
250 457
250 458
250 459
250 464
250 466
251 252
251 254
251 370
251 390
251 393
251 461
251 475
252 253
252 371
252 389
252 391
252 392
252 394
252 462
252 476
253 254
253 370
253 390
253 393
253 461
253 475
254 371
254 389
254 391
254 392
254 394
254 462
254 476
255 256
255 257
255 258
255 259
255 260
255 261
255 262
255 263
255 264
255 265
255 270
255 284
255 285
255 289
255 292
255 294
255 295
255 303
255 304
255 306
255 307
255 308
255 309
255 310
255 311
255 312
255 313
255 314
255 315
255 316
255 317
255 318
255 319
255 320
255 323
255 327
255 336
255 337
255 341
255 342
255 343
255 344
255 345
255 346
255 347
255 352
255 356
255 358
255 362
255 374
255 380
255 387
255 391
255 396
255 397
255 400
255 402
255 404
255 408
255 409
255 410
255 411
255 412
255 413
255 414
255 415
255 422
255 430
255 432
255 433
255 452
255 464
256 257
256 258
256 259
256 260
256 261
256 262
256 263
256 264
256 265
256 270
256 284
256 285
256 287
256 288
256 290
256 291
256 292
256 293
256 294
256 295
256 296
256 297
256 298
256 299
256 300
256 301
256 302
256 303
256 304
256 305
256 307
256 308
256 309
256 310
256 311
256 312
256 313
256 314
256 315
256 316
256 317
256 318
256 319
256 320
256 321
256 322
256 324
256 325
256 326
256 327
256 328
256 329
256 330
256 331
256 332
256 333
256 334
256 336
256 337
256 340
256 341
256 342
256 343
256 344
256 345
256 346
256 352
256 356
256 358
256 360
256 361
256 363
256 364
256 365
256 366
256 367
256 368
256 369
256 372
256 373
256 375
256 376
256 377
256 378
256 379
256 380
256 381
256 382
256 383
256 384
256 385
256 387
256 391
256 396
256 397
256 400
256 402
256 404
256 408
256 409
256 410
256 411
256 412
256 413
256 414
256 415
256 421
256 423
256 424
256 425
256 426
256 427
256 428
256 429
256 430
256 431
256 432
256 433
256 434
256 435
256 436
256 437
256 438
256 439
256 440
256 450
256 451
256 453
256 454
256 455
256 456
256 457
256 458
256 459
256 460
256 464
257 258
257 259
257 260
257 261
257 262
257 263
257 264
257 265
257 270
257 284
257 285
257 289
257 292
257 294
257 295
257 305
257 306
257 307
257 310
257 311
257 313
257 315
257 316
257 317
257 323
257 327
257 336
257 337
257 340
257 342
257 343
257 344
257 345
257 346
257 347
257 352
257 356
257 358
257 362
257 374
257 380
257 387
257 391
257 396
257 397
257 400
257 402
257 404
257 408
257 409
257 410
257 411
257 412
257 413
257 414
257 415
257 422
257 430
257 432
257 433
257 452
257 464
258 259
258 260
258 261
258 262
258 263
258 264
258 265
258 270
258 278
258 279
258 280
258 281
258 282
258 283
258 285
258 286
258 287
258 288
258 289
258 290
258 291
258 293
258 294
258 295
258 296
258 297
258 298
258 299
258 300
258 301
258 302
258 303
258 304
258 305
258 306
258 308
258 309
258 310
258 311
258 312
258 313
258 314
258 315
258 316
258 317
258 318
258 319
258 320
258 323
258 327
258 335
258 337
258 338
258 339
258 340
258 341
258 342
258 343
258 344
258 345
258 346
258 352
258 357
258 358
258 359
258 362
258 374
258 380
258 387
258 391
258 395
258 397
258 398
258 399
258 400
258 402
258 404
258 406
258 407
258 409
258 410
258 411
258 412
258 413
258 414
258 415
258 416
258 417
258 422
258 430
258 432
258 433
258 452
258 464
259 260
259 261
259 262
259 263
259 264
259 265
259 270
259 284
259 285
259 287
259 288
259 289
259 290
259 291
259 292
259 293
259 295
259 296
259 297
259 298
259 299
259 300
259 301
259 302
259 303
259 304
259 305
259 306
259 307
259 308
259 309
259 311
259 312
259 313
259 314
259 315
259 316
259 317
259 318
259 319
259 320
259 323
259 327
259 336
259 337
259 340
259 341
259 343
259 344
259 345
259 346
259 347
259 352
259 356
259 358
259 362
259 374
259 380
259 387
259 391
259 396
259 397
259 400
259 402
259 404
259 406
259 407
259 408
259 410
259 411
259 412
259 413
259 414
259 415
259 416
259 417
259 422
259 430
259 432
259 433
259 452
259 464
260 261
260 262
260 263
260 264
260 265
260 266
260 267
260 268
260 269
260 271
260 272
260 273
260 278
260 279
260 280
260 281
260 282
260 283
260 284
260 286
260 287
260 288
260 289
260 290
260 291
260 292
260 293
260 294
260 296
260 297
260 298
260 299
260 300
260 301
260 302
260 303
260 304
260 305
260 306
260 307
260 308
260 309
260 310
260 312
260 313
260 314
260 315
260 316
260 317
260 318
260 319
260 320
260 321
260 322
260 323
260 324
260 325
260 326
260 328
260 329
260 330
260 331
260 332
260 333
260 334
260 335
260 336
260 338
260 339
260 340
260 341
260 342
260 343
260 344
260 345
260 346
260 348
260 349
260 350
260 351
260 353
260 354
260 355
260 356
260 357
260 359
260 362
260 374
260 380
260 387
260 389
260 390
260 392
260 395
260 396
260 398
260 399
260 401
260 403
260 405
260 406
260 407
260 408
260 409
260 411
260 412
260 413
260 414
260 415
260 416
260 417
260 421
260 422
260 423
260 424
260 425
260 426
260 427
260 428
260 429
260 431
260 432
260 433
260 434
260 435
260 436
260 437
260 438
260 439
260 440
260 452
260 463
260 465
261 262
261 263
261 264
261 265
261 270
261 284
261 285
261 289
261 292
261 294
261 295
261 303
261 304
261 305
261 306
261 307
261 308
261 309
261 310
261 311
261 312
261 314
261 315
261 316
261 317
261 318
261 319
261 320
261 323
261 327
261 336
261 337
261 340
261 341
261 342
261 343
261 344
261 345
261 346
261 352
261 356
261 358
261 362
261 374
261 380
261 387
261 391
261 396
261 397
261 400
261 402
261 404
261 406
261 407
261 408
261 409
261 410
261 412
261 413
261 414
261 415
261 416
261 417
261 422
261 430
261 432
261 433
261 452
261 464
262 263
262 264
262 265
262 270
262 284
262 285
262 289
262 292
262 294
262 295
262 305
262 306
262 307
262 310
262 311
262 313
262 315
262 316
262 317
262 323
262 327
262 336
262 337
262 340
262 341
262 342
262 344
262 345
262 346
262 347
262 352
262 356
262 358
262 362
262 372
262 373
262 374
262 375
262 376
262 377
262 378
262 379
262 381
262 382
262 383
262 384
262 385
262 387
262 391
262 396
262 397
262 400
262 402
262 404
262 406
262 407
262 408
262 409
262 410
262 411
262 413
262 414
262 415
262 416
262 417
262 421
262 422
262 423
262 424
262 425
262 426
262 427
262 428
262 429
262 430
262 431
262 433
262 434
262 435
262 436
262 437
262 438
262 439
262 440
262 452
262 464
263 264
263 265
263 270
263 284
263 285
263 289
263 292
263 294
263 295
263 303
263 304
263 305
263 306
263 307
263 308
263 309
263 310
263 311
263 312
263 313
263 314
263 316
263 317
263 318
263 319
263 320
263 323
263 327
263 336
263 337
263 340
263 341
263 342
263 343
263 345
263 346
263 347
263 352
263 356
263 358
263 362
263 374
263 380
263 387
263 391
263 396
263 397
263 400
263 402
263 404
263 406
263 407
263 408
263 409
263 410
263 411
263 412
263 414
263 415
263 416
263 417
263 422
263 430
263 432
263 433
263 452
263 464
264 265
264 270
264 284
264 285
264 289
264 292
264 294
264 295
264 303
264 304
264 305
264 306
264 307
264 308
264 309
264 310
264 311
264 312
264 313
264 314
264 315
264 317
264 318
264 319
264 320
264 323
264 327
264 336
264 337
264 340
264 341
264 342
264 343
264 344
264 346
264 347
264 352
264 356
264 358
264 362
264 374
264 380
264 386
264 391
264 396
264 397
264 400
264 402
264 404
264 406
264 407
264 408
264 409
264 410
264 411
264 412
264 413
264 415
264 416
264 417
264 421
264 422
264 423
264 424
264 425
264 426
264 427
264 428
264 429
264 430
264 431
264 432
264 434
264 435
264 436
264 437
264 438
264 439
264 440
264 452
264 464
265 270
265 284
265 285
265 289
265 292
265 294
265 295
265 303
265 304
265 305
265 306
265 307
265 308
265 309
265 310
265 311
265 312
265 313
265 314
265 315
265 316
265 318
265 319
265 320
265 323
265 327
265 336
265 337
265 340
265 341
265 342
265 343
265 344
265 345
265 347
265 352
265 356
265 358
265 362
265 374
265 380
265 387
265 391
265 396
265 397
265 400
265 402
265 404
265 406
265 407
265 408
265 409
265 410
265 411
265 412
265 413
265 414
265 416
265 417
265 422
265 430
265 432
265 433
265 452
265 464
266 267
266 268
266 269
266 270
266 271
266 272
266 273
266 274
266 275
266 285
266 287
266 288
266 289
266 291
266 292
266 293
266 294
266 295
266 296
266 297
266 298
266 299
266 300
266 301
266 302
266 311
266 318
266 321
266 322
266 323
266 325
266 326
266 327
266 328
266 329
266 330
266 331
266 332
266 333
266 334
266 337
266 349
266 350
266 351
266 352
266 353
266 354
266 355
266 358
266 359
266 372
266 373
266 374
266 376
266 377
266 378
266 379
266 380
266 381
266 382
266 383
266 384
266 385
266 391
266 397
266 400
266 402
266 404
266 410
266 416
266 419
266 420
266 421
266 422
266 424
266 425
266 426
266 427
266 428
266 429
266 430
266 431
266 432
266 433
266 434
266 435
266 436
266 437
266 438
266 439
266 440
266 464
266 467
266 468
266 469
266 470
266 471
266 472
267 268
267 269
267 270
267 271
267 272
267 273
267 274
267 275
267 285
267 290
267 295
267 311
267 318
267 324
267 327
267 337
267 348
267 349
267 351
267 352
267 353
267 354
267 355
267 358
267 359
267 375
267 391
267 397
267 400
267 402
267 404
267 410
267 416
267 418
267 420
267 421
267 422
267 423
267 424
267 425
267 427
267 428
267 429
267 430
267 431
267 432
267 433
267 434
267 435
267 436
267 437
267 438
267 439
267 440
267 464
267 466
267 468
267 469
267 470
267 471
267 472
268 269
268 270
268 271
268 272
268 273
268 275
268 285
268 290
268 295
268 311
268 318
268 324
268 327
268 337
268 348
268 349
268 350
268 352
268 353
268 354
268 355
268 358
268 359
268 375
268 391
268 397
268 400
268 402
268 404
268 410
268 416
268 418
268 420
268 421
268 422
268 423
268 424
268 425
268 426
268 428
268 429
268 430
268 431
268 432
268 433
268 434
268 435
268 436
268 437
268 438
268 439
268 440
268 464
268 466
268 467
268 469
268 470
268 472
268 473
269 270
269 271
269 272
269 273
269 274
269 285
269 290
269 295
269 311
269 318
269 324
269 327
269 337
269 348
269 350
269 351
269 352
269 353
269 355
269 358
269 359
269 375
269 391
269 397
269 400
269 402
269 404
269 410
269 416
269 418
269 420
269 423
269 426
269 427
269 430
269 434
269 439
269 464
269 466
269 467
269 468
269 469
269 470
269 471
269 472
270 271
270 272
270 273
270 274
270 275
270 278
270 279
270 280
270 281
270 282
270 283
270 284
270 286
270 287
270 288
270 289
270 290
270 291
270 292
270 293
270 294
270 296
270 297
270 298
270 299
270 300
270 301
270 302
270 303
270 304
270 305
270 306
270 307
270 308
270 309
270 310
270 312
270 313
270 314
270 315
270 316
270 317
270 318
270 319
270 320
270 321
270 322
270 323
270 324
270 325
270 326
270 328
270 329
270 330
270 331
270 332
270 333
270 334
270 335
270 336
270 338
270 339
270 348
270 349
270 350
270 351
270 353
270 354
270 355
270 356
270 357
270 359
270 375
270 389
270 390
270 392
270 395
270 396
270 398
270 399
270 401
270 403
270 405
270 406
270 407
270 408
270 409
270 411
270 412
270 413
270 414
270 415
270 416
270 417
270 418
270 420
270 421
270 422
270 423
270 424
270 425
270 426
270 427
270 428
270 429
270 431
270 432
270 433
270 434
270 435
270 436
270 437
270 438
270 439
270 440
270 463
270 465
270 466
270 467
270 468
270 469
270 470
270 471
270 472
271 272
271 273
271 274
271 275
271 285
271 290
271 295
271 311
271 318
271 324
271 327
271 337
271 348
271 350
271 351
271 352
271 353
271 355
271 358
271 359
271 375
271 391
271 397
271 400
271 402
271 404
271 410
271 416
271 418
271 420
271 423
271 426
271 427
271 430
271 434
271 439
271 464
271 466
271 467
271 468
271 469
271 470
271 471
271 473
272 273
272 274
272 275
272 285
272 290
272 295
272 303
272 304
272 305
272 306
272 307
272 308
272 309
272 310
272 311
272 312
272 313
272 314
272 315
272 316
272 317
272 319
272 320
272 324
272 327
272 337
272 348
272 349
272 350
272 351
272 352
272 354
272 355
272 356
272 357
272 358
272 375
272 391
272 397
272 400
272 402
272 404
272 406
272 407
272 408
272 409
272 410
272 411
272 412
272 413
272 414
272 415
272 417
272 418
272 420
272 421
272 422
272 423
272 424
272 425
272 426
272 427
272 428
272 429
272 430
272 431
272 432
272 433
272 435
272 436
272 437
272 438
272 439
272 440
272 464
272 466
272 467
272 468
272 470
272 471
272 472
273 274
273 275
273 285
273 290
273 295
273 311
273 318
273 324
273 327
273 337
273 348
273 349
273 350
273 351
273 352
273 353
273 354
273 358
273 359
273 375
273 391
273 397
273 400
273 402
273 404
273 410
273 416
273 418
273 419
273 421
273 422
273 423
273 424
273 425
273 426
273 427
273 428
273 429
273 430
273 431
273 432
273 433
273 434
273 435
273 436
273 437
273 438
273 440
273 464
273 466
273 467
273 468
273 469
273 471
273 472
274 275
274 348
274 349
274 350
274 352
274 353
274 354
274 355
274 421
274 422
274 423
274 424
274 425
274 426
274 428
274 429
274 430
274 431
274 432
274 433
274 434
274 435
274 436
274 437
274 438
274 439
274 440
274 466
274 467
274 469
274 470
274 472
274 473
275 351
275 427
275 468
275 471
276 277
276 442
276 443
277 441
277 443
278 279
278 280
278 281
278 282
278 283
278 284
278 285
278 286
278 292
278 295
278 304
278 305
278 306
278 307
278 308
278 309
278 310
278 311
278 312
278 313
278 314
278 315
278 316
278 317
278 318
278 319
278 320
278 327
278 336
278 337
278 352
278 356
278 358
278 391
278 396
278 397
278 398
278 399
278 400
278 402
278 404
278 407
278 408
278 409
278 410
278 411
278 412
278 413
278 414
278 415
278 416
278 417
278 430
278 445
278 446
278 464
278 465
279 280
279 281
279 282
279 283
279 284
279 285
279 286
279 292
279 295
279 303
279 305
279 306
279 307
279 308
279 309
279 310
279 311
279 312
279 313
279 314
279 315
279 316
279 317
279 318
279 319
279 320
279 327
279 336
279 337
279 352
279 356
279 358
279 391
279 395
279 396
279 397
279 400
279 402
279 404
279 406
279 408
279 410
279 430
279 444
279 463
279 464
280 281
280 282
280 283
280 284
280 285
280 286
280 292
280 295
280 303
280 304
280 307
280 311
280 327
280 336
280 337
280 352
280 356
280 358
280 391
280 395
280 396
280 397
280 400
280 402
280 404
280 406
280 408
280 410
280 430
280 444
280 463
280 464
281 282
281 283
281 284
281 285
281 286
281 292
281 295
281 303
281 304
281 307
281 311
281 327
281 336
281 337
281 352
281 356
281 358
281 391
281 395
281 396
281 397
281 400
281 402
281 404
281 406
281 408
281 410
281 430
281 444
281 463
281 464
282 283
282 284
282 285
282 286
282 292
282 295
282 303
282 304
282 307
282 311
282 327
282 336
282 337
282 352
282 356
282 358
282 391
282 395
282 396
282 397
282 400
282 402
282 404
282 406
282 408
282 410
282 430
282 444
282 463
282 464
283 284
283 285
283 286
283 292
283 295
283 303
283 304
283 307
283 311
283 327
283 336
283 337
283 352
283 356
283 358
283 391
283 395
283 396
283 397
283 400
283 402
283 404
283 406
283 408
283 410
283 430
283 444
283 463
283 464
284 285
284 286
284 287
284 288
284 289
284 290
284 291
284 293
284 294
284 295
284 296
284 297
284 298
284 299
284 300
284 301
284 302
284 303
284 304
284 305
284 306
284 308
284 309
284 310
284 311
284 312
284 313
284 314
284 315
284 316
284 317
284 318
284 319
284 320
284 327
284 335
284 337
284 338
284 339
284 352
284 357
284 358
284 359
284 391
284 395
284 397
284 398
284 399
284 400
284 402
284 404
284 406
284 407
284 409
284 410
284 411
284 412
284 413
284 414
284 415
284 416
284 417
284 430
284 444
284 463
284 464
285 286
285 287
285 288
285 289
285 290
285 291
285 292
285 293
285 294
285 296
285 297
285 298
285 299
285 300
285 301
285 302
285 303
285 304
285 305
285 306
285 307
285 308
285 309
285 310
285 312
285 313
285 314
285 315
285 316
285 317
285 318
285 319
285 320
285 321
285 322
285 323
285 324
285 325
285 326
285 328
285 329
285 330
285 331
285 332
285 333
285 334
285 335
285 336
285 338
285 339
285 348
285 349
285 350
285 351
285 353
285 354
285 355
285 356
285 357
285 359
285 389
285 390
285 392
285 395
285 396
285 398
285 399
285 401
285 403
285 405
285 406
285 407
285 408
285 409
285 411
285 412
285 413
285 414
285 415
285 416
285 417
285 421
285 422
285 423
285 424
285 425
285 426
285 427
285 428
285 429
285 431
285 432
285 433
285 434
285 435
285 436
285 437
285 438
285 439
285 440
285 444
285 463
285 465
286 292
286 295
286 303
286 304
286 307
286 311
286 327
286 336
286 337
286 352
286 356
286 358
286 391
286 395
286 396
286 397
286 400
286 402
286 404
286 406
286 408
286 410
286 430
286 444
286 463
286 464
287 288
287 289
287 290
287 291
287 292
287 293
287 294
287 295
287 296
287 297
287 298
287 299
287 300
287 301
287 302
287 306
287 307
287 310
287 311
287 320
287 322
287 323
287 324
287 325
287 326
287 327
287 328
287 329
287 330
287 331
287 332
287 333
287 334
287 336
287 337
287 342
287 347
287 348
287 352
287 356
287 358
287 361
287 362
287 363
287 364
287 365
287 366
287 367
287 368
287 369
287 373
287 374
287 375
287 376
287 377
287 378
287 379
287 380
287 381
287 382
287 383
287 384
287 385
287 391
287 396
287 397
287 400
287 402
287 404
287 408
287 409
287 410
287 418
287 421
287 422
287 423
287 424
287 429
287 430
287 431
287 435
287 436
287 437
287 440
287 443
287 449
287 451
287 452
287 453
287 454
287 455
287 456
287 457
287 458
287 459
287 460
287 464
287 466
288 289
288 290
288 291
288 292
288 293
288 294
288 295
288 296
288 297
288 298
288 299
288 300
288 301
288 302
288 306
288 307
288 310
288 311
288 320
288 321
288 323
288 324
288 325
288 326
288 327
288 328
288 329
288 330
288 331
288 332
288 333
288 334
288 336
288 337
288 342
288 347
288 348
288 352
288 356
288 358
288 360
288 362
288 363
288 364
288 365
288 366
288 367
288 368
288 369
288 372
288 374
288 375
288 376
288 377
288 378
288 379
288 380
288 381
288 382
288 383
288 384
288 385
288 391
288 396
288 397
288 400
288 402
288 404
288 408
288 409
288 410
288 418
288 422
288 423
288 424
288 425
288 426
288 427
288 428
288 429
288 430
288 431
288 432
288 433
288 434
288 435
288 436
288 437
288 438
288 439
288 440
288 443
288 449
288 450
288 452
288 453
288 454
288 455
288 456
288 457
288 458
288 459
288 460
288 464
288 466
289 290
289 291
289 292
289 293
289 294
289 295
289 296
289 297
289 298
289 299
289 300
289 301
289 302
289 303
289 304
289 305
289 307
289 308
289 309
289 310
289 311
289 312
289 313
289 314
289 315
289 316
289 317
289 318
289 319
289 320
289 321
289 322
289 324
289 325
289 326
289 327
289 328
289 329
289 330
289 331
289 332
289 333
289 334
289 336
289 337
289 342
289 347
289 348
289 352
289 356
289 358
289 360
289 361
289 363
289 364
289 365
289 366
289 367
289 368
289 369
289 372
289 373
289 375
289 376
289 377
289 378
289 379
289 380
289 381
289 382
289 383
289 384
289 385
289 391
289 396
289 397
289 400
289 402
289 404
289 408
289 409
289 410
289 418
289 421
289 423
289 424
289 425
289 426
289 427
289 428
289 429
289 430
289 431
289 432
289 433
289 434
289 435
289 436
289 437
289 438
289 439
289 440
289 443
289 449
289 450
289 451
289 453
289 454
289 455
289 456
289 457
289 458
289 459
289 460
289 464
289 466
290 291
290 292
290 293
290 294
290 295
290 296
290 297
290 298
290 299
290 300
290 301
290 302
290 306
290 307
290 310
290 311
290 320
290 321
290 322
290 323
290 325
290 326
290 327
290 328
290 329
290 330
290 331
290 332
290 333
290 334
290 336
290 337
290 342
290 347
290 349
290 350
290 351
290 352
290 353
290 354
290 355
290 356
290 358
290 360
290 361
290 362
290 363
290 364
290 365
290 366
290 367
290 368
290 369
290 372
290 373
290 374
290 376
290 377
290 378
290 379
290 380
290 381
290 382
290 383
290 384
290 385
290 391
290 396
290 397
290 400
290 402
290 404
290 408
290 409
290 410
290 419
290 420
290 421
290 422
290 424
290 425
290 426
290 427
290 428
290 429
290 430
290 431
290 432
290 433
290 434
290 435
290 436
290 437
290 438
290 439
290 440
290 443
290 449
290 450
290 451
290 452
290 453
290 454
290 455
290 456
290 457
290 458
290 459
290 460
290 464
290 467
290 468
290 469
290 470
291 292
291 293
291 294
291 295
291 296
291 297
291 298
291 299
291 300
291 301
291 302
291 306
291 307
291 310
291 311
291 320
291 321
291 322
291 323
291 324
291 326
291 327
291 328
291 329
291 330
291 331
291 332
291 333
291 334
291 336
291 337
291 342
291 347
291 348
291 352
291 356
291 358
291 360
291 361
291 362
291 364
291 365
291 366
291 367
291 368
291 369
291 372
291 373
291 374
291 375
291 377
291 378
291 379
291 380
291 381
291 382
291 383
291 384
291 385
291 391
291 396
291 397
291 400
291 402
291 404
291 408
291 409
291 410
291 418
291 421
291 422
291 423
291 425
291 426
291 427
291 428
291 429
291 430
291 431
291 432
291 433
291 434
291 435
291 436
291 437
291 438
291 439
291 440
291 443
291 449
291 450
291 451
291 452
291 454
291 455
291 456
291 457
291 458
291 459
291 460
291 464
291 466
292 293
292 294
292 295
292 296
292 297
292 298
292 299
292 300
292 301
292 302
292 303
292 304
292 305
292 306
292 308
292 309
292 310
292 311
292 312
292 313
292 314
292 315
292 316
292 317
292 318
292 319
292 320
292 321
292 322
292 323
292 324
292 325
292 326
292 327
292 328
292 329
292 330
292 331
292 332
292 333
292 334
292 335
292 337
292 338
292 339
292 342
292 347
292 348
292 352
292 357
292 358
292 359
292 360
292 361
292 362
292 363
292 364
292 365
292 366
292 367
292 368
292 369
292 372
292 373
292 374
292 375
292 376
292 377
292 378
292 379
292 381
292 382
292 383
292 384
292 385
292 391
292 395
292 397
292 398
292 399
292 400
292 402
292 404
292 406
292 407
292 409
292 410
292 411
292 412
292 413
292 414
292 415
292 416
292 417
292 418
292 421
292 422
292 423
292 424
292 429
292 430
292 431
292 435
292 436
292 437
292 440
292 443
292 449
292 450
292 451
292 452
292 453
292 454
292 455
292 456
292 457
292 458
292 459
292 460
292 464
292 466
293 294
293 295
293 296
293 297
293 298
293 299
293 300
293 301
293 302
293 306
293 307
293 310
293 311
293 320
293 321
293 322
293 323
293 324
293 325
293 327
293 328
293 329
293 330
293 331
293 332
293 333
293 334
293 336
293 337
293 342
293 347
293 348
293 352
293 356
293 358
293 360
293 361
293 362
293 363
293 365
293 366
293 367
293 368
293 369
293 372
293 373
293 374
293 375
293 376
293 378
293 379
293 380
293 381
293 382
293 383
293 384
293 385
293 391
293 396
293 397
293 400
293 402
293 404
293 408
293 409
293 410
293 418
293 421
293 422
293 423
293 424
293 425
293 426
293 427
293 428
293 430
293 431
293 432
293 433
293 434
293 435
293 436
293 437
293 438
293 439
293 440
293 443
293 449
293 450
293 451
293 452
293 453
293 455
293 456
293 457
293 458
293 459
293 460
293 464
293 466
294 295
294 296
294 297
294 298
294 299
294 300
294 301
294 302
294 303
294 304
294 305
294 306
294 307
294 308
294 309
294 311
294 312
294 313
294 314
294 315
294 316
294 317
294 318
294 319
294 320
294 321
294 322
294 323
294 324
294 325
294 326
294 327
294 328
294 329
294 330
294 331
294 332
294 333
294 334
294 336
294 337
294 340
294 341
294 343
294 344
294 345
294 346
294 347
294 348
294 352
294 356
294 358
294 360
294 361
294 362
294 363
294 364
294 365
294 366
294 367
294 368
294 369
294 372
294 373
294 374
294 375
294 376
294 377
294 378
294 379
294 381
294 382
294 383
294 384
294 385
294 391
294 396
294 397
294 400
294 402
294 404
294 406
294 407
294 408
294 410
294 411
294 412
294 413
294 414
294 415
294 416
294 417
294 418
294 421
294 422
294 423
294 424
294 429
294 430
294 431
294 435
294 436
294 437
294 440
294 443
294 449
294 450
294 451
294 452
294 453
294 454
294 455
294 456
294 457
294 458
294 459
294 460
294 464
294 466
295 296
295 297
295 298
295 299
295 300
295 301
295 302
295 303
295 304
295 305
295 306
295 307
295 308
295 309
295 310
295 312
295 313
295 314
295 315
295 316
295 317
295 318
295 319
295 320
295 321
295 322
295 323
295 324
295 325
295 326
295 328
295 329
295 330
295 331
295 332
295 333
295 334
295 335
295 336
295 338
295 339
295 342
295 347
295 348
295 349
295 350
295 351
295 353
295 354
295 355
295 356
295 357
295 359
295 360
295 361
295 362
295 363
295 364
295 365
295 366
295 367
295 368
295 369
295 372
295 373
295 374
295 375
295 376
295 377
295 378
295 379
295 381
295 382
295 383
295 384
295 385
295 389
295 390
295 392
295 395
295 396
295 398
295 399
295 401
295 403
295 405
295 406
295 407
295 408
295 409
295 411
295 412
295 413
295 414
295 415
295 416
295 417
295 418
295 421
295 422
295 423
295 424
295 425
295 426
295 427
295 428
295 429
295 431
295 432
295 433
295 434
295 435
295 436
295 437
295 438
295 439
295 440
295 443
295 449
295 450
295 451
295 452
295 453
295 454
295 455
295 456
295 457
295 458
295 459
295 460
295 463
295 465
295 466
296 297
296 298
296 299
296 300
296 301
296 302
296 306
296 307
296 310
296 311
296 320
296 321
296 322
296 323
296 324
296 325
296 326
296 327
296 329
296 330
296 331
296 332
296 333
296 334
296 336
296 337
296 342
296 347
296 348
296 352
296 356
296 358
296 360
296 361
296 362
296 363
296 364
296 365
296 366
296 367
296 368
296 369
296 372
296 373
296 374
296 375
296 376
296 377
296 379
296 380
296 381
296 382
296 383
296 384
296 385
296 391
296 396
296 397
296 400
296 402
296 404
296 408
296 409
296 410
296 418
296 421
296 422
296 423
296 424
296 425
296 426
296 427
296 428
296 429
296 430
296 432
296 433
296 434
296 435
296 436
296 437
296 438
296 439
296 440
296 443
296 449
296 450
296 451
296 452
296 453
296 454
296 455
296 456
296 457
296 458
296 459
296 460
296 464
296 466
297 298
297 299
297 300
297 301
297 302
297 306
297 307
297 310
297 311
297 320
297 321
297 322
297 323
297 324
297 325
297 326
297 327
297 328
297 330
297 331
297 332
297 333
297 334
297 336
297 337
297 342
297 347
297 348
297 352
297 356
297 358
297 360
297 361
297 362
297 363
297 364
297 365
297 366
297 367
297 368
297 369
297 372
297 373
297 374
297 375
297 376
297 377
297 378
297 380
297 381
297 382
297 383
297 384
297 385
297 391
297 396
297 397
297 400
297 402
297 404
297 408
297 409
297 410
297 418
297 421
297 422
297 423
297 424
297 429
297 430
297 431
297 435
297 436
297 437
297 440
297 443
297 449
297 450
297 451
297 452
297 453
297 454
297 456
297 457
297 458
297 459
297 460
297 464
297 466
298 299
298 300
298 301
298 302
298 306
298 307
298 310
298 311
298 320
298 321
298 322
298 323
298 324
298 325
298 326
298 327
298 328
298 329
298 331
298 332
298 333
298 334
298 336
298 337
298 342
298 347
298 348
298 352
298 356
298 358
298 360
298 361
298 362
298 363
298 364
298 366
298 367
298 368
298 369
298 372
298 373
298 374
298 375
298 376
298 377
298 378
298 379
298 380
298 382
298 383
298 384
298 385
298 391
298 396
298 397
298 400
298 402
298 404
298 408
298 409
298 410
298 418
298 421
298 422
298 423
298 424
298 429
298 430
298 431
298 435
298 436
298 437
298 440
298 443
298 449
298 450
298 451
298 452
298 453
298 454
298 455
298 457
298 458
298 459
298 460
298 464
298 466
299 300
299 301
299 302
299 306
299 307
299 310
299 311
299 320
299 321
299 322
299 323
299 324
299 325
299 326
299 327
299 328
299 329
299 330
299 332
299 333
299 334
299 336
299 337
299 342
299 347
299 348
299 352
299 356
299 358
299 360
299 361
299 362
299 363
299 364
299 365
299 367
299 368
299 369
299 372
299 373
299 374
299 375
299 376
299 377
299 378
299 379
299 380
299 381
299 383
299 384
299 385
299 391
299 396
299 397
299 400
299 402
299 404
299 408
299 409
299 410
299 418
299 421
299 422
299 423
299 424
299 425
299 426
299 427
299 428
299 429
299 430
299 431
299 432
299 433
299 434
299 436
299 437
299 438
299 439
299 440
299 443
299 449
299 450
299 451
299 452
299 453
299 454
299 455
299 456
299 458
299 459
299 460
299 464
299 466
300 301
300 302
300 306
300 307
300 310
300 311
300 320
300 321
300 322
300 323
300 324
300 325
300 326
300 327
300 328
300 329
300 330
300 331
300 333
300 334
300 336
300 337
300 342
300 347
300 348
300 352
300 356
300 358
300 360
300 361
300 362
300 363
300 364
300 365
300 366
300 368
300 369
300 372
300 373
300 374
300 375
300 376
300 377
300 378
300 379
300 380
300 381
300 382
300 384
300 385
300 391
300 396
300 397
300 400
300 402
300 404
300 408
300 409
300 410
300 418
300 421
300 422
300 423
300 424
300 425
300 426
300 427
300 428
300 429
300 430
300 431
300 432
300 433
300 434
300 435
300 437
300 438
300 439
300 440
300 443
300 449
300 450
300 451
300 452
300 453
300 454
300 455
300 456
300 457
300 459
300 460
300 464
300 466
301 302
301 303
301 304
301 305
301 306
301 307
301 308
301 309
301 310
301 311
301 312
301 313
301 314
301 315
301 316
301 317
301 318
301 319
301 321
301 322
301 323
301 324
301 325
301 326
301 327
301 328
301 329
301 330
301 331
301 332
301 334
301 336
301 337
301 340
301 341
301 342
301 343
301 344
301 345
301 346
301 348
301 352
301 356
301 358
301 360
301 361
301 362
301 363
301 364
301 365
301 366
301 367
301 369
301 372
301 373
301 374
301 375
301 376
301 377
301 378
301 379
301 380
301 381
301 382
301 383
301 385
301 391
301 396
301 397
301 400
301 402
301 404
301 408
301 409
301 410
301 418
301 421
301 422
301 423
301 424
301 425
301 426
301 427
301 428
301 429
301 430
301 431
301 432
301 433
301 434
301 435
301 436
301 438
301 439
301 440
301 441
301 442
301 447
301 448
301 450
301 451
301 452
301 453
301 454
301 455
301 456
301 457
301 458
301 460
301 464
301 466
302 306
302 307
302 310
302 311
302 320
302 321
302 322
302 323
302 324
302 325
302 326
302 327
302 328
302 329
302 330
302 331
302 332
302 333
302 336
302 337
302 342
302 347
302 348
302 352
302 356
302 358
302 360
302 361
302 362
302 363
302 364
302 365
302 366
302 367
302 368
302 372
302 373
302 374
302 375
302 376
302 377
302 378
302 379
302 380
302 381
302 382
302 383
302 384
302 391
302 396
302 397
302 400
302 402
302 404
302 408
302 409
302 410
302 418
302 421
302 422
302 423
302 424
302 425
302 426
302 427
302 428
302 429
302 430
302 431
302 432
302 433
302 434
302 435
302 436
302 437
302 438
302 439
302 443
302 449
302 450
302 451
302 452
302 453
302 454
302 455
302 456
302 457
302 458
302 459
302 464
302 466
303 304
303 305
303 306
303 307
303 308
303 309
303 310
303 311
303 312
303 313
303 314
303 315
303 316
303 317
303 318
303 319
303 320
303 323
303 327
303 333
303 336
303 337
303 338
303 340
303 342
303 344
303 345
303 346
303 347
303 352
303 353
303 356
303 357
303 358
303 359
303 362
303 368
303 374
303 384
303 387
303 391
303 396
303 397
303 398
303 399
303 400
303 402
303 404
303 407
303 408
303 409
303 410
303 411
303 412
303 413
303 414
303 415
303 416
303 417
303 422
303 430
303 433
303 434
303 437
303 443
303 445
303 446
303 449
303 452
303 459
303 464
303 465
303 469
304 305
304 306
304 307
304 308
304 309
304 310
304 311
304 312
304 313
304 314
304 315
304 316
304 317
304 318
304 319
304 320
304 323
304 327
304 333
304 336
304 337
304 338
304 340
304 342
304 344
304 345
304 346
304 347
304 352
304 353
304 356
304 357
304 358
304 359
304 362
304 368
304 374
304 384
304 387
304 391
304 395
304 396
304 397
304 398
304 400
304 402
304 404
304 406
304 408
304 409
304 410
304 411
304 413
304 414
304 415
304 416
304 422
304 430
304 433
304 434
304 437
304 443
304 444
304 445
304 449
304 452
304 459
304 463
304 464
304 469
305 306
305 307
305 308
305 309
305 310
305 311
305 312
305 313
305 314
305 315
305 316
305 317
305 318
305 319
305 320
305 323
305 327
305 333
305 336
305 337
305 338
305 341
305 342
305 343
305 344
305 345
305 346
305 347
305 352
305 353
305 356
305 357
305 358
305 359
305 362
305 368
305 374
305 384
305 387
305 391
305 395
305 396
305 397
305 398
305 400
305 402
305 404
305 406
305 408
305 409
305 410
305 411
305 413
305 414
305 415
305 416
305 422
305 430
305 433
305 434
305 437
305 443
305 444
305 445
305 449
305 452
305 459
305 463
305 464
305 469
306 307
306 308
306 309
306 310
306 311
306 312
306 313
306 314
306 315
306 316
306 317
306 318
306 319
306 320
306 321
306 322
306 324
306 325
306 326
306 327
306 328
306 329
306 330
306 331
306 332
306 333
306 334
306 336
306 337
306 338
306 340
306 342
306 344
306 345
306 346
306 347
306 352
306 353
306 356
306 357
306 358
306 359
306 360
306 361
306 363
306 364
306 365
306 366
306 367
306 368
306 369
306 372
306 373
306 375
306 376
306 377
306 378
306 379
306 380
306 381
306 382
306 383
306 384
306 385
306 387
306 391
306 395
306 396
306 397
306 398
306 400
306 402
306 404
306 406
306 408
306 409
306 410
306 411
306 413
306 414
306 415
306 416
306 421
306 423
306 424
306 425
306 426
306 427
306 428
306 429
306 430
306 431
306 432
306 433
306 434
306 435
306 436
306 437
306 438
306 439
306 440
306 443
306 444
306 445
306 449
306 450
306 451
306 453
306 454
306 455
306 456
306 457
306 458
306 459
306 460
306 463
306 464
306 469
307 308
307 309
307 310
307 311
307 312
307 313
307 314
307 315
307 316
307 317
307 318
307 319
307 320
307 323
307 327
307 333
307 335
307 337
307 338
307 339
307 340
307 342
307 344
307 345
307 346
307 347
307 352
307 353
307 357
307 358
307 359
307 362
307 368
307 374
307 384
307 387
307 391
307 395
307 397
307 398
307 399
307 400
307 402
307 404
307 406
307 407
307 409
307 410
307 411
307 412
307 413
307 414
307 415
307 416
307 417
307 422
307 430
307 433
307 434
307 437
307 443
307 444
307 445
307 449
307 452
307 459
307 463
307 464
307 469
308 309
308 310
308 311
308 312
308 313
308 314
308 315
308 316
308 317
308 318
308 319
308 320
308 323
308 327
308 333
308 336
308 337
308 338
308 340
308 342
308 344
308 345
308 346
308 347
308 352
308 353
308 356
308 358
308 359
308 362
308 368
308 374
308 384
308 387
308 391
308 395
308 396
308 397
308 398
308 400
308 402
308 404
308 406
308 408
308 409
308 410
308 411
308 413
308 414
308 415
308 416
308 422
308 430
308 433
308 434
308 437
308 443
308 444
308 445
308 449
308 452
308 459
308 463
308 464
308 469
309 310
309 311
309 312
309 313
309 314
309 315
309 316
309 317
309 318
309 319
309 320
309 323
309 327
309 333
309 336
309 337
309 338
309 340
309 342
309 344
309 345
309 346
309 347
309 352
309 353
309 356
309 357
309 358
309 359
309 362
309 368
309 374
309 384
309 387
309 391
309 395
309 396
309 397
309 398
309 400
309 402
309 404
309 406
309 408
309 409
309 410
309 411
309 413
309 414
309 415
309 416
309 422
309 430
309 433
309 434
309 437
309 443
309 444
309 445
309 449
309 452
309 459
309 463
309 464
309 469
310 311
310 312
310 313
310 314
310 315
310 316
310 317
310 318
310 319
310 320
310 323
310 327
310 333
310 336
310 337
310 338
310 340
310 341
310 343
310 344
310 345
310 346
310 347
310 352
310 353
310 356
310 357
310 358
310 359
310 362
310 368
310 374
310 384
310 387
310 391
310 395
310 396
310 397
310 398
310 400
310 402
310 404
310 406
310 407
310 408
310 410
310 411
310 412
310 413
310 414
310 415
310 416
310 417
310 422
310 430
310 433
310 434
310 437
310 443
310 444
310 445
310 449
310 452
310 459
310 463
310 464
310 469
311 312
311 313
311 314
311 315
311 316
311 317
311 318
311 319
311 320
311 321
311 322
311 323
311 324
311 325
311 326
311 328
311 329
311 330
311 331
311 332
311 333
311 334
311 335
311 336
311 338
311 339
311 340
311 342
311 344
311 345
311 346
311 347
311 348
311 349
311 350
311 351
311 353
311 354
311 355
311 356
311 357
311 359
311 362
311 368
311 374
311 384
311 387
311 389
311 390
311 392
311 395
311 396
311 398
311 399
311 401
311 403
311 405
311 406
311 407
311 408
311 409
311 411
311 412
311 413
311 414
311 415
311 416
311 417
311 421
311 422
311 423
311 424
311 425
311 426
311 427
311 428
311 429
311 431
311 432
311 433
311 434
311 435
311 436
311 437
311 438
311 439
311 440
311 443
311 444
311 445
311 449
311 452
311 459
311 463
311 465
311 469
312 313
312 314
312 315
312 316
312 317
312 318
312 319
312 320
312 323
312 327
312 333
312 335
312 336
312 337
312 339
312 340
312 342
312 344
312 345
312 346
312 347
312 352
312 353
312 356
312 357
312 358
312 359
312 362
312 368
312 374
312 384
312 387
312 391
312 395
312 396
312 397
312 398
312 400
312 402
312 404
312 406
312 408
312 409
312 410
312 411
312 413
312 414
312 415
312 416
312 422
312 430
312 433
312 434
312 437
312 443
312 444
312 445
312 449
312 452
312 459
312 463
312 464
312 469
313 314
313 315
313 316
313 317
313 318
313 319
313 320
313 323
313 327
313 333
313 336
313 337
313 338
313 340
313 342
313 344
313 345
313 346
313 347
313 352
313 353
313 356
313 357
313 358
313 359
313 362
313 368
313 374
313 384
313 387
313 391
313 395
313 396
313 397
313 398
313 400
313 402
313 404
313 406
313 407
313 408
313 409
313 410
313 412
313 413
313 414
313 415
313 416
313 417
313 422
313 430
313 433
313 434
313 437
313 443
313 444
313 445
313 449
313 452
313 459
313 463
313 464
313 469
314 315
314 316
314 317
314 318
314 319
314 320
314 323
314 327
314 333
314 336
314 337
314 338
314 340
314 342
314 344
314 345
314 346
314 347
314 352
314 353
314 356
314 357
314 358
314 359
314 362
314 368
314 374
314 384
314 387
314 391
314 395
314 396
314 397
314 399
314 400
314 402
314 404
314 406
314 408
314 409
314 410
314 411
314 413
314 414
314 415
314 416
314 422
314 430
314 433
314 434
314 437
314 443
314 444
314 446
314 449
314 452
314 459
314 463
314 464
314 469
315 316
315 317
315 318
315 319
315 320
315 323
315 327
315 333
315 336
315 337
315 338
315 340
315 341
315 342
315 343
315 345
315 346
315 347
315 352
315 353
315 356
315 357
315 358
315 359
315 362
315 368
315 374
315 384
315 387
315 391
315 395
315 396
315 397
315 398
315 400
315 402
315 404
315 406
315 407
315 408
315 409
315 410
315 411
315 412
315 414
315 415
315 416
315 417
315 422
315 430
315 433
315 434
315 437
315 443
315 444
315 445
315 449
315 452
315 459
315 463
315 464
315 469
316 317
316 318
316 319
316 320
316 323
316 327
316 333
316 336
316 337
316 338
316 340
316 341
316 342
316 343
316 344
316 346
316 347
316 352
316 353
316 356
316 357
316 358
316 359
316 362
316 368
316 374
316 384
316 386
316 391
316 395
316 396
316 397
316 398
316 400
316 402
316 404
316 406
316 407
316 408
316 409
316 410
316 411
316 412
316 413
316 415
316 416
316 417
316 421
316 422
316 423
316 424
316 425
316 426
316 427
316 428
316 429
316 430
316 431
316 432
316 434
316 435
316 436
316 437
316 438
316 439
316 440
316 443
316 444
316 445
316 449
316 452
316 459
316 463
316 464
316 469
317 318
317 319
317 320
317 323
317 327
317 333
317 336
317 337
317 338
317 340
317 341
317 342
317 343
317 344
317 345
317 347
317 352
317 353
317 356
317 357
317 358
317 359
317 362
317 368
317 374
317 384
317 387
317 391
317 395
317 396
317 397
317 398
317 400
317 402
317 404
317 406
317 407
317 408
317 409
317 410
317 411
317 412
317 413
317 414
317 416
317 417
317 422
317 430
317 433
317 434
317 437
317 443
317 444
317 445
317 449
317 452
317 459
317 463
317 464
317 469
318 319
318 320
318 323
318 327
318 333
318 336
318 337
318 338
318 340
318 342
318 344
318 345
318 346
318 347
318 348
318 349
318 350
318 351
318 352
318 354
318 355
318 356
318 357
318 358
318 362
318 368
318 374
318 384
318 387
318 391
318 395
318 396
318 397
318 398
318 400
318 402
318 404
318 406
318 407
318 408
318 409
318 410
318 411
318 412
318 413
318 414
318 415
318 417
318 421
318 422
318 423
318 424
318 425
318 426
318 427
318 428
318 429
318 430
318 431
318 432
318 433
318 435
318 436
318 437
318 438
318 439
318 440
318 443
318 444
318 445
318 449
318 452
318 459
318 463
318 464
318 466
318 467
318 468
318 470
319 320
319 323
319 327
319 333
319 336
319 337
319 338
319 340
319 342
319 344
319 345
319 346
319 347
319 352
319 353
319 356
319 357
319 358
319 359
319 362
319 368
319 374
319 384
319 387
319 391
319 395
319 396
319 397
319 398
319 400
319 402
319 404
319 406
319 408
319 409
319 410
319 411
319 413
319 414
319 415
319 416
319 422
319 430
319 433
319 434
319 437
319 443
319 444
319 445
319 449
319 452
319 459
319 463
319 464
319 469
320 321
320 322
320 323
320 324
320 325
320 326
320 327
320 328
320 329
320 330
320 331
320 332
320 334
320 336
320 337
320 338
320 340
320 341
320 342
320 343
320 344
320 345
320 346
320 352
320 353
320 356
320 357
320 358
320 359
320 360
320 361
320 362
320 363
320 364
320 365
320 366
320 367
320 369
320 372
320 373
320 374
320 375
320 376
320 377
320 378
320 379
320 380
320 381
320 382
320 383
320 385
320 387
320 391
320 395
320 396
320 397
320 398
320 400
320 402
320 404
320 406
320 408
320 409
320 410
320 411
320 413
320 414
320 415
320 416
320 421
320 422
320 423
320 424
320 425
320 426
320 427
320 428
320 429
320 430
320 431
320 432
320 433
320 434
320 435
320 436
320 438
320 439
320 440
320 441
320 442
320 444
320 445
320 447
320 448
320 450
320 451
320 452
320 453
320 454
320 455
320 456
320 457
320 458
320 460
320 463
320 464
320 469
321 322
321 323
321 324
321 325
321 326
321 327
321 328
321 329
321 330
321 331
321 332
321 333
321 334
321 337
321 347
321 348
321 352
321 358
321 361
321 362
321 363
321 364
321 365
321 366
321 367
321 368
321 369
321 373
321 374
321 375
321 376
321 377
321 378
321 379
321 380
321 381
321 382
321 383
321 384
321 385
321 391
321 397
321 400
321 402
321 404
321 410
321 418
321 421
321 422
321 423
321 424
321 429
321 430
321 431
321 435
321 436
321 437
321 440
321 443
321 449
321 451
321 452
321 453
321 454
321 455
321 456
321 457
321 458
321 459
321 460
321 464
321 466
322 323
322 324
322 325
322 326
322 327
322 328
322 329
322 330
322 331
322 332
322 333
322 334
322 337
322 347
322 348
322 352
322 358
322 360
322 362
322 363
322 364
322 365
322 366
322 367
322 368
322 369
322 372
322 374
322 375
322 376
322 377
322 378
322 379
322 380
322 381
322 382
322 383
322 384
322 385
322 391
322 397
322 400
322 402
322 404
322 410
322 418
322 422
322 423
322 424
322 425
322 426
322 427
322 428
322 429
322 430
322 431
322 432
322 433
322 434
322 435
322 436
322 437
322 438
322 439
322 440
322 443
322 449
322 450
322 452
322 453
322 454
322 455
322 456
322 457
322 458
322 459
322 460
322 464
322 466
323 324
323 325
323 326
323 327
323 328
323 329
323 330
323 331
323 332
323 333
323 334
323 337
323 347
323 348
323 352
323 358
323 360
323 361
323 363
323 364
323 365
323 366
323 367
323 368
323 369
323 372
323 373
323 375
323 376
323 377
323 378
323 379
323 380
323 381
323 382
323 383
323 384
323 385
323 391
323 397
323 400
323 402
323 404
323 410
323 418
323 421
323 423
323 424
323 425
323 426
323 427
323 428
323 429
323 430
323 431
323 432
323 433
323 434
323 435
323 436
323 437
323 438
323 439
323 440
323 443
323 449
323 450
323 451
323 453
323 454
323 455
323 456
323 457
323 458
323 459
323 460
323 464
323 466
324 325
324 326
324 327
324 328
324 329
324 330
324 331
324 332
324 333
324 334
324 337
324 347
324 349
324 350
324 351
324 352
324 353
324 354
324 355
324 358
324 360
324 361
324 362
324 363
324 364
324 365
324 366
324 367
324 368
324 369
324 372
324 373
324 374
324 376
324 377
324 378
324 379
324 380
324 381
324 382
324 383
324 384
324 385
324 391
324 397
324 400
324 402
324 404
324 410
324 419
324 420
324 421
324 422
324 424
324 425
324 426
324 427
324 428
324 429
324 430
324 431
324 432
324 433
324 434
324 435
324 436
324 437
324 438
324 439
324 440
324 443
324 449
324 450
324 451
324 452
324 453
324 454
324 455
324 456
324 457
324 458
324 459
324 460
324 464
324 467
324 468
324 469
324 470
325 326
325 327
325 328
325 329
325 330
325 331
325 332
325 333
325 334
325 337
325 347
325 348
325 352
325 358
325 360
325 361
325 362
325 364
325 365
325 366
325 367
325 368
325 369
325 372
325 373
325 374
325 375
325 377
325 378
325 379
325 380
325 381
325 382
325 383
325 384
325 385
325 391
325 397
325 400
325 402
325 404
325 410
325 418
325 421
325 422
325 423
325 425
325 426
325 427
325 428
325 429
325 430
325 431
325 432
325 433
325 434
325 435
325 436
325 437
325 438
325 439
325 440
325 443
325 449
325 450
325 451
325 452
325 454
325 455
325 456
325 457
325 458
325 459
325 460
325 464
325 466
326 327
326 328
326 329
326 330
326 331
326 332
326 333
326 334
326 337
326 347
326 348
326 352
326 358
326 360
326 361
326 362
326 363
326 365
326 366
326 367
326 368
326 369
326 372
326 373
326 374
326 375
326 376
326 378
326 379
326 380
326 381
326 382
326 383
326 384
326 385
326 391
326 397
326 400
326 402
326 404
326 410
326 418
326 421
326 422
326 423
326 424
326 425
326 426
326 427
326 428
326 430
326 431
326 432
326 433
326 434
326 435
326 436
326 437
326 438
326 439
326 440
326 443
326 449
326 450
326 451
326 452
326 453
326 455
326 456
326 457
326 458
326 459
326 460
326 464
326 466
327 328
327 329
327 330
327 331
327 332
327 333
327 334
327 335
327 336
327 338
327 339
327 347
327 348
327 349
327 350
327 351
327 353
327 354
327 355
327 356
327 357
327 359
327 360
327 361
327 362
327 363
327 364
327 365
327 366
327 367
327 368
327 369
327 372
327 373
327 374
327 375
327 376
327 377
327 378
327 379
327 381
327 382
327 383
327 384
327 385
327 389
327 390
327 392
327 395
327 396
327 398
327 399
327 401
327 403
327 405
327 406
327 407
327 408
327 409
327 411
327 412
327 413
327 414
327 415
327 416
327 417
327 418
327 421
327 422
327 423
327 424
327 425
327 426
327 427
327 428
327 429
327 431
327 432
327 433
327 434
327 435
327 436
327 437
327 438
327 439
327 440
327 443
327 449
327 450
327 451
327 452
327 453
327 454
327 455
327 456
327 457
327 458
327 459
327 460
327 463
327 465
327 466
328 329
328 330
328 331
328 332
328 333
328 334
328 337
328 347
328 348
328 352
328 358
328 360
328 361
328 362
328 363
328 364
328 365
328 366
328 367
328 368
328 369
328 372
328 373
328 374
328 375
328 376
328 377
328 379
328 380
328 381
328 382
328 383
328 384
328 385
328 391
328 397
328 400
328 402
328 404
328 410
328 418
328 421
328 422
328 423
328 424
328 425
328 426
328 427
328 428
328 429
328 430
328 432
328 433
328 434
328 435
328 436
328 437
328 438
328 439
328 440
328 443
328 449
328 450
328 451
328 452
328 453
328 454
328 455
328 456
328 457
328 458
328 459
328 460
328 464
328 466
329 330
329 331
329 332
329 333
329 334
329 337
329 347
329 348
329 352
329 358
329 360
329 361
329 362
329 363
329 364
329 365
329 366
329 367
329 368
329 369
329 372
329 373
329 374
329 375
329 376
329 377
329 378
329 380
329 381
329 382
329 383
329 384
329 385
329 391
329 397
329 400
329 402
329 404
329 410
329 418
329 421
329 422
329 423
329 424
329 429
329 430
329 431
329 435
329 436
329 437
329 440
329 443
329 449
329 450
329 451
329 452
329 453
329 454
329 456
329 457
329 458
329 459
329 460
329 464
329 466
330 331
330 332
330 333
330 334
330 337
330 347
330 348
330 352
330 358
330 360
330 361
330 362
330 363
330 364
330 366
330 367
330 368
330 369
330 372
330 373
330 374
330 375
330 376
330 377
330 378
330 379
330 380
330 382
330 383
330 384
330 385
330 391
330 397
330 400
330 402
330 404
330 410
330 418
330 421
330 422
330 423
330 424
330 429
330 430
330 431
330 435
330 436
330 437
330 440
330 443
330 449
330 450
330 451
330 452
330 453
330 454
330 455
330 457
330 458
330 459
330 460
330 464
330 466
331 332
331 333
331 334
331 337
331 347
331 348
331 352
331 358
331 360
331 361
331 362
331 363
331 364
331 365
331 367
331 368
331 369
331 372
331 373
331 374
331 375
331 376
331 377
331 378
331 379
331 380
331 381
331 383
331 384
331 385
331 391
331 397
331 400
331 402
331 404
331 410
331 418
331 421
331 422
331 423
331 424
331 425
331 426
331 427
331 428
331 429
331 430
331 431
331 432
331 433
331 434
331 436
331 437
331 438
331 439
331 440
331 443
331 449
331 450
331 451
331 452
331 453
331 454
331 455
331 456
331 458
331 459
331 460
331 464
331 466
332 333
332 334
332 337
332 347
332 348
332 352
332 358
332 360
332 361
332 362
332 363
332 364
332 365
332 366
332 368
332 369
332 372
332 373
332 374
332 375
332 376
332 377
332 378
332 379
332 380
332 381
332 382
332 384
332 385
332 391
332 397
332 400
332 402
332 404
332 410
332 418
332 421
332 422
332 423
332 424
332 425
332 426
332 427
332 428
332 429
332 430
332 431
332 432
332 433
332 434
332 435
332 437
332 438
332 439
332 440
332 443
332 449
332 450
332 451
332 452
332 453
332 454
332 455
332 456
332 457
332 459
332 460
332 464
332 466
333 334
333 337
333 340
333 341
333 342
333 343
333 344
333 345
333 346
333 348
333 352
333 358
333 360
333 361
333 362
333 363
333 364
333 365
333 366
333 367
333 369
333 372
333 373
333 374
333 375
333 376
333 377
333 378
333 379
333 380
333 381
333 382
333 383
333 385
333 391
333 397
333 400
333 402
333 404
333 410
333 418
333 421
333 422
333 423
333 424
333 425
333 426
333 427
333 428
333 429
333 430
333 431
333 432
333 433
333 434
333 435
333 436
333 438
333 439
333 440
333 441
333 442
333 447
333 448
333 450
333 451
333 452
333 453
333 454
333 455
333 456
333 457
333 458
333 460
333 464
333 466
334 337
334 347
334 348
334 352
334 358
334 360
334 361
334 362
334 363
334 364
334 365
334 366
334 367
334 368
334 372
334 373
334 374
334 375
334 376
334 377
334 378
334 379
334 380
334 381
334 382
334 383
334 384
334 391
334 397
334 400
334 402
334 404
334 410
334 418
334 421
334 422
334 423
334 424
334 425
334 426
334 427
334 428
334 429
334 430
334 431
334 432
334 433
334 434
334 435
334 436
334 437
334 438
334 439
334 443
334 449
334 450
334 451
334 452
334 453
334 454
334 455
334 456
334 457
334 458
334 459
334 464
334 466
335 336
335 337
335 338
335 339
335 352
335 356
335 358
335 391
335 396
335 397
335 400
335 402
335 404
335 408
335 410
335 430
335 464
336 337
336 338
336 339
336 352
336 357
336 358
336 359
336 391
336 395
336 397
336 398
336 399
336 400
336 402
336 404
336 406
336 407
336 409
336 410
336 411
336 412
336 413
336 414
336 415
336 416
336 417
336 430
336 464
337 338
337 339
337 348
337 349
337 350
337 351
337 353
337 354
337 355
337 356
337 357
337 359
337 389
337 390
337 392
337 395
337 396
337 398
337 399
337 401
337 403
337 405
337 406
337 407
337 408
337 409
337 411
337 412
337 413
337 414
337 415
337 416
337 417
337 421
337 422
337 423
337 424
337 425
337 426
337 427
337 428
337 429
337 431
337 432
337 433
337 434
337 435
337 436
337 437
337 438
337 439
337 440
337 463
337 465
338 339
338 352
338 356
338 358
338 391
338 396
338 397
338 400
338 402
338 404
338 408
338 410
338 430
338 464
339 352
339 356
339 358
339 391
339 396
339 397
339 400
339 402
339 404
339 408
339 410
339 430
339 464
340 341
340 342
340 343
340 344
340 345
340 346
340 347
340 368
340 380
340 384
340 387
340 409
340 412
340 413
340 414
340 415
340 432
340 433
340 437
340 443
340 449
340 459
341 342
341 343
341 344
341 345
341 346
341 347
341 368
341 380
341 384
341 387
341 409
341 412
341 413
341 414
341 415
341 432
341 433
341 437
341 443
341 449
341 459
342 343
342 344
342 345
342 346
342 347
342 368
342 380
342 384
342 387
342 406
342 407
342 408
342 410
342 411
342 412
342 413
342 414
342 415
342 416
342 417
342 432
342 433
342 437
342 443
342 449
342 459
343 344
343 345
343 346
343 347
343 368
343 372
343 373
343 374
343 375
343 376
343 377
343 378
343 379
343 381
343 382
343 383
343 384
343 385
343 387
343 406
343 407
343 408
343 409
343 410
343 411
343 413
343 414
343 415
343 416
343 417
343 421
343 422
343 423
343 424
343 425
343 426
343 427
343 428
343 429
343 430
343 431
343 433
343 434
343 435
343 436
343 437
343 438
343 439
343 440
343 443
343 449
343 459
344 345
344 346
344 347
344 368
344 380
344 384
344 387
344 406
344 407
344 408
344 409
344 410
344 411
344 412
344 414
344 415
344 416
344 417
344 432
344 433
344 437
344 443
344 449
344 459
345 346
345 347
345 368
345 380
345 384
345 386
345 406
345 407
345 408
345 409
345 410
345 411
345 412
345 413
345 415
345 416
345 417
345 421
345 422
345 423
345 424
345 425
345 426
345 427
345 428
345 429
345 430
345 431
345 432
345 434
345 435
345 436
345 437
345 438
345 439
345 440
345 443
345 449
345 459
346 347
346 368
346 380
346 384
346 387
346 406
346 407
346 408
346 409
346 410
346 411
346 412
346 413
346 414
346 416
346 417
346 432
346 433
346 437
346 443
346 449
346 459
347 360
347 361
347 362
347 363
347 364
347 365
347 366
347 367
347 369
347 372
347 373
347 374
347 375
347 376
347 377
347 378
347 379
347 380
347 381
347 382
347 383
347 385
347 387
347 409
347 412
347 413
347 414
347 415
347 421
347 422
347 423
347 424
347 425
347 426
347 427
347 428
347 429
347 430
347 431
347 432
347 433
347 434
347 435
347 436
347 438
347 439
347 440
347 441
347 442
347 447
347 448
347 450
347 451
347 452
347 453
347 454
347 455
347 456
347 457
347 458
347 460
348 349
348 350
348 351
348 352
348 353
348 354
348 355
348 358
348 359
348 372
348 373
348 374
348 376
348 377
348 378
348 379
348 380
348 381
348 382
348 383
348 384
348 385
348 391
348 397
348 400
348 402
348 404
348 410
348 416
348 417
348 419
348 420
348 421
348 422
348 424
348 425
348 426
348 427
348 428
348 429
348 430
348 431
348 432
348 433
348 434
348 435
348 436
348 437
348 438
348 439
348 440
348 464
348 467
348 468
348 469
348 470
348 471
349 350
349 351
349 352
349 353
349 354
349 355
349 358
349 359
349 375
349 391
349 397
349 400
349 402
349 404
349 410
349 416
349 417
349 418
349 420
349 421
349 422
349 423
349 424
349 426
349 427
349 428
349 429
349 430
349 431
349 432
349 433
349 434
349 435
349 436
349 437
349 438
349 439
349 440
349 464
349 466
349 467
349 468
349 469
349 470
349 471
350 351
350 352
350 353
350 354
350 355
350 358
350 359
350 375
350 391
350 397
350 400
350 402
350 404
350 410
350 416
350 417
350 418
350 419
350 420
350 421
350 422
350 423
350 424
350 425
350 427
350 428
350 429
350 430
350 431
350 432
350 433
350 434
350 435
350 436
350 437
350 438
350 439
350 440
350 464
350 466
350 468
350 469
350 470
350 471
351 352
351 353
351 354
351 355
351 358
351 359
351 375
351 391
351 397
351 400
351 402
351 404
351 410
351 416
351 417
351 418
351 419
351 420
351 421
351 422
351 423
351 424
351 425
351 426
351 428
351 429
351 430
351 431
351 432
351 433
351 434
351 435
351 436
351 437
351 438
351 439
351 440
351 464
351 466
351 467
351 469
351 470
351 472
351 473
352 353
352 354
352 355
352 356
352 357
352 359
352 375
352 389
352 390
352 392
352 395
352 396
352 398
352 399
352 401
352 403
352 405
352 406
352 407
352 408
352 409
352 411
352 412
352 413
352 414
352 415
352 416
352 417
352 418
352 419
352 420
352 421
352 422
352 423
352 424
352 425
352 426
352 427
352 428
352 429
352 431
352 432
352 433
352 434
352 435
352 436
352 437
352 438
352 439
352 440
352 463
352 465
352 466
352 467
352 468
352 469
352 470
352 471
353 354
353 355
353 356
353 357
353 358
353 375
353 391
353 397
353 400
353 402
353 404
353 406
353 407
353 408
353 409
353 410
353 411
353 412
353 413
353 414
353 415
353 417
353 418
353 419
353 420
353 421
353 422
353 423
353 424
353 425
353 426
353 427
353 428
353 429
353 430
353 431
353 432
353 433
353 435
353 436
353 437
353 438
353 439
353 440
353 464
353 466
353 467
353 468
353 470
353 471
354 355
354 358
354 359
354 375
354 391
354 397
354 400
354 402
354 404
354 406
354 407
354 408
354 409
354 410
354 411
354 412
354 413
354 414
354 415
354 416
354 418
354 419
354 420
354 423
354 425
354 426
354 427
354 430
354 434
354 439
354 464
354 466
354 467
354 468
354 469
354 470
354 471
355 358
355 359
355 375
355 391
355 397
355 400
355 402
355 404
355 410
355 416
355 417
355 418
355 419
355 421
355 422
355 423
355 424
355 425
355 426
355 427
355 428
355 429
355 430
355 431
355 432
355 433
355 434
355 435
355 436
355 437
355 438
355 440
355 464
355 466
355 467
355 468
355 469
355 471
356 357
356 358
356 359
356 391
356 395
356 397
356 398
356 399
356 400
356 402
356 404
356 406
356 407
356 409
356 410
356 411
356 412
356 413
356 414
356 415
356 416
356 417
356 430
356 434
356 464
356 469
357 358
357 359
357 391
357 396
357 397
357 400
357 402
357 404
357 408
357 410
357 416
357 430
357 434
357 464
357 469
358 359
358 389
358 390
358 392
358 395
358 396
358 398
358 399
358 401
358 403
358 405
358 406
358 407
358 408
358 409
358 411
358 412
358 413
358 414
358 415
358 416
358 417
358 421
358 422
358 423
358 424
358 425
358 426
358 427
358 428
358 429
358 431
358 432
358 433
358 434
358 435
358 436
358 437
358 438
358 439
358 440
358 463
358 465
358 469
359 391
359 396
359 397
359 400
359 402
359 404
359 406
359 407
359 408
359 409
359 410
359 411
359 412
359 413
359 414
359 415
359 417
359 421
359 422
359 423
359 424
359 425
359 426
359 427
359 428
359 429
359 430
359 431
359 432
359 433
359 435
359 436
359 437
359 438
359 439
359 440
359 464
359 466
359 467
359 468
359 470
360 361
360 362
360 363
360 364
360 365
360 366
360 367
360 368
360 369
360 373
360 374
360 375
360 376
360 377
360 378
360 379
360 380
360 381
360 382
360 383
360 384
360 385
360 421
360 422
360 424
360 429
360 435
360 436
360 437
360 440
360 443
360 449
360 451
360 452
360 453
360 454
360 455
360 456
360 457
360 458
360 459
360 460
361 362
361 363
361 364
361 365
361 366
361 367
361 368
361 369
361 372
361 374
361 375
361 376
361 377
361 378
361 379
361 380
361 381
361 382
361 383
361 384
361 385
361 422
361 423
361 424
361 425
361 426
361 427
361 428
361 429
361 430
361 431
361 432
361 433
361 434
361 435
361 436
361 437
361 438
361 439
361 440
361 443
361 449
361 450
361 452
361 453
361 454
361 455
361 456
361 457
361 458
361 459
361 460
362 363
362 364
362 365
362 366
362 367
362 368
362 369
362 372
362 373
362 375
362 376
362 377
362 378
362 379
362 380
362 381
362 382
362 383
362 384
362 385
362 421
362 423
362 424
362 425
362 426
362 427
362 428
362 429
362 430
362 431
362 432
362 433
362 434
362 435
362 436
362 437
362 438
362 439
362 440
362 443
362 449
362 450
362 451
362 453
362 454
362 455
362 456
362 457
362 458
362 459
362 460
363 364
363 365
363 366
363 367
363 368
363 369
363 372
363 373
363 374
363 375
363 377
363 378
363 379
363 380
363 381
363 382
363 383
363 384
363 385
363 421
363 422
363 423
363 425
363 426
363 427
363 428
363 429
363 430
363 431
363 432
363 433
363 434
363 435
363 436
363 437
363 438
363 439
363 440
363 443
363 449
363 450
363 451
363 452
363 454
363 455
363 456
363 457
363 458
363 459
363 460
364 365
364 366
364 367
364 368
364 369
364 372
364 373
364 374
364 375
364 376
364 378
364 379
364 380
364 381
364 382
364 383
364 384
364 385
364 421
364 422
364 423
364 424
364 425
364 426
364 427
364 428
364 430
364 431
364 432
364 433
364 434
364 435
364 436
364 437
364 438
364 439
364 440
364 443
364 449
364 450
364 451
364 452
364 453
364 455
364 456
364 457
364 458
364 459
364 460
365 366
365 367
365 368
365 369
365 372
365 373
365 374
365 375
365 376
365 377
365 378
365 379
365 380
365 382
365 383
365 384
365 385
365 421
365 422
365 424
365 429
365 435
365 436
365 437
365 440
365 443
365 449
365 450
365 451
365 452
365 453
365 454
365 455
365 457
365 458
365 459
365 460
366 367
366 368
366 369
366 372
366 373
366 374
366 375
366 376
366 377
366 378
366 379
366 380
366 381
366 383
366 384
366 385
366 421
366 422
366 423
366 424
366 425
366 426
366 427
366 428
366 429
366 430
366 431
366 432
366 433
366 434
366 436
366 437
366 438
366 439
366 440
366 443
366 449
366 450
366 451
366 452
366 453
366 454
366 455
366 456
366 458
366 459
366 460
367 368
367 369
367 372
367 373
367 374
367 375
367 376
367 377
367 378
367 379
367 380
367 381
367 382
367 384
367 385
367 421
367 422
367 423
367 424
367 425
367 426
367 427
367 428
367 429
367 430
367 431
367 432
367 433
367 434
367 435
367 437
367 438
367 439
367 440
367 443
367 449
367 450
367 451
367 452
367 453
367 454
367 455
367 456
367 457
367 459
367 460
368 369
368 372
368 373
368 374
368 375
368 376
368 377
368 378
368 379
368 380
368 381
368 382
368 383
368 385
368 421
368 422
368 423
368 424
368 425
368 426
368 427
368 428
368 429
368 430
368 431
368 432
368 433
368 434
368 435
368 436
368 438
368 439
368 440
368 441
368 442
368 447
368 448
368 450
368 451
368 452
368 453
368 454
368 455
368 456
368 457
368 458
368 460
369 372
369 373
369 374
369 375
369 376
369 377
369 378
369 379
369 380
369 381
369 382
369 383
369 384
369 421
369 422
369 423
369 424
369 425
369 426
369 427
369 428
369 429
369 430
369 431
369 432
369 433
369 434
369 435
369 436
369 437
369 438
369 439
369 443
369 449
369 450
369 451
369 452
369 453
369 454
369 455
369 456
369 457
369 458
369 459
370 371
370 389
370 391
370 392
370 394
370 462
370 476
371 390
371 393
371 461
371 475
372 373
372 374
372 375
372 376
372 377
372 378
372 379
372 380
372 381
372 382
372 383
372 384
372 385
372 412
372 418
372 421
372 422
372 423
372 424
372 429
372 431
372 432
372 435
372 436
372 437
372 440
372 443
372 449
372 451
372 452
372 453
372 454
372 455
372 456
372 457
372 458
372 459
372 460
372 466
373 374
373 375
373 376
373 377
373 378
373 379
373 380
373 381
373 382
373 383
373 384
373 385
373 412
373 418
373 422
373 423
373 424
373 425
373 426
373 427
373 428
373 429
373 430
373 431
373 432
373 433
373 434
373 435
373 436
373 437
373 438
373 439
373 440
373 443
373 449
373 450
373 452
373 453
373 454
373 455
373 456
373 457
373 458
373 459
373 460
373 466
374 375
374 376
374 377
374 378
374 379
374 380
374 381
374 382
374 383
374 384
374 385
374 412
374 418
374 421
374 423
374 424
374 425
374 426
374 427
374 428
374 429
374 430
374 431
374 432
374 433
374 434
374 435
374 436
374 437
374 438
374 439
374 440
374 443
374 449
374 450
374 451
374 453
374 454
374 455
374 456
374 457
374 458
374 459
374 460
374 466
375 376
375 377
375 378
375 379
375 380
375 381
375 382
375 383
375 384
375 385
375 412
375 419
375 420
375 421
375 422
375 424
375 425
375 426
375 427
375 428
375 429
375 430
375 431
375 432
375 433
375 434
375 435
375 436
375 437
375 438
375 439
375 440
375 443
375 449
375 450
375 451
375 452
375 453
375 454
375 455
375 456
375 457
375 458
375 459
375 460
375 467
375 468
375 469
375 470
376 377
376 378
376 379
376 380
376 381
376 382
376 383
376 384
376 385
376 412
376 418
376 421
376 422
376 423
376 425
376 426
376 427
376 428
376 429
376 430
376 431
376 432
376 433
376 434
376 435
376 436
376 437
376 438
376 439
376 440
376 443
376 449
376 450
376 451
376 452
376 454
376 455
376 456
376 457
376 458
376 459
376 460
376 466
377 378
377 379
377 380
377 381
377 382
377 383
377 384
377 385
377 412
377 418
377 421
377 422
377 423
377 424
377 425
377 426
377 427
377 428
377 430
377 431
377 432
377 433
377 434
377 435
377 436
377 437
377 438
377 439
377 440
377 443
377 449
377 450
377 451
377 452
377 453
377 455
377 456
377 457
377 458
377 459
377 460
377 466
378 379
378 380
378 381
378 382
378 383
378 384
378 385
378 412
378 418
378 421
378 422
378 423
378 424
378 425
378 426
378 427
378 428
378 429
378 430
378 432
378 433
378 434
378 435
378 436
378 437
378 438
378 439
378 440
378 443
378 449
378 450
378 451
378 452
378 453
378 454
378 455
378 456
378 457
378 458
378 459
378 460
378 466
379 380
379 381
379 382
379 383
379 384
379 385
379 412
379 418
379 421
379 422
379 423
379 424
379 429
379 431
379 432
379 435
379 436
379 437
379 440
379 443
379 449
379 450
379 451
379 452
379 453
379 454
379 456
379 457
379 458
379 459
379 460
379 466
380 381
380 382
380 383
380 384
380 385
380 406
380 407
380 408
380 409
380 410
380 411
380 413
380 414
380 415
380 416
380 417
380 418
380 421
380 422
380 423
380 424
380 425
380 426
380 427
380 428
380 429
380 430
380 431
380 433
380 434
380 435
380 436
380 437
380 438
380 439
380 440
380 443
380 449
380 450
380 451
380 452
380 453
380 454
380 455
380 456
380 457
380 458
380 459
380 460
380 466
381 382
381 383
381 384
381 385
381 412
381 418
381 421
381 422
381 423
381 424
381 429
381 431
381 432
381 435
381 436
381 437
381 440
381 443
381 449
381 450
381 451
381 452
381 453
381 454
381 455
381 457
381 458
381 459
381 460
381 466
382 383
382 384
382 385
382 412
382 418
382 421
382 422
382 423
382 424
382 425
382 426
382 427
382 428
382 429
382 430
382 431
382 432
382 433
382 434
382 436
382 437
382 438
382 439
382 440
382 443
382 449
382 450
382 451
382 452
382 453
382 454
382 455
382 456
382 458
382 459
382 460
382 466
383 384
383 385
383 412
383 418
383 421
383 422
383 423
383 424
383 425
383 426
383 427
383 428
383 429
383 430
383 431
383 432
383 433
383 434
383 435
383 437
383 438
383 439
383 440
383 443
383 449
383 450
383 451
383 452
383 453
383 454
383 455
383 456
383 457
383 459
383 460
383 466
384 385
384 412
384 418
384 421
384 422
384 423
384 424
384 425
384 426
384 427
384 428
384 429
384 430
384 431
384 432
384 433
384 434
384 435
384 436
384 438
384 439
384 440
384 441
384 442
384 447
384 448
384 450
384 451
384 452
384 453
384 454
384 455
384 456
384 457
384 458
384 460
384 466
385 412
385 418
385 421
385 422
385 423
385 424
385 425
385 426
385 427
385 428
385 429
385 430
385 431
385 432
385 433
385 434
385 435
385 436
385 437
385 438
385 439
385 443
385 449
385 450
385 451
385 452
385 453
385 454
385 455
385 456
385 457
385 458
385 459
385 466
386 387
386 414
386 433
387 406
387 407
387 408
387 409
387 410
387 411
387 412
387 413
387 415
387 416
387 417
387 421
387 422
387 423
387 424
387 425
387 426
387 427
387 428
387 429
387 430
387 431
387 432
387 434
387 435
387 436
387 437
387 438
387 439
387 440
389 390
389 391
389 392
389 393
389 397
389 400
389 402
389 404
389 410
389 430
389 461
389 464
389 475
390 391
390 392
390 394
390 397
390 400
390 402
390 404
390 410
390 430
390 462
390 464
390 476
391 392
391 393
391 395
391 396
391 398
391 399
391 401
391 403
391 405
391 406
391 407
391 408
391 409
391 411
391 412
391 413
391 414
391 415
391 416
391 417
391 421
391 422
391 423
391 424
391 425
391 426
391 427
391 428
391 429
391 431
391 432
391 433
391 434
391 435
391 436
391 437
391 438
391 439
391 440
391 461
391 463
391 465
391 475
392 393
392 397
392 400
392 402
392 404
392 410
392 430
392 461
392 464
392 475
393 394
393 462
393 476
394 461
394 475
395 396
395 397
395 398
395 399
395 400
395 402
395 404
395 407
395 408
395 409
395 410
395 411
395 412
395 413
395 414
395 415
395 416
395 417
395 430
395 445
395 446
395 464
395 465
396 397
396 398
396 399
396 400
396 402
396 404
396 406
396 407
396 409
396 410
396 411
396 412
396 413
396 414
396 415
396 416
396 417
396 430
396 444
396 445
396 446
396 463
396 464
397 398
397 399
397 401
397 403
397 405
397 406
397 407
397 408
397 409
397 411
397 412
397 413
397 414
397 415
397 416
397 417
397 421
397 422
397 423
397 424
397 425
397 426
397 427
397 428
397 429
397 431
397 432
397 433
397 434
397 435
397 436
397 437
397 438
397 439
397 440
397 444
397 445
397 446
397 463
397 465
398 399
398 400
398 402
398 404
398 406
398 408
398 410
398 430
398 444
398 446
398 463
398 464
399 400
399 402
399 404
399 406
399 408
399 410
399 430
399 444
399 445
399 463
399 464
400 401
400 403
400 405
400 406
400 407
400 408
400 409
400 411
400 412
400 413
400 414
400 415
400 416
400 417
400 421
400 422
400 423
400 424
400 425
400 426
400 427
400 428
400 429
400 431
400 432
400 433
400 434
400 435
400 436
400 437
400 438
400 439
400 440
400 463
400 465
401 402
401 404
401 410
401 430
401 464
402 403
402 405
402 406
402 407
402 408
402 409
402 411
402 412
402 413
402 414
402 415
402 416
402 417
402 421
402 422
402 423
402 424
402 425
402 426
402 427
402 428
402 429
402 431
402 432
402 433
402 434
402 435
402 436
402 437
402 438
402 439
402 440
402 463
402 465
403 404
403 410
403 430
403 464
404 405
404 406
404 407
404 408
404 409
404 411
404 412
404 413
404 414
404 415
404 416
404 417
404 421
404 422
404 423
404 424
404 425
404 426
404 427
404 428
404 429
404 431
404 432
404 433
404 434
404 435
404 436
404 437
404 438
404 439
404 440
404 463
404 465
405 410
405 430
405 464
406 407
406 408
406 409
406 410
406 411
406 412
406 413
406 414
406 415
406 416
406 417
406 430
406 432
406 433
406 434
406 445
406 446
406 464
406 465
406 469
407 408
407 409
407 410
407 411
407 412
407 413
407 414
407 415
407 416
407 417
407 430
407 432
407 433
407 434
407 444
407 463
407 464
407 469
408 409
408 410
408 411
408 412
408 413
408 414
408 415
408 416
408 417
408 430
408 432
408 433
408 434
408 444
408 463
408 464
408 469
409 410
409 411
409 412
409 413
409 414
409 415
409 416
409 417
409 430
409 432
409 433
409 434
409 444
409 463
409 464
409 469
410 411
410 412
410 413
410 414
410 415
410 416
410 417
410 421
410 422
410 423
410 424
410 425
410 426
410 427
410 428
410 429
410 431
410 432
410 433
410 434
410 435
410 436
410 437
410 438
410 439
410 440
410 444
410 463
410 465
410 469
411 412
411 413
411 414
411 415
411 416
411 417
411 430
411 432
411 433
411 434
411 444
411 463
411 464
411 469
412 413
412 414
412 415
412 416
412 417
412 421
412 422
412 423
412 424
412 425
412 426
412 427
412 428
412 429
412 430
412 431
412 433
412 434
412 435
412 436
412 437
412 438
412 439
412 440
412 444
412 463
412 464
412 469
413 414
413 415
413 416
413 417
413 430
413 432
413 433
413 434
413 444
413 463
413 464
413 469
414 415
414 416
414 417
414 421
414 422
414 423
414 424
414 425
414 426
414 427
414 428
414 429
414 430
414 431
414 432
414 434
414 435
414 436
414 437
414 438
414 439
414 440
414 444
414 463
414 464
414 469
415 416
415 417
415 430
415 432
415 433
415 434
415 444
415 463
415 464
415 469
416 417
416 421
416 422
416 423
416 424
416 425
416 426
416 427
416 428
416 429
416 430
416 431
416 432
416 433
416 435
416 436
416 437
416 438
416 439
416 440
416 444
416 463
416 464
416 466
416 467
416 468
416 470
417 430
417 432
417 433
417 434
417 444
417 463
417 464
417 469
418 419
418 420
418 421
418 422
418 424
418 425
418 426
418 427
418 428
418 429
418 430
418 431
418 432
418 433
418 434
418 435
418 436
418 437
418 438
418 439
418 440
418 467
418 468
418 469
418 470
419 420
419 421
419 422
419 423
419 424
419 426
419 427
419 428
419 429
419 430
419 431
419 432
419 433
419 434
419 435
419 436
419 437
419 438
419 439
419 440
419 466
419 470
420 421
420 422
420 423
420 424
420 425
420 426
420 427
420 428
420 429
420 430
420 431
420 432
420 433
420 434
420 435
420 436
420 437
420 438
420 440
420 466
420 467
420 468
420 469
421 422
421 423
421 424
421 425
421 426
421 427
421 428
421 429
421 430
421 431
421 432
421 433
421 434
421 435
421 436
421 437
421 438
421 439
421 440
421 443
421 449
421 450
421 452
421 453
421 454
421 455
421 456
421 457
421 458
421 459
421 460
421 464
421 466
421 467
421 468
421 469
421 470
421 471
421 473
422 423
422 424
422 425
422 426
422 427
422 428
422 429
422 430
422 431
422 432
422 433
422 434
422 435
422 436
422 437
422 438
422 439
422 440
422 443
422 449
422 450
422 451
422 453
422 454
422 455
422 456
422 457
422 458
422 459
422 460
422 464
422 466
422 467
422 468
422 469
422 470
422 471
422 473
423 424
423 425
423 426
423 427
423 428
423 429
423 430
423 431
423 432
423 433
423 434
423 435
423 436
423 437
423 438
423 439
423 440
423 443
423 449
423 451
423 452
423 453
423 454
423 457
423 458
423 459
423 460
423 464
423 467
423 468
423 469
423 470
423 471
423 473
424 425
424 426
424 427
424 428
424 429
424 430
424 431
424 432
424 433
424 434
424 435
424 436
424 437
424 438
424 439
424 440
424 443
424 449
424 450
424 451
424 452
424 454
424 455
424 456
424 457
424 458
424 459
424 460
424 464
424 466
424 467
424 468
424 469
424 470
424 471
424 473
425 426
425 427
425 428
425 429
425 430
425 431
425 432
425 433
425 434
425 435
425 436
425 437
425 438
425 439
425 440
425 443
425 449
425 451
425 452
425 453
425 454
425 457
425 458
425 459
425 460
425 464
425 466
425 467
425 468
425 469
425 470
425 471
425 473
426 427
426 428
426 429
426 430
426 431
426 432
426 433
426 434
426 435
426 436
426 437
426 438
426 439
426 440
426 443
426 449
426 451
426 452
426 453
426 454
426 457
426 458
426 459
426 460
426 464
426 466
426 468
426 469
426 470
426 471
426 473
427 428
427 429
427 430
427 431
427 432
427 433
427 434
427 435
427 436
427 437
427 438
427 439
427 440
427 443
427 449
427 451
427 452
427 453
427 454
427 457
427 458
427 459
427 460
427 464
427 466
427 467
427 469
427 470
427 472
427 473
428 429
428 430
428 431
428 432
428 433
428 434
428 435
428 436
428 437
428 438
428 439
428 440
428 443
428 449
428 451
428 452
428 453
428 454
428 457
428 458
428 459
428 460
428 464
428 466
428 467
428 468
428 469
428 470
428 471
428 473
429 430
429 431
429 432
429 433
429 434
429 435
429 436
429 437
429 438
429 439
429 440
429 443
429 449
429 450
429 451
429 452
429 453
429 455
429 456
429 457
429 458
429 459
429 460
429 464
429 466
429 467
429 468
429 469
429 470
429 471
429 473
430 431
430 432
430 433
430 434
430 435
430 436
430 437
430 438
430 439
430 440
430 443
430 449
430 451
430 452
430 453
430 454
430 457
430 458
430 459
430 460
430 463
430 465
430 466
430 467
430 468
430 469
430 470
430 471
430 473
431 432
431 433
431 434
431 435
431 436
431 437
431 438
431 439
431 440
431 443
431 449
431 451
431 452
431 453
431 454
431 457
431 458
431 459
431 460
431 464
431 466
431 467
431 468
431 469
431 470
431 471
431 473
432 433
432 434
432 435
432 436
432 437
432 438
432 439
432 440
432 443
432 449
432 451
432 452
432 453
432 454
432 457
432 458
432 459
432 460
432 464
432 466
432 467
432 468
432 469
432 470
432 471
432 473
433 434
433 435
433 436
433 437
433 438
433 439
433 440
433 443
433 449
433 451
433 452
433 453
433 454
433 457
433 458
433 459
433 460
433 464
433 466
433 467
433 468
433 469
433 470
433 471
433 473
434 435
434 436
434 437
434 438
434 439
434 440
434 443
434 449
434 451
434 452
434 453
434 454
434 457
434 458
434 459
434 460
434 464
434 466
434 467
434 468
434 470
434 471
434 473
435 436
435 437
435 438
435 439
435 440
435 443
435 449
435 450
435 451
435 452
435 453
435 454
435 455
435 456
435 458
435 459
435 460
435 464
435 466
435 467
435 468
435 469
435 470
435 471
435 473
436 437
436 438
436 439
436 440
436 443
436 449
436 450
436 451
436 452
436 453
436 454
436 455
436 456
436 457
436 459
436 460
436 464
436 466
436 467
436 468
436 469
436 470
436 471
436 473
437 438
437 439
437 440
437 441
437 442
437 447
437 448
437 450
437 451
437 452
437 453
437 454
437 455
437 456
437 457
437 458
437 460
437 464
437 466
437 467
437 468
437 469
437 470
437 471
437 473
438 439
438 440
438 443
438 449
438 451
438 452
438 453
438 454
438 457
438 458
438 459
438 460
438 464
438 466
438 467
438 468
438 469
438 470
438 471
438 472
439 440
439 443
439 449
439 451
439 452
439 453
439 454
439 457
439 458
439 459
439 460
439 464
439 466
439 467
439 468
439 469
439 471
439 473
440 443
440 449
440 450
440 451
440 452
440 453
440 454
440 455
440 456
440 457
440 458
440 459
440 464
440 466
440 467
440 468
440 469
440 470
440 471
440 473
441 442
441 443
441 449
441 459
442 443
442 449
442 459
443 447
443 448
443 450
443 451
443 452
443 453
443 454
443 455
443 456
443 457
443 458
443 460
444 445
444 446
444 464
444 465
445 446
445 463
446 463
447 448
447 449
447 459
448 449
448 459
449 450
449 451
449 452
449 453
449 454
449 455
449 456
449 457
449 458
449 460
450 451
450 452
450 453
450 454
450 455
450 456
450 457
450 458
450 459
450 460
451 452
451 453
451 454
451 455
451 456
451 457
451 458
451 459
451 460
452 453
452 454
452 455
452 456
452 457
452 458
452 459
452 460
453 454
453 455
453 456
453 457
453 458
453 459
453 460
454 455
454 456
454 457
454 458
454 459
454 460
455 456
455 457
455 458
455 459
455 460
456 457
456 458
456 459
456 460
457 458
457 459
457 460
458 459
458 460
459 460
461 462
461 476
462 475
463 464
463 465
464 465
466 467
466 468
466 469
466 470
466 471
467 468
467 469
467 470
467 471
468 469
468 470
468 472
468 473
469 470
469 471
470 471
471 472
471 473
472 473
475 476
