165:6774
0 1
0 2
0 3
0 4
0 5
0 10
0 15
0 17
0 24
0 25
0 26
0 27
0 28
0 29
0 40
0 42
0 43
0 44
0 45
0 46
0 47
0 49
0 52
0 58
0 59
0 60
0 61
0 62
0 63
0 64
0 65
0 67
0 69
0 79
0 81
0 85
0 89
0 93
0 95
0 96
0 97
0 98
0 99
0 100
0 101
0 102
0 104
0 105
0 106
0 107
0 108
0 109
0 110
0 112
0 114
0 117
0 123
0 125
0 126
0 127
0 128
0 129
0 130
0 132
0 133
0 134
0 135
0 137
0 139
0 141
0 143
0 144
0 145
0 146
0 149
0 151
0 155
0 158
0 164
1 2
1 3
1 4
1 5
1 10
1 15
1 16
1 18
1 19
1 20
1 21
1 22
1 23
1 25
1 28
1 29
1 40
1 41
1 48
1 50
1 51
1 52
1 53
1 54
1 55
1 56
1 57
1 60
1 67
1 69
1 79
1 81
1 84
1 86
1 87
1 88
1 89
1 90
1 91
1 92
1 94
1 98
1 102
1 103
1 105
1 106
1 107
1 108
1 109
1 110
1 112
1 114
1 117
1 123
1 124
1 126
1 127
1 128
1 129
1 130
1 131
1 135
1 136
1 138
1 139
1 140
1 141
1 142
1 144
1 145
1 146
1 149
1 151
1 154
1 156
1 157
1 158
1 164
2 3
2 4
2 5
2 10
2 15
2 17
2 23
2 24
2 26
2 27
2 28
2 29
2 40
2 41
2 49
2 52
2 57
2 58
2 59
2 61
2 62
2 63
2 64
2 65
2 66
2 68
2 69
2 70
2 71
2 72
2 73
2 74
2 75
2 76
2 77
2 78
2 80
2 81
2 82
2 83
2 85
2 89
2 94
2 98
2 102
2 103
2 104
2 106
2 107
2 108
2 109
2 110
2 111
2 113
2 114
2 115
2 116
2 117
2 123
2 124
2 125
2 131
2 135
2 137
2 139
2 141
2 142
2 143
2 146
2 149
2 151
2 155
2 158
2 164
3 4
3 5
3 10
3 15
3 17
3 23
3 25
3 28
3 29
3 40
3 41
3 48
3 49
3 50
3 51
3 53
3 54
3 55
3 56
3 57
3 60
3 66
3 67
3 68
3 70
3 71
3 72
3 73
3 74
3 75
3 76
3 79
3 81
3 85
3 89
3 94
3 98
3 102
3 103
3 104
3 105
3 107
3 108
3 109
3 110
3 111
3 112
3 113
3 115
3 116
3 117
3 123
3 124
3 125
3 131
3 135
3 136
3 137
3 138
3 140
3 141
3 142
3 143
3 146
3 147
3 148
3 150
3 151
3 152
3 153
3 155
3 158
3 164
4 5
4 10
4 15
4 17
4 23
4 25
4 28
4 30
4 31
4 32
4 33
4 34
4 35
4 36
4 37
4 38
4 39
4 40
4 41
4 49
4 52
4 57
4 60
4 67
4 69
4 77
4 78
4 79
4 80
4 82
4 83
4 84
4 85
4 86
4 87
4 88
4 90
4 91
4 92
4 93
4 94
4 95
4 96
4 97
4 99
4 100
4 101
4 103
4 104
4 105
4 106
4 112
4 114
4 117
4 123
4 124
4 125
4 131
4 135
4 137
4 139
4 141
4 142
4 143
4 146
4 147
4 148
4 149
4 150
4 152
4 153
4 155
4 158
4 164
5 6
5 7
5 8
5 9
5 11
5 12
5 13
5 14
5 17
5 23
5 24
5 25
5 26
5 27
5 29
5 30
5 31
5 32
5 33
5 34
5 35
5 36
5 37
5 38
5 39
5 41
5 49
5 52
5 57
5 60
5 67
5 69
5 79
5 81
5 85
5 89
5 94
5 98
5 103
5 104
5 105
5 106
5 111
5 112
5 113
5 114
5 115
5 116
5 118
5 119
5 120
5 121
5 122
5 124
5 125
5 131
5 132
5 133
5 134
5 136
5 137
5 138
5 139
5 140
5 142
5 143
5 144
5 145
5 149
5 151
5 154
5 155
5 156
5 157
5 159
5 160
5 161
5 162
5 163
6 7
6 8
6 9
6 10
6 12
6 13
6 14
6 15
6 16
6 19
6 28
6 35
6 40
6 44
6 48
6 58
6 64
6 71
6 73
6 78
6 79
6 80
6 81
6 82
6 83
6 85
6 86
6 87
6 88
6 89
6 90
6 91
6 92
6 94
6 95
6 96
6 97
6 98
6 99
6 100
6 101
6 103
6 104
6 105
6 106
6 107
6 108
6 109
6 110
6 117
6 119
6 120
6 121
6 122
6 123
6 127
6 133
6 135
6 136
6 141
6 144
6 146
6 148
6 149
6 150
6 151
6 152
6 153
6 154
6 156
6 158
6 160
6 161
6 162
6 163
6 164
7 8
7 9
7 10
7 11
7 13
7 15
7 17
7 18
7 19
7 20
7 21
7 22
7 28
7 35
7 40
7 44
7 49
7 50
7 51
7 52
7 53
7 54
7 55
7 56
7 57
7 59
7 60
7 61
7 62
7 63
7 64
7 65
7 71
7 73
7 77
7 79
7 80
7 81
7 82
7 83
7 84
7 93
7 94
7 96
7 97
7 98
7 99
7 100
7 101
7 102
7 109
7 117
7 118
7 120
7 121
7 122
7 123
7 127
7 133
7 135
7 137
7 138
7 139
7 140
7 141
7 144
7 146
7 147
7 150
7 155
7 156
7 157
7 158
7 159
7 164
8 9
8 10
8 11
8 12
8 14
8 15
8 16
8 17
8 18
8 20
8 21
8 22
8 28
8 35
8 40
8 41
8 42
8 43
8 45
8 46
8 47
8 48
8 58
8 64
8 66
8 67
8 68
8 69
8 70
8 72
8 73
8 74
8 75
8 76
8 77
8 78
8 79
8 81
8 82
8 83
8 84
8 93
8 95
8 102
8 109
8 117
8 118
8 119
8 123
8 124
8 125
8 126
8 128
8 129
8 130
8 131
8 132
8 134
8 135
8 136
8 141
8 142
8 143
8 145
8 146
8 147
8 148
8 149
8 151
8 152
8 153
8 154
8 155
8 157
8 158
8 159
8 164
9 10
9 11
9 13
9 15
9 16
9 19
9 28
9 29
9 30
9 31
9 32
9 33
9 34
9 36
9 37
9 38
9 39
9 40
9 44
9 48
9 57
9 58
9 59
9 60
9 61
9 62
9 63
9 65
9 66
9 67
9 68
9 69
9 70
9 71
9 72
9 74
9 75
9 76
9 77
9 78
9 80
9 84
9 93
9 95
9 102
9 103
9 104
9 105
9 106
9 107
9 108
9 110
9 117
9 118
9 119
9 123
9 127
9 133
9 135
9 136
9 141
9 144
9 146
9 147
9 150
9 154
9 156
9 158
9 159
9 164
10 11
10 12
10 13
10 14
10 16
10 19
10 23
10 24
10 25
10 26
10 27
10 29
10 30
10 31
10 32
10 33
10 34
10 35
10 36
10 37
10 38
10 39
10 44
10 48
10 58
10 64
10 71
10 73
10 77
10 78
10 80
10 84
10 93
10 95
10 102
10 109
10 111
10 112
10 113
10 114
10 115
10 116
10 118
10 119
10 120
10 121
10 122
10 127
10 131
10 132
10 133
10 134
10 136
10 137
10 138
10 139
10 140
10 142
10 143
10 144
10 145
10 147
10 150
10 154
10 155
10 156
10 157
10 159
10 160
10 161
10 162
10 163
11 12
11 13
11 14
11 15
11 19
11 24
11 28
11 37
11 40
11 42
11 44
11 50
11 56
11 59
11 71
11 75
11 78
11 79
11 80
11 81
11 82
11 83
11 85
11 86
11 87
11 88
11 89
11 90
11 91
11 92
11 94
11 95
11 96
11 97
11 98
11 99
11 100
11 101
11 103
11 104
11 105
11 106
11 107
11 108
11 109
11 110
11 117
11 119
11 120
11 121
11 122
11 123
11 127
11 132
11 133
11 135
11 141
11 144
11 146
11 148
11 149
11 150
11 151
11 152
11 153
11 156
11 158
11 160
11 161
11 162
11 163
11 164
12 13
12 14
12 15
12 19
12 23
12 25
12 26
12 27
12 28
12 37
12 40
12 41
12 43
12 44
12 45
12 46
12 47
12 48
12 49
12 51
12 52
12 53
12 54
12 55
12 56
12 57
12 58
12 60
12 61
12 62
12 63
12 64
12 65
12 71
12 75
12 77
12 80
12 84
12 85
12 87
12 88
12 89
12 90
12 91
12 92
12 93
12 102
12 110
12 117
12 118
12 123
12 127
12 131
12 133
12 134
12 135
12 141
12 144
12 146
12 147
12 149
12 150
12 151
12 152
12 153
12 156
12 158
12 159
12 161
12 162
12 163
12 164
13 14
13 15
13 16
13 17
13 18
13 20
13 21
13 22
13 24
13 28
13 37
13 40
13 41
13 42
13 43
13 45
13 46
13 47
13 50
13 56
13 59
13 66
13 67
13 68
13 69
13 70
13 72
13 73
13 74
13 75
13 76
13 77
13 78
13 79
13 81
13 82
13 83
13 84
13 86
13 93
13 102
13 110
13 117
13 118
13 123
13 124
13 125
13 126
13 128
13 129
13 130
13 131
13 132
13 134
13 135
13 141
13 142
13 143
13 145
13 146
13 147
13 148
13 149
13 151
13 152
13 153
13 154
13 155
13 157
13 158
13 159
13 160
13 164
14 15
14 19
14 24
14 28
14 29
14 30
14 31
14 32
14 33
14 34
14 35
14 36
14 38
14 39
14 40
14 42
14 44
14 48
14 49
14 50
14 51
14 52
14 53
14 54
14 55
14 59
14 66
14 67
14 68
14 69
14 70
14 71
14 72
14 73
14 74
14 76
14 77
14 80
14 84
14 86
14 93
14 102
14 103
14 104
14 105
14 106
14 107
14 108
14 109
14 117
14 118
14 123
14 127
14 132
14 133
14 135
14 141
14 144
14 146
14 147
14 148
14 150
14 156
14 158
14 159
14 160
14 164
15 19
15 23
15 24
15 25
15 26
15 27
15 29
15 30
15 31
15 32
15 33
15 34
15 35
15 36
15 37
15 38
15 39
15 42
15 44
15 50
15 56
15 59
15 71
15 75
15 77
15 80
15 84
15 86
15 93
15 102
15 110
15 111
15 112
15 113
15 114
15 115
15 116
15 118
15 119
15 120
15 121
15 122
15 127
15 131
15 132
15 133
15 134
15 136
15 137
15 138
15 139
15 140
15 142
15 143
15 144
15 145
15 147
15 148
15 150
15 154
15 155
15 156
15 157
15 159
15 160
15 161
15 162
15 163
16 17
16 18
16 19
16 20
16 21
16 22
16 26
16 27
16 31
16 32
16 39
16 44
16 47
16 49
16 50
16 51
16 52
16 53
16 54
16 55
16 56
16 57
16 59
16 60
16 61
16 62
16 63
16 64
16 65
16 70
16 71
16 77
16 79
16 80
16 81
16 82
16 83
16 85
16 88
16 93
16 94
16 96
16 97
16 98
16 99
16 100
16 101
16 104
16 108
16 115
16 116
16 118
16 120
16 121
16 122
16 123
16 125
16 127
16 129
16 130
16 133
16 137
16 138
16 139
16 140
16 141
16 143
16 144
16 150
16 153
16 155
16 156
16 157
16 158
16 162
16 163
17 18
17 19
17 20
17 21
17 22
17 26
17 27
17 31
17 32
17 39
17 44
17 47
17 48
17 50
17 51
17 52
17 53
17 54
17 55
17 56
17 58
17 61
17 70
17 71
17 78
17 80
17 82
17 83
17 84
17 86
17 87
17 88
17 89
17 90
17 91
17 92
17 95
17 99
17 102
17 103
17 105
17 106
17 107
17 108
17 109
17 110
17 115
17 116
17 119
17 124
17 126
17 127
17 128
17 129
17 130
17 133
17 136
17 138
17 139
17 140
17 141
17 142
17 144
17 145
17 146
17 150
17 153
17 154
17 156
17 157
17 158
17 162
17 163
18 19
18 20
18 21
18 22
18 23
18 24
18 25
18 27
18 28
18 31
18 32
18 39
18 44
18 47
18 48
18 49
18 53
18 54
18 57
18 58
18 59
18 60
18 62
18 63
18 64
18 65
18 66
18 67
18 68
18 69
18 71
18 72
18 73
18 74
18 75
18 76
18 78
18 80
18 82
18 83
18 84
18 85
18 86
18 87
18 89
18 90
18 91
18 92
18 95
18 99
18 104
18 108
18 111
18 112
18 113
18 114
18 116
18 117
18 119
18 125
18 127
18 129
18 130
18 133
18 136
18 137
18 143
18 144
18 150
18 153
18 154
18 155
18 156
18 159
18 160
18 161
18 163
18 164
19 20
19 21
19 22
19 26
19 27
19 31
19 32
19 39
19 41
19 42
19 43
19 45
19 46
19 47
19 48
19 49
19 53
19 54
19 58
19 61
19 66
19 67
19 68
19 69
19 70
19 72
19 73
19 74
19 75
19 76
19 77
19 78
19 79
19 81
19 82
19 83
19 85
19 88
19 95
19 99
19 104
19 108
19 115
19 116
19 119
19 124
19 125
19 126
19 128
19 129
19 130
19 131
19 132
19 134
19 135
19 136
19 137
19 142
19 143
19 145
19 146
19 147
19 148
19 149
19 151
19 152
19 153
19 154
19 155
19 157
19 158
19 162
19 163
20 21
20 22
20 23
20 24
20 25
20 26
20 28
20 29
20 30
20 32
20 33
20 34
20 35
20 36
20 37
20 38
20 39
20 40
20 44
20 47
20 48
20 49
20 50
20 51
20 52
20 54
20 55
20 56
20 58
20 61
20 70
20 71
20 77
20 78
20 79
20 80
20 81
20 83
20 85
20 88
20 93
20 94
20 95
20 96
20 97
20 98
20 100
20 101
20 104
20 108
20 115
20 116
20 119
20 125
20 127
20 129
20 130
20 133
20 136
20 137
20 143
20 144
20 150
20 153
20 154
20 155
20 156
20 162
20 163
21 22
21 26
21 27
21 29
21 30
21 31
21 33
21 34
21 35
21 36
21 37
21 38
21 39
21 40
21 44
21 47
21 48
21 49
21 50
21 51
21 52
21 53
21 55
21 56
21 58
21 61
21 70
21 71
21 78
21 80
21 82
21 83
21 85
21 88
21 95
21 99
21 102
21 103
21 104
21 105
21 106
21 107
21 109
21 110
21 115
21 116
21 119
21 124
21 125
21 126
21 127
21 128
21 130
21 133
21 136
21 137
21 143
21 144
21 150
21 153
21 154
21 155
21 156
21 159
21 160
21 161
21 162
21 164
22 26
22 27
22 29
22 30
22 31
22 32
22 33
22 34
22 35
22 36
22 37
22 38
22 40
22 41
22 42
22 43
22 44
22 45
22 46
22 48
22 49
22 53
22 54
22 58
22 61
22 70
22 71
22 77
22 78
22 79
22 80
22 81
22 82
22 85
22 88
22 95
22 99
22 104
22 108
22 111
22 112
22 113
22 114
22 115
22 117
22 119
22 124
22 125
22 126
22 127
22 128
22 129
22 133
22 136
22 137
22 143
22 144
22 147
22 148
22 149
22 150
22 151
22 152
22 154
22 155
22 156
22 162
22 163
23 24
23 25
23 26
23 27
23 28
23 31
23 40
23 42
23 43
23 44
23 45
23 46
23 47
23 50
23 53
23 58
23 59
23 60
23 61
23 62
23 63
23 64
23 65
23 67
23 70
23 79
23 82
23 86
23 88
23 93
23 95
23 96
23 97
23 98
23 99
23 100
23 101
23 102
23 104
23 105
23 106
23 107
23 108
23 109
23 110
23 112
23 115
23 117
23 123
23 125
23 126
23 127
23 128
23 129
23 130
23 132
23 133
23 134
23 135
23 141
23 143
23 144
23 145
23 146
23 148
23 158
23 160
23 162
23 164
24 25
24 26
24 27
24 28
24 31
24 40
24 41
24 43
24 44
24 45
24 46
24 47
24 48
24 49
24 51
24 52
24 53
24 54
24 55
24 56
24 57
24 58
24 60
24 61
24 62
24 63
24 64
24 65
24 67
24 70
24 79
24 82
24 84
24 85
24 87
24 88
24 89
24 90
24 91
24 92
24 94
24 99
24 103
24 105
24 112
24 115
24 117
24 123
24 124
24 131
24 133
24 134
24 135
24 141
24 142
24 146
24 147
24 149
24 150
24 151
24 152
24 153
24 158
24 159
24 161
24 162
24 163
24 164
25 26
25 27
25 28
25 31
25 40
25 41
25 42
25 50
25 53
25 57
25 58
25 59
25 61
25 62
25 63
25 64
25 65
25 66
25 68
25 69
25 70
25 71
25 72
25 73
25 74
25 75
25 76
25 77
25 78
25 80
25 81
25 82
25 83
25 86
25 88
25 94
25 99
25 102
25 103
25 104
25 106
25 107
25 108
25 109
25 110
25 111
25 113
25 114
25 115
25 116
25 117
25 123
25 124
25 131
25 132
25 135
25 141
25 142
25 146
25 148
25 158
25 160
25 162
25 164
26 27
26 28
26 31
26 40
26 41
26 42
26 50
26 53
26 57
26 58
26 59
26 60
26 62
26 63
26 64
26 65
26 66
26 67
26 68
26 69
26 71
26 72
26 73
26 74
26 75
26 76
26 79
26 82
26 84
26 85
26 86
26 87
26 89
26 90
26 91
26 92
26 94
26 99
26 103
26 105
26 111
26 112
26 113
26 114
26 116
26 117
26 123
26 124
26 131
26 132
26 135
26 141
26 142
26 146
26 148
26 158
26 159
26 160
26 161
26 163
26 164
27 28
27 29
27 30
27 32
27 33
27 34
27 35
27 36
27 37
27 38
27 39
27 40
27 41
27 42
27 48
27 49
27 50
27 51
27 52
27 54
27 55
27 56
27 57
27 59
27 60
27 61
27 67
27 70
27 77
27 78
27 79
27 80
27 81
27 83
27 86
27 88
27 93
27 94
27 95
27 96
27 97
27 98
27 100
27 101
27 103
27 105
27 112
27 115
27 117
27 123
27 124
27 131
27 132
27 135
27 141
27 142
27 146
27 148
27 158
27 160
27 162
27 164
28 29
28 30
28 31
28 32
28 33
28 34
28 35
28 36
28 37
28 38
28 39
28 41
28 42
28 50
28 53
28 57
28 59
28 60
28 61
28 67
28 70
28 79
28 82
28 86
28 88
28 94
28 99
28 103
28 105
28 111
28 112
28 113
28 114
28 115
28 116
28 118
28 119
28 120
28 121
28 122
28 124
28 131
28 132
28 133
28 134
28 136
28 137
28 138
28 139
28 140
28 142
28 143
28 144
28 145
28 148
28 154
28 155
28 156
28 157
28 159
28 160
28 161
28 162
28 163
29 30
29 31
29 32
29 33
29 34
29 35
29 36
29 37
29 38
29 39
29 40
29 45
29 46
29 47
29 53
29 54
29 55
29 56
29 62
29 63
29 64
29 65
29 72
29 73
29 74
29 75
29 76
29 77
29 78
29 79
29 80
29 82
29 83
29 84
29 85
29 86
29 87
29 88
29 90
29 91
29 92
29 93
29 94
29 95
29 96
29 97
29 99
29 100
29 101
29 107
29 108
29 109
29 110
29 116
29 117
29 122
29 123
29 128
29 129
29 130
29 134
29 135
29 140
29 141
29 145
29 146
29 147
29 148
29 149
29 150
29 152
29 153
29 157
29 158
29 163
29 164
30 31
30 32
30 33
30 34
30 35
30 36
30 37
30 38
30 39
30 40
30 41
30 42
30 43
30 44
30 46
30 47
30 53
30 54
30 55
30 56
30 57
30 58
30 59
30 60
30 61
30 63
30 64
30 65
30 72
30 73
30 74
30 75
30 76
30 81
30 82
30 83
30 89
30 90
30 91
30 92
30 98
30 99
30 100
30 101
30 102
30 103
30 104
30 105
30 106
30 108
30 109
30 110
30 116
30 117
30 118
30 119
30 120
30 121
30 123
30 124
30 125
30 126
30 127
30 129
30 130
30 134
30 135
30 140
30 141
30 145
30 146
30 151
30 152
30 153
30 157
30 158
30 163
30 164
31 32
31 33
31 34
31 35
31 36
31 37
31 38
31 39
31 40
31 45
31 46
31 47
31 48
31 49
31 50
31 51
31 52
31 54
31 55
31 56
31 62
31 63
31 64
31 65
31 72
31 73
31 74
31 75
31 76
31 77
31 78
31 79
31 80
31 81
31 83
31 89
31 90
31 91
31 92
31 93
31 94
31 95
31 96
31 97
31 98
31 100
31 101
31 107
31 108
31 109
31 110
31 116
31 117
31 122
31 123
31 128
31 129
31 130
31 134
31 135
31 140
31 141
31 145
31 146
31 151
31 152
31 153
31 157
31 158
31 163
31 164
32 33
32 34
32 35
32 36
32 37
32 38
32 39
32 40
32 45
32 46
32 47
32 48
32 49
32 50
32 51
32 52
32 53
32 55
32 56
32 62
32 63
32 64
32 65
32 72
32 73
32 74
32 75
32 76
32 81
32 82
32 83
32 89
32 90
32 91
32 92
32 98
32 99
32 100
32 101
32 102
32 103
32 104
32 105
32 106
32 107
32 109
32 110
32 116
32 117
32 122
32 123
32 124
32 125
32 126
32 127
32 128
32 130
32 134
32 135
32 140
32 141
32 145
32 146
32 151
32 152
32 153
32 157
32 158
32 159
32 160
32 161
32 162
32 164
33 34
33 35
33 36
33 37
33 38
33 39
33 40
33 41
33 42
33 43
33 44
33 45
33 47
33 53
33 54
33 55
33 56
33 57
33 58
33 59
33 60
33 61
33 62
33 64
33 65
33 72
33 73
33 74
33 75
33 76
33 81
33 82
33 83
33 84
33 85
33 86
33 87
33 88
33 89
33 91
33 92
33 98
33 99
33 100
33 101
33 107
33 108
33 109
33 110
33 116
33 117
33 122
33 123
33 128
33 129
33 130
33 134
33 135
33 136
33 137
33 138
33 139
33 141
33 145
33 146
33 147
33 148
33 149
33 150
33 151
33 153
33 157
33 158
33 163
33 164
34 35
34 36
34 37
34 38
34 39
34 40
34 45
34 46
34 47
34 53
34 54
34 55
34 56
34 62
34 63
34 64
34 65
34 66
34 67
34 68
34 69
34 70
34 71
34 73
34 74
34 75
34 76
34 81
34 82
34 83
34 84
34 85
34 86
34 87
34 88
34 89
34 90
34 92
34 93
34 94
34 95
34 96
34 97
34 98
34 99
34 101
34 107
34 108
34 109
34 110
34 116
34 117
34 122
34 123
34 128
34 129
34 130
34 134
34 135
34 140
34 141
34 142
34 143
34 144
34 146
34 151
34 152
34 153
34 157
34 158
34 163
34 164
35 36
35 37
35 38
35 39
35 40
35 45
35 46
35 47
35 53
35 54
35 55
35 56
35 57
35 58
35 59
35 60
35 61
35 62
35 63
35 65
35 66
35 67
35 68
35 69
35 70
35 71
35 72
35 74
35 75
35 76
35 81
35 82
35 83
35 89
35 90
35 91
35 92
35 98
35 99
35 100
35 101
35 102
35 103
35 104
35 105
35 106
35 107
35 108
35 110
35 116
35 117
35 122
35 123
35 128
35 129
35 130
35 134
35 135
35 140
35 141
35 145
35 146
35 151
35 152
35 153
35 157
35 158
35 163
35 164
36 37
36 38
36 39
36 40
36 45
36 46
36 47
36 48
36 49
36 50
36 51
36 52
36 53
36 54
36 56
36 62
36 63
36 64
36 65
36 66
36 67
36 68
36 69
36 70
36 71
36 72
36 73
36 75
36 76
36 81
36 82
36 83
36 89
36 90
36 91
36 92
36 93
36 94
36 95
36 96
36 97
36 98
36 99
36 100
36 107
36 108
36 109
36 110
36 116
36 117
36 122
36 123
36 128
36 129
36 130
36 131
36 132
36 133
36 135
36 140
36 141
36 145
36 146
36 151
36 152
36 153
36 157
36 158
36 163
36 164
37 38
37 39
37 40
37 45
37 46
37 47
37 48
37 49
37 50
37 51
37 52
37 53
37 54
37 55
37 62
37 63
37 64
37 65
37 66
37 67
37 68
37 69
37 70
37 71
37 72
37 73
37 74
37 76
37 81
37 82
37 83
37 89
37 90
37 91
37 92
37 98
37 99
37 100
37 101
37 102
37 103
37 104
37 105
37 106
37 107
37 108
37 109
37 116
37 117
37 122
37 123
37 128
37 129
37 130
37 134
37 135
37 140
37 141
37 145
37 146
37 151
37 152
37 153
37 157
37 158
37 163
37 164
38 39
38 40
38 45
38 46
38 47
38 53
38 54
38 55
38 56
38 57
38 58
38 59
38 60
38 61
38 62
38 63
38 64
38 66
38 67
38 68
38 69
38 70
38 71
38 72
38 73
38 74
38 75
38 81
38 82
38 83
38 84
38 85
38 86
38 87
38 88
38 89
38 90
38 91
38 98
38 99
38 100
38 101
38 107
38 108
38 109
38 110
38 116
38 117
38 122
38 123
38 128
38 129
38 130
38 134
38 135
38 140
38 141
38 145
38 146
38 151
38 152
38 153
38 154
38 155
38 156
38 158
38 163
38 164
39 40
39 41
39 42
39 43
39 44
39 45
39 46
39 53
39 54
39 55
39 56
39 62
39 63
39 64
39 65
39 72
39 73
39 74
39 75
39 76
39 77
39 78
39 79
39 80
39 81
39 82
39 89
39 90
39 91
39 92
39 98
39 99
39 100
39 101
39 107
39 108
39 109
39 110
39 111
39 112
39 113
39 114
39 115
39 117
39 122
39 123
39 124
39 125
39 126
39 127
39 128
39 129
39 134
39 135
39 140
39 141
39 145
39 146
39 147
39 148
39 149
39 150
39 151
39 152
39 157
39 158
39 163
39 164
40 45
40 46
40 47
40 53
40 54
40 55
40 56
40 62
40 63
40 64
40 65
40 72
40 73
40 74
40 75
40 76
40 81
40 82
40 83
40 89
40 90
40 91
40 92
40 98
40 99
40 100
40 101
40 107
40 108
40 109
40 110
40 111
40 112
40 113
40 114
40 115
40 116
40 118
40 119
40 120
40 121
40 122
40 128
40 129
40 130
40 131
40 132
40 133
40 134
40 136
40 137
40 138
40 139
40 140
40 142
40 143
40 144
40 145
40 151
40 152
40 153
40 154
40 155
40 156
40 157
40 159
40 160
40 161
40 162
40 163
41 42
41 43
41 44
41 45
41 46
41 47
41 50
41 51
41 58
41 59
41 60
41 61
41 62
41 63
41 64
41 65
41 68
41 71
41 80
41 83
41 86
41 90
41 93
41 95
41 96
41 97
41 98
41 99
41 100
41 101
41 102
41 104
41 105
41 106
41 107
41 108
41 109
41 110
41 113
41 116
41 121
41 122
41 125
41 126
41 127
41 128
41 129
41 130
41 132
41 133
41 134
41 135
41 138
41 140
41 143
41 144
41 145
41 146
41 148
41 150
41 152
41 153
41 156
41 160
42 43
42 44
42 45
42 46
42 47
42 48
42 49
42 51
42 52
42 53
42 54
42 55
42 56
42 57
42 58
42 60
42 61
42 62
42 63
42 64
42 65
42 68
42 71
42 80
42 83
42 84
42 85
42 87
42 88
42 89
42 90
42 91
42 92
42 94
42 97
42 103
42 107
42 113
42 116
42 121
42 122
42 124
42 127
42 128
42 130
42 131
42 133
42 134
42 135
42 138
42 140
42 142
42 144
42 147
42 149
42 150
42 151
42 152
42 153
42 156
42 159
42 161
42 162
42 163
42 164
43 44
43 45
43 46
43 47
43 48
43 49
43 50
43 52
43 53
43 54
43 55
43 56
43 57
43 59
43 62
43 63
43 66
43 67
43 69
43 70
43 71
43 72
43 73
43 74
43 75
43 76
43 80
43 83
43 86
43 90
43 93
43 94
43 95
43 96
43 98
43 99
43 100
43 101
43 103
43 107
43 111
43 112
43 114
43 115
43 116
43 117
43 118
43 119
43 120
43 122
43 123
43 124
43 127
43 128
43 130
43 131
43 132
43 133
43 136
43 137
43 139
43 140
43 141
43 142
43 144
43 148
43 150
43 152
43 153
43 156
43 160
44 45
44 46
44 47
44 50
44 51
44 57
44 59
44 62
44 63
44 66
44 67
44 68
44 69
44 70
44 72
44 73
44 74
44 75
44 76
44 77
44 78
44 79
44 81
44 82
44 83
44 86
44 90
44 94
44 97
44 103
44 107
44 113
44 116
44 121
44 122
44 124
44 125
44 126
44 128
44 129
44 130
44 131
44 132
44 134
44 135
44 138
44 140
44 142
44 143
44 145
44 146
44 147
44 148
44 149
44 151
44 152
44 153
44 154
44 155
44 157
44 158
44 160
45 46
45 47
45 50
45 51
45 57
45 58
45 59
45 60
45 61
45 63
45 64
45 65
45 68
45 71
45 80
45 83
45 86
45 90
45 94
45 97
45 102
45 103
45 104
45 105
45 106
45 108
45 109
45 110
45 113
45 116
45 118
45 119
45 120
45 121
45 123
45 124
45 125
45 126
45 127
45 129
45 130
45 131
45 132
45 133
45 138
45 140
45 142
45 144
45 148
45 150
45 152
45 153
45 156
45 160
46 47
46 50
46 51
46 57
46 58
46 59
46 60
46 61
46 62
46 64
46 65
46 68
46 71
46 80
46 83
46 84
46 85
46 86
46 87
46 88
46 89
46 91
46 92
46 94
46 97
46 103
46 107
46 113
46 116
46 121
46 122
46 124
46 127
46 128
46 130
46 131
46 132
46 133
46 136
46 137
46 138
46 139
46 141
46 142
46 144
46 147
46 148
46 149
46 150
46 151
46 153
46 156
46 160
47 50
47 51
47 57
47 59
47 62
47 63
47 68
47 71
47 77
47 78
47 79
47 80
47 81
47 82
47 86
47 90
47 94
47 97
47 103
47 107
47 111
47 112
47 113
47 114
47 115
47 117
47 121
47 122
47 124
47 125
47 126
47 127
47 128
47 129
47 131
47 132
47 133
47 138
47 140
47 142
47 144
47 147
47 148
47 149
47 150
47 151
47 152
47 156
47 160
48 49
48 50
48 51
48 52
48 53
48 54
48 55
48 56
48 57
48 59
48 60
48 61
48 62
48 63
48 64
48 65
48 68
48 69
48 74
48 75
48 77
48 79
48 80
48 81
48 82
48 83
48 85
48 86
48 93
48 94
48 96
48 97
48 98
48 99
48 100
48 101
48 104
48 106
48 108
48 110
48 113
48 114
48 118
48 120
48 121
48 122
48 123
48 125
48 129
48 132
48 134
48 137
48 138
48 139
48 140
48 141
48 143
48 148
48 149
48 155
48 156
48 157
48 158
48 160
48 163
49 50
49 51
49 52
49 53
49 54
49 55
49 56
49 58
49 59
49 68
49 69
49 74
49 75
49 78
49 82
49 84
49 86
49 87
49 88
49 89
49 90
49 91
49 92
49 95
49 97
49 99
49 101
49 102
49 103
49 105
49 106
49 107
49 108
49 109
49 110
49 113
49 114
49 119
49 121
49 124
49 126
49 127
49 128
49 129
49 130
49 132
49 134
49 136
49 138
49 139
49 140
49 141
49 142
49 144
49 145
49 146
49 148
49 149
49 154
49 156
49 157
49 158
49 160
49 163
50 51
50 52
50 53
50 54
50 55
50 56
50 57
50 58
50 60
50 61
50 62
50 63
50 64
50 65
50 68
50 69
50 74
50 75
50 78
50 82
50 84
50 85
50 87
50 88
50 89
50 90
50 91
50 92
50 95
50 97
50 99
50 101
50 104
50 106
50 108
50 110
50 113
50 114
50 119
50 121
50 125
50 129
50 131
50 133
50 134
50 135
50 136
50 137
50 138
50 139
50 143
50 147
50 149
50 150
50 151
50 152
50 153
50 154
50 155
50 159
50 161
50 162
50 163
50 164
51 52
51 53
51 54
51 55
51 56
51 58
51 59
51 66
51 67
51 69
51 70
51 71
51 72
51 73
51 74
51 75
51 76
51 78
51 82
51 85
51 86
51 93
51 94
51 95
51 96
51 98
51 99
51 100
51 101
51 104
51 106
51 108
51 110
51 111
51 112
51 114
51 115
51 116
51 117
51 118
51 119
51 120
51 122
51 123
51 125
51 129
51 132
51 134
51 136
51 137
51 139
51 140
51 141
51 143
51 148
51 149
51 154
51 155
51 160
51 163
52 53
52 54
52 55
52 56
52 58
52 59
52 66
52 67
52 68
52 70
52 71
52 72
52 73
52 74
52 75
52 76
52 78
52 82
52 85
52 86
52 95
52 97
52 99
52 101
52 102
52 103
52 104
52 105
52 107
52 108
52 109
52 110
52 111
52 112
52 113
52 115
52 116
52 117
52 119
52 121
52 125
52 129
52 132
52 134
52 136
52 137
52 138
52 140
52 141
52 143
52 147
52 148
52 150
52 151
52 152
52 153
52 154
52 155
52 160
52 163
53 54
53 55
53 56
53 58
53 59
53 68
53 69
53 74
53 75
53 77
53 78
53 79
53 80
53 81
53 83
53 85
53 86
53 93
53 94
53 95
53 96
53 97
53 98
53 100
53 101
53 104
53 106
53 108
53 110
53 113
53 114
53 119
53 121
53 125
53 129
53 132
53 134
53 136
53 137
53 138
53 139
53 143
53 148
53 149
53 154
53 155
53 160
53 163
54 55
54 56
54 58
54 59
54 68
54 69
54 74
54 75
54 78
54 82
54 85
54 86
54 95
54 97
54 99
54 101
54 102
54 103
54 104
54 105
54 106
54 107
54 109
54 110
54 113
54 114
54 119
54 121
54 124
54 125
54 126
54 127
54 128
54 130
54 132
54 134
54 136
54 137
54 138
54 139
54 143
54 148
54 149
54 154
54 155
54 159
54 160
54 161
54 162
54 164
55 56
55 58
55 59
55 66
55 67
55 68
55 69
55 70
55 71
55 72
55 73
55 75
55 76
55 78
55 82
55 85
55 86
55 93
55 94
55 95
55 96
55 97
55 98
55 99
55 100
55 104
55 106
55 108
55 110
55 113
55 114
55 119
55 121
55 125
55 129
55 131
55 132
55 133
55 135
55 136
55 137
55 138
55 139
55 143
55 148
55 149
55 154
55 155
55 160
55 163
56 58
56 59
56 66
56 67
56 68
56 69
56 70
56 71
56 72
56 73
56 74
56 76
56 78
56 82
56 85
56 86
56 95
56 97
56 99
56 101
56 102
56 103
56 104
56 105
56 106
56 107
56 108
56 109
56 113
56 114
56 119
56 121
56 125
56 129
56 132
56 134
56 136
56 137
56 138
56 139
56 143
56 148
56 149
56 154
56 155
56 160
56 163
57 58
57 59
57 60
57 61
57 62
57 63
57 64
57 65
57 67
57 70
57 73
57 76
57 78
57 79
57 86
57 88
57 90
57 92
57 93
57 95
57 96
57 97
57 98
57 99
57 100
57 101
57 102
57 104
57 105
57 106
57 107
57 108
57 109
57 110
57 112
57 115
57 119
57 122
57 125
57 126
57 127
57 128
57 129
57 130
57 132
57 133
57 134
57 135
57 136
57 140
57 143
57 144
57 145
57 146
57 148
57 152
57 154
57 157
57 160
57 162
58 59
58 60
58 61
58 62
58 63
58 64
58 65
58 67
58 70
58 73
58 76
58 77
58 79
58 80
58 81
58 82
58 83
58 86
58 88
58 90
58 92
58 93
58 94
58 96
58 97
58 98
58 99
58 100
58 101
58 103
58 105
58 107
58 109
58 112
58 115
58 118
58 120
58 121
58 122
58 123
58 124
58 128
58 131
58 132
58 137
58 138
58 139
58 140
58 141
58 142
58 148
58 152
58 155
58 156
58 157
58 158
58 160
58 162
59 60
59 61
59 62
59 63
59 64
59 65
59 67
59 70
59 73
59 76
59 78
59 79
59 84
59 85
59 87
59 88
59 89
59 90
59 91
59 92
59 94
59 95
59 103
59 105
59 107
59 109
59 112
59 115
59 119
59 122
59 124
59 128
59 131
59 133
59 134
59 135
59 136
59 140
59 142
59 147
59 149
59 150
59 151
59 152
59 153
59 154
59 157
59 159
59 161
59 162
59 163
59 164
60 61
60 62
60 63
60 64
60 65
60 66
60 68
60 69
60 70
60 71
60 72
60 73
60 74
60 75
60 76
60 77
60 78
60 80
60 81
60 82
60 83
60 86
60 88
60 90
60 92
60 94
60 95
60 102
60 103
60 104
60 106
60 107
60 108
60 109
60 110
60 111
60 113
60 114
60 115
60 116
60 117
60 119
60 122
60 124
60 128
60 131
60 132
60 136
60 140
60 142
60 148
60 152
60 154
60 157
60 160
60 162
61 62
61 63
61 64
61 65
61 66
61 67
61 68
61 69
61 71
61 72
61 73
61 74
61 75
61 76
61 78
61 79
61 84
61 85
61 86
61 87
61 89
61 90
61 91
61 92
61 94
61 95
61 103
61 105
61 107
61 109
61 111
61 112
61 113
61 114
61 116
61 117
61 119
61 122
61 124
61 128
61 131
61 132
61 136
61 140
61 142
61 148
61 152
61 154
61 157
61 159
61 160
61 161
61 163
61 164
62 63
62 64
62 65
62 67
62 70
62 73
62 76
62 78
62 79
62 86
62 88
62 90
62 92
62 94
62 95
62 102
62 103
62 104
62 105
62 106
62 108
62 109
62 110
62 112
62 115
62 118
62 119
62 120
62 121
62 123
62 124
62 125
62 126
62 127
62 129
62 130
62 131
62 132
62 136
62 140
62 142
62 148
62 152
62 154
62 157
62 160
62 162
63 64
63 65
63 67
63 70
63 73
63 76
63 78
63 79
63 84
63 85
63 86
63 87
63 88
63 89
63 91
63 92
63 94
63 95
63 103
63 105
63 107
63 109
63 112
63 115
63 119
63 122
63 124
63 128
63 131
63 132
63 136
63 137
63 138
63 139
63 141
63 142
63 147
63 148
63 149
63 150
63 151
63 153
63 154
63 157
63 160
63 162
64 65
64 66
64 67
64 68
64 69
64 70
64 71
64 72
64 74
64 75
64 76
64 78
64 79
64 86
64 88
64 90
64 92
64 94
64 95
64 102
64 103
64 104
64 105
64 106
64 107
64 108
64 110
64 112
64 115
64 119
64 122
64 124
64 128
64 131
64 132
64 136
64 140
64 142
64 148
64 152
64 154
64 157
64 160
64 162
65 66
65 67
65 68
65 69
65 70
65 71
65 72
65 73
65 74
65 75
65 78
65 79
65 84
65 85
65 86
65 87
65 88
65 89
65 90
65 91
65 94
65 95
65 103
65 105
65 107
65 109
65 112
65 115
65 119
65 122
65 124
65 128
65 131
65 132
65 136
65 140
65 142
65 148
65 152
65 154
65 155
65 156
65 158
65 160
65 162
66 67
66 68
66 69
66 70
66 71
66 72
66 73
66 74
66 75
66 76
66 79
66 80
66 84
66 85
66 86
66 88
66 89
66 90
66 91
66 92
66 93
66 94
66 95
66 97
66 98
66 99
66 100
66 101
66 105
66 106
66 109
66 110
66 112
66 113
66 114
66 115
66 116
66 117
66 118
66 119
66 121
66 122
66 123
66 124
66 125
66 127
66 128
66 129
66 130
66 133
66 134
66 138
66 139
66 144
66 145
66 149
66 150
66 156
66 157
66 159
66 160
66 162
66 163
66 164
67 68
67 69
67 70
67 71
67 72
67 73
67 74
67 75
67 76
67 77
67 78
67 80
67 81
67 82
67 83
67 87
67 88
67 91
67 92
67 96
67 97
67 100
67 101
67 102
67 103
67 104
67 106
67 107
67 108
67 109
67 110
67 111
67 113
67 114
67 115
67 116
67 117
67 120
67 121
67 126
67 127
67 133
67 134
67 138
67 139
67 144
67 145
67 149
67 150
67 156
67 157
67 161
67 162
68 69
68 70
68 71
68 72
68 73
68 74
68 75
68 76
68 79
68 80
68 87
68 88
68 91
68 92
68 93
68 94
68 95
68 96
68 98
68 99
68 100
68 101
68 105
68 106
68 109
68 110
68 111
68 112
68 114
68 115
68 116
68 117
68 118
68 119
68 120
68 122
68 123
68 126
68 127
68 133
68 134
68 136
68 137
68 139
68 140
68 141
68 144
68 145
68 149
68 150
68 156
68 157
68 161
68 162
69 70
69 71
69 72
69 73
69 74
69 75
69 76
69 79
69 80
69 87
69 88
69 91
69 92
69 96
69 97
69 100
69 101
69 102
69 103
69 104
69 105
69 107
69 108
69 109
69 110
69 111
69 112
69 113
69 115
69 116
69 117
69 120
69 121
69 126
69 127
69 133
69 134
69 136
69 137
69 138
69 140
69 141
69 144
69 145
69 147
69 148
69 150
69 151
69 152
69 153
69 156
69 157
69 161
69 162
70 71
70 72
70 73
70 74
70 75
70 76
70 79
70 80
70 84
70 85
70 86
70 87
70 89
70 90
70 91
70 92
70 96
70 97
70 100
70 101
70 105
70 106
70 109
70 110
70 111
70 112
70 113
70 114
70 116
70 117
70 120
70 121
70 126
70 127
70 133
70 134
70 138
70 139
70 144
70 145
70 149
70 150
70 156
70 157
70 159
70 160
70 161
70 163
70 164
71 72
71 73
71 74
71 75
71 76
71 77
71 78
71 79
71 81
71 82
71 83
71 87
71 88
71 91
71 92
71 96
71 97
71 100
71 101
71 105
71 106
71 109
71 110
71 111
71 112
71 113
71 114
71 115
71 120
71 121
71 124
71 125
71 126
71 128
71 129
71 130
71 131
71 132
71 134
71 135
71 138
71 139
71 142
71 143
71 145
71 146
71 147
71 148
71 149
71 151
71 152
71 153
71 154
71 155
71 157
71 158
71 161
71 162
72 73
72 74
72 75
72 76
72 79
72 80
72 84
72 85
72 86
72 87
72 88
72 89
72 90
72 92
72 93
72 94
72 95
72 96
72 97
72 98
72 99
72 101
72 105
72 106
72 109
72 110
72 111
72 112
72 113
72 114
72 115
72 120
72 121
72 126
72 127
72 133
72 134
72 138
72 139
72 142
72 143
72 144
72 146
72 149
72 150
72 156
72 157
72 161
72 162
73 74
73 75
73 76
73 79
73 80
73 87
73 88
73 91
73 92
73 96
73 97
73 100
73 101
73 102
73 103
73 104
73 105
73 106
73 107
73 108
73 110
73 111
73 112
73 113
73 114
73 115
73 120
73 121
73 126
73 127
73 133
73 134
73 138
73 139
73 144
73 145
73 149
73 150
73 156
73 157
73 161
73 162
74 75
74 76
74 79
74 80
74 87
74 88
74 91
74 92
74 93
74 94
74 95
74 96
74 97
74 98
74 99
74 100
74 105
74 106
74 109
74 110
74 111
74 112
74 113
74 114
74 115
74 120
74 121
74 126
74 127
74 131
74 132
74 133
74 135
74 138
74 139
74 144
74 145
74 149
74 150
74 156
74 157
74 161
74 162
75 76
75 79
75 80
75 87
75 88
75 91
75 92
75 96
75 97
75 100
75 101
75 102
75 103
75 104
75 105
75 106
75 107
75 108
75 109
75 111
75 112
75 113
75 114
75 115
75 120
75 121
75 126
75 127
75 133
75 134
75 138
75 139
75 144
75 145
75 149
75 150
75 156
75 157
75 161
75 162
76 79
76 80
76 84
76 85
76 86
76 87
76 88
76 89
76 90
76 91
76 96
76 97
76 100
76 101
76 105
76 106
76 109
76 110
76 111
76 112
76 113
76 114
76 115
76 120
76 121
76 126
76 127
76 133
76 134
76 138
76 139
76 144
76 145
76 149
76 150
76 154
76 155
76 156
76 158
76 161
76 162
77 78
77 79
77 80
77 81
77 82
77 83
77 85
77 86
77 87
77 88
77 89
77 90
77 91
77 92
77 94
77 95
77 96
77 97
77 98
77 99
77 100
77 101
77 103
77 104
77 105
77 106
77 107
77 108
77 109
77 110
77 112
77 116
77 119
77 120
77 121
77 122
77 123
77 127
77 130
77 133
77 136
77 144
77 148
77 149
77 150
77 151
77 152
77 153
77 154
77 156
77 160
77 161
77 162
77 163
77 164
78 79
78 80
78 81
78 82
78 83
78 84
78 89
78 93
78 94
78 96
78 97
78 98
78 99
78 100
78 101
78 102
78 105
78 112
78 116
78 118
78 120
78 121
78 122
78 123
78 127
78 130
78 133
78 137
78 138
78 139
78 140
78 141
78 144
78 147
78 150
78 151
78 153
78 155
78 156
78 157
78 158
78 159
79 80
79 81
79 82
79 83
79 84
79 89
79 93
79 95
79 98
79 99
79 102
79 103
79 104
79 106
79 107
79 108
79 109
79 110
79 111
79 113
79 114
79 115
79 116
79 117
79 118
79 119
79 127
79 130
79 133
79 136
79 144
79 147
79 150
79 151
79 153
79 154
79 156
79 159
80 81
80 82
80 83
80 84
80 89
80 93
80 95
80 98
80 99
80 102
80 105
80 112
80 116
80 118
80 119
80 124
80 125
80 126
80 128
80 129
80 130
80 131
80 132
80 134
80 135
80 136
80 142
80 143
80 145
80 146
80 147
80 148
80 149
80 151
80 152
80 153
80 154
80 155
80 157
80 158
80 159
81 82
81 83
81 84
81 85
81 86
81 87
81 88
81 90
81 91
81 92
81 93
81 94
81 95
81 96
81 97
81 99
81 100
81 101
81 102
81 105
81 112
81 116
81 118
81 119
81 127
81 130
81 133
81 136
81 144
81 147
81 148
81 149
81 150
81 152
81 153
81 154
81 156
81 159
82 83
82 84
82 89
82 93
82 94
82 95
82 96
82 97
82 98
82 100
82 101
82 102
82 105
82 112
82 116
82 118
82 119
82 127
82 130
82 133
82 136
82 144
82 147
82 150
82 151
82 153
82 154
82 156
82 159
83 84
83 89
83 93
83 95
83 98
83 99
83 102
83 105
83 111
83 112
83 113
83 114
83 115
83 117
83 118
83 119
83 124
83 125
83 126
83 127
83 128
83 129
83 133
83 136
83 144
83 147
83 148
83 149
83 150
83 151
83 152
83 154
83 156
83 159
84 85
84 86
84 87
84 88
84 89
84 90
84 91
84 92
84 94
84 95
84 96
84 97
84 98
84 99
84 100
84 101
84 103
84 104
84 105
84 106
84 107
84 108
84 109
84 110
84 111
84 115
84 119
84 120
84 121
84 122
84 123
84 125
84 126
84 132
84 137
84 140
84 143
84 145
84 148
84 149
84 150
84 151
84 152
84 153
84 155
84 157
84 160
84 161
84 162
84 163
84 164
85 86
85 87
85 88
85 89
85 90
85 91
85 92
85 93
85 96
85 98
85 100
85 102
85 103
85 105
85 106
85 107
85 108
85 109
85 110
85 111
85 115
85 118
85 120
85 124
85 126
85 127
85 128
85 129
85 130
85 132
85 136
85 138
85 139
85 140
85 141
85 142
85 144
85 145
85 146
85 147
85 148
85 151
85 152
85 154
85 156
85 157
85 158
85 159
85 160
85 161
85 162
86 87
86 88
86 89
86 90
86 91
86 92
86 93
86 96
86 98
86 100
86 102
86 104
86 111
86 115
86 118
86 120
86 125
86 126
86 131
86 133
86 134
86 135
86 137
86 140
86 143
86 145
86 147
86 149
86 150
86 151
86 152
86 153
86 155
86 157
86 159
86 161
86 162
86 163
86 164
87 88
87 89
87 90
87 91
87 92
87 93
87 94
87 95
87 97
87 98
87 99
87 100
87 101
87 102
87 104
87 112
87 113
87 114
87 115
87 116
87 117
87 118
87 119
87 121
87 122
87 123
87 124
87 125
87 127
87 128
87 129
87 130
87 132
87 137
87 140
87 143
87 145
87 147
87 148
87 151
87 152
87 155
87 157
87 159
87 160
87 162
87 163
87 164
88 89
88 90
88 91
88 92
88 93
88 96
88 98
88 100
88 102
88 104
88 111
88 112
88 113
88 114
88 116
88 117
88 118
88 120
88 125
88 126
88 132
88 137
88 140
88 143
88 145
88 147
88 148
88 151
88 152
88 155
88 157
88 159
88 160
88 161
88 163
88 164
89 90
89 91
89 92
89 93
89 94
89 95
89 96
89 97
89 99
89 100
89 101
89 102
89 104
89 111
89 115
89 118
89 120
89 125
89 126
89 132
89 137
89 140
89 143
89 145
89 147
89 148
89 149
89 150
89 152
89 153
89 155
89 157
89 159
89 160
89 161
89 162
90 91
90 92
90 93
90 96
90 98
90 100
90 102
90 104
90 111
90 115
90 118
90 120
90 125
90 126
90 132
90 136
90 137
90 138
90 139
90 141
90 143
90 145
90 147
90 148
90 149
90 150
90 151
90 153
90 155
90 157
90 159
90 160
90 161
90 162
91 92
91 93
91 94
91 95
91 96
91 97
91 98
91 99
91 101
91 102
91 104
91 111
91 115
91 118
91 120
91 125
91 126
91 132
91 137
91 140
91 142
91 143
91 144
91 146
91 147
91 148
91 151
91 152
91 155
91 157
91 159
91 160
91 161
91 162
92 93
92 96
92 98
92 100
92 102
92 104
92 111
92 115
92 118
92 120
92 125
92 126
92 132
92 137
92 140
92 143
92 145
92 147
92 148
92 151
92 152
92 154
92 155
92 156
92 158
92 159
92 160
92 161
92 162
93 94
93 95
93 96
93 97
93 98
93 99
93 100
93 101
93 103
93 104
93 105
93 106
93 107
93 108
93 109
93 110
93 111
93 113
93 119
93 120
93 121
93 122
93 123
93 124
93 126
93 131
93 134
93 136
93 138
93 142
93 145
93 148
93 149
93 150
93 151
93 152
93 153
93 154
93 160
93 161
93 162
93 163
93 164
94 95
94 96
94 97
94 98
94 99
94 100
94 101
94 102
94 104
94 105
94 106
94 107
94 108
94 109
94 110
94 111
94 113
94 118
94 119
94 120
94 121
94 125
94 126
94 127
94 128
94 129
94 130
94 132
94 133
94 134
94 135
94 136
94 138
94 143
94 144
94 145
94 146
94 147
94 151
94 154
94 159
94 161
95 96
95 97
95 98
95 99
95 100
95 101
95 102
95 103
95 111
95 113
95 118
95 120
95 121
95 122
95 123
95 124
95 126
95 131
95 134
95 137
95 138
95 139
95 140
95 141
95 142
95 145
95 147
95 151
95 155
95 156
95 157
95 158
95 159
95 161
96 97
96 98
96 99
96 100
96 101
96 102
96 103
96 112
96 113
96 114
96 115
96 116
96 117
96 118
96 119
96 121
96 122
96 123
96 124
96 125
96 127
96 128
96 129
96 130
96 131
96 134
96 136
96 138
96 142
96 145
96 147
96 151
96 154
96 159
96 160
96 162
96 163
96 164
97 98
97 99
97 100
97 101
97 102
97 103
97 111
97 112
97 114
97 115
97 116
97 117
97 118
97 119
97 120
97 122
97 123
97 124
97 126
97 131
97 134
97 136
97 137
97 139
97 140
97 141
97 142
97 145
97 147
97 151
97 154
97 159
97 161
98 99
98 100
98 101
98 102
98 103
98 111
98 113
98 118
98 119
98 120
98 121
98 124
98 126
98 131
98 134
98 136
98 138
98 142
98 145
98 147
98 148
98 149
98 150
98 152
98 153
98 154
98 159
98 161
99 100
99 101
99 102
99 103
99 111
99 113
99 118
99 119
99 120
99 121
99 124
99 126
99 131
99 134
99 136
99 138
99 142
99 145
99 147
99 151
99 154
99 159
99 161
100 101
100 102
100 103
100 111
100 113
100 118
100 119
100 120
100 121
100 124
100 126
100 131
100 134
100 136
100 138
100 142
100 143
100 144
100 146
100 147
100 151
100 154
100 159
100 161
101 102
101 103
101 111
101 113
101 118
101 119
101 120
101 121
101 124
101 126
101 131
101 132
101 133
101 135
101 136
101 138
101 142
101 145
101 147
101 151
101 154
101 159
101 161
102 103
102 104
102 105
102 106
102 107
102 108
102 109
102 110
102 112
102 114
102 119
102 120
102 121
102 122
102 123
102 124
102 125
102 128
102 129
102 131
102 137
102 139
102 142
102 143
102 148
102 149
102 150
102 151
102 152
102 153
102 155
102 160
102 161
102 162
102 163
102 164
103 104
103 105
103 106
103 107
103 108
103 109
103 110
103 112
103 114
103 118
103 122
103 125
103 126
103 127
103 128
103 129
103 130
103 132
103 133
103 134
103 135
103 137
103 139
103 143
103 144
103 145
103 146
103 147
103 149
103 155
103 159
103 163
104 105
104 106
104 107
104 108
104 109
104 110
104 112
104 114
104 118
104 122
104 124
104 126
104 127
104 128
104 129
104 130
104 131
104 136
104 138
104 139
104 140
104 141
104 142
104 144
104 145
104 146
104 147
104 149
104 154
104 156
104 157
104 158
104 159
104 163
105 106
105 107
105 108
105 109
105 110
105 111
105 113
105 114
105 115
105 116
105 117
105 118
105 122
105 124
105 125
105 128
105 129
105 131
105 137
105 139
105 142
105 143
105 147
105 149
105 155
105 159
105 163
106 107
106 108
106 109
106 110
106 111
106 112
106 113
106 115
106 116
106 117
106 118
106 122
106 124
106 125
106 128
106 129
106 131
106 136
106 137
106 138
106 140
106 141
106 142
106 143
106 147
106 148
106 150
106 151
106 152
106 153
106 155
106 159
106 163
107 108
107 109
107 110
107 112
107 114
107 118
107 119
107 120
107 121
107 123
107 124
107 125
107 126
107 127
107 129
107 130
107 131
107 137
107 139
107 142
107 143
107 147
107 149
107 155
107 159
107 163
108 109
108 110
108 112
108 114
108 118
108 122
108 124
108 125
108 126
108 127
108 128
108 130
108 131
108 137
108 139
108 142
108 143
108 147
108 149
108 155
108 159
108 160
108 161
108 162
108 164
109 110
109 112
109 114
109 118
109 122
109 124
109 125
109 128
109 129
109 131
109 137
109 139
109 142
109 143
109 147
109 149
109 155
109 159
109 163
110 112
110 114
110 118
110 122
110 124
110 125
110 128
110 129
110 131
110 137
110 139
110 142
110 143
110 147
110 149
110 155
110 159
110 163
111 112
111 113
111 114
111 115
111 116
111 117
111 118
111 119
111 121
111 122
111 123
111 124
111 125
111 127
111 128
111 129
111 130
111 135
111 138
111 139
111 141
111 146
111 149
111 153
111 158
111 159
111 160
111 162
111 163
111 164
112 113
112 114
112 115
112 116
112 117
112 120
112 121
112 123
112 126
112 130
112 135
112 138
112 139
112 141
112 146
112 149
112 153
112 158
112 161
112 162
112 164
113 114
113 115
113 116
113 117
113 118
113 119
113 120
113 122
113 123
113 126
113 130
113 135
113 136
113 137
113 139
113 140
113 141
113 146
113 149
113 153
113 158
113 161
113 162
113 164
114 115
114 116
114 117
114 120
114 121
114 123
114 126
114 130
114 135
114 136
114 137
114 138
114 140
114 141
114 146
114 147
114 148
114 150
114 151
114 152
114 153
114 158
114 161
114 162
114 164
115 116
115 117
115 120
115 121
115 123
115 126
115 130
115 135
115 138
115 139
115 141
115 146
115 149
115 153
115 158
115 159
115 160
115 161
115 163
115 164
116 117
116 120
116 121
116 123
116 124
116 125
116 126
116 127
116 128
116 129
116 135
116 138
116 139
116 141
116 146
116 147
116 148
116 149
116 150
116 151
116 152
116 158
116 161
116 162
116 164
117 118
117 119
117 120
117 121
117 122
117 126
117 130
117 131
117 132
117 133
117 134
117 136
117 137
117 138
117 139
117 140
117 142
117 143
117 144
117 145
117 149
117 153
117 154
117 155
117 156
117 157
117 159
117 160
117 161
117 162
117 163
118 119
118 120
118 121
118 122
118 123
118 126
118 128
118 135
118 136
118 138
118 141
118 146
118 148
118 149
118 150
118 151
118 152
118 153
118 154
118 158
118 160
118 161
118 162
118 163
118 164
119 120
119 121
119 122
119 123
119 126
119 128
119 135
119 137
119 138
119 139
119 140
119 141
119 146
119 147
119 155
119 156
119 157
119 158
119 159
119 161
119 164
120 121
120 122
120 123
120 124
120 125
120 127
120 128
120 129
120 130
120 135
120 136
120 138
120 141
120 146
120 147
120 154
120 158
120 159
120 160
120 162
120 163
120 164
121 122
121 123
121 126
121 128
121 135
121 136
121 137
121 139
121 140
121 141
121 146
121 147
121 154
121 158
121 159
121 161
121 164
122 123
122 124
122 125
122 126
122 127
122 129
122 130
122 135
122 136
122 138
122 141
122 146
122 147
122 154
122 158
122 159
122 161
122 164
123 126
123 128
123 131
123 132
123 133
123 134
123 136
123 137
123 138
123 139
123 140
123 142
123 143
123 144
123 145
123 147
123 154
123 155
123 156
123 157
123 159
123 160
123 161
123 162
123 163
124 125
124 126
124 127
124 128
124 129
124 130
124 132
124 133
124 134
124 135
124 137
124 143
124 144
124 145
124 146
124 150
124 153
124 155
124 156
124 161
124 163
125 126
125 127
125 128
125 129
125 130
125 131
125 133
125 136
125 138
125 139
125 140
125 141
125 142
125 144
125 145
125 146
125 150
125 153
125 154
125 156
125 157
125 158
125 161
125 163
126 127
126 128
126 129
126 130
126 131
126 133
126 137
126 142
126 143
126 144
126 150
126 153
126 155
126 156
126 159
126 160
126 162
126 163
126 164
127 128
127 129
127 130
127 131
127 132
127 134
127 135
127 137
127 142
127 143
127 145
127 146
127 147
127 148
127 149
127 151
127 152
127 153
127 154
127 155
127 157
127 158
127 161
127 163
128 129
128 130
128 131
128 133
128 137
128 142
128 143
128 144
128 150
128 153
128 155
128 156
128 161
128 163
129 130
129 131
129 133
129 137
129 142
129 143
129 144
129 150
129 153
129 155
129 156
129 159
129 160
129 161
129 162
129 164
130 131
130 133
130 137
130 142
130 143
130 144
130 147
130 148
130 149
130 150
130 151
130 152
130 155
130 156
130 161
130 163
131 132
131 133
131 134
131 135
131 141
131 143
131 144
131 145
131 146
131 148
131 150
131 156
131 158
131 160
131 164
132 133
132 134
132 135
132 141
132 142
132 144
132 146
132 147
132 149
132 150
132 151
132 152
132 153
132 156
132 158
132 159
132 161
132 162
132 163
132 164
133 134
133 135
133 141
133 142
133 143
133 145
133 146
133 147
133 148
133 149
133 151
133 152
133 153
133 154
133 155
133 157
133 158
133 160
133 164
134 135
134 141
134 142
134 144
134 146
134 148
134 150
134 156
134 158
134 160
134 164
135 136
135 137
135 138
135 139
135 140
135 142
135 143
135 144
135 145
135 148
135 150
135 154
135 155
135 156
135 157
135 159
135 160
135 161
135 162
135 163
136 137
136 138
136 139
136 140
136 141
136 143
136 146
136 149
136 152
136 155
136 156
136 157
136 158
136 164
137 138
137 139
137 140
137 141
137 142
137 144
137 145
137 146
137 149
137 152
137 154
137 156
137 157
137 158
137 164
138 139
138 140
138 141
138 143
138 146
138 149
138 152
138 154
138 155
138 158
138 164
139 140
139 141
139 143
139 146
139 147
139 148
139 150
139 151
139 152
139 153
139 154
139 155
139 158
139 164
140 141
140 143
140 146
140 147
140 148
140 149
140 150
140 151
140 153
140 154
140 155
140 158
140 164
141 142
141 143
141 144
141 145
141 149
141 152
141 154
141 155
141 156
141 157
141 159
141 160
141 161
141 162
141 163
142 143
142 144
142 145
142 146
142 150
142 155
142 156
142 158
142 164
143 144
143 145
143 146
143 150
143 154
143 156
143 157
143 158
143 164
144 145
144 146
144 147
144 148
144 149
144 151
144 152
144 153
144 154
144 155
144 157
144 158
144 164
145 146
145 150
145 155
145 156
145 158
145 164
146 150
146 154
146 155
146 156
146 157
146 159
146 160
146 161
146 162
146 163
147 148
147 149
147 150
147 151
147 152
147 153
147 156
147 160
147 161
147 162
147 163
147 164
148 149
148 150
148 151
148 152
148 153
148 156
148 159
148 161
148 162
148 163
148 164
149 150
149 151
149 152
149 153
149 156
149 159
149 160
150 151
150 152
150 153
150 154
150 155
150 157
150 158
150 159
150 160
151 152
151 153
151 156
151 159
151 160
152 153
152 156
152 159
152 160
153 156
153 159
153 160
154 155
154 156
154 157
154 158
154 164
155 156
155 157
155 158
155 164
156 157
156 158
156 164
157 158
157 164
158 159
158 160
158 161
158 162
158 163
159 160
159 161
159 162
159 163
159 164
160 161
160 162
160 163
160 164
161 162
161 163
161 164
162 163
162 164
163 164
