519:60327
0 1
0 2
0 3
0 4
0 5
0 6
0 7
0 8
0 9
0 10
0 11
0 12
0 13
0 14
0 15
0 16
0 17
0 18
0 19
0 20
0 21
0 22
0 27
0 28
0 29
0 33
0 34
0 35
0 36
0 37
0 38
0 40
0 41
0 42
0 43
0 48
0 49
0 54
0 55
0 60
0 61
0 62
0 63
0 65
0 66
0 67
0 68
0 69
0 73
0 74
0 76
0 77
0 78
0 79
0 80
0 82
0 83
0 84
0 85
0 86
0 87
0 88
0 89
0 90
0 91
0 92
0 93
0 94
0 95
0 97
0 98
0 99
0 100
0 106
0 107
0 108
0 109
0 114
0 115
0 116
0 117
0 122
0 123
0 129
0 130
0 131
0 132
0 133
0 135
0 136
0 137
0 138
0 139
0 140
0 141
0 142
0 143
0 144
0 145
0 146
0 147
0 148
0 149
0 151
0 152
0 153
0 154
0 155
0 156
0 157
0 158
0 164
0 165
0 171
0 172
0 173
0 174
0 181
0 182
0 183
0 184
0 198
0 199
0 200
0 201
0 202
0 203
0 204
0 205
0 206
0 207
0 208
0 214
0 215
0 216
0 223
0 224
0 225
0 229
0 230
0 231
0 235
0 236
0 246
0 247
0 248
0 249
0 250
0 258
0 259
0 260
0 261
0 266
0 267
0 268
0 269
0 273
0 274
0 279
0 280
0 287
0 288
0 298
0 299
0 300
0 303
0 304
0 305
0 306
0 308
0 309
0 310
0 311
0 312
0 317
0 318
0 325
0 326
0 327
0 328
0 329
0 330
0 331
0 332
0 333
0 334
0 335
0 336
0 341
0 342
0 343
0 344
0 351
0 352
0 361
0 362
0 363
0 369
0 370
0 375
0 376
0 382
0 383
0 388
0 389
0 398
0 399
0 408
0 409
0 419
0 420
0 421
0 422
0 427
0 428
0 429
0 430
0 435
0 436
0 437
0 441
0 442
0 443
0 448
0 449
0 451
0 452
0 453
0 454
0 456
0 457
0 458
0 459
0 460
0 461
0 462
0 463
0 464
0 465
0 466
0 467
0 469
0 470
0 471
0 472
0 473
0 474
0 479
0 480
0 485
0 486
0 497
0 498
0 499
0 500
0 501
0 507
0 508
0 509
0 510
0 511
0 516
0 517
1 2
1 3
1 4
1 5
1 6
1 7
1 8
1 9
1 10
1 11
1 12
1 13
1 14
1 15
1 16
1 17
1 18
1 19
1 20
1 21
1 22
1 27
1 28
1 29
1 33
1 34
1 35
1 39
1 40
1 41
1 48
1 49
1 54
1 55
1 64
1 65
1 66
1 67
1 73
1 74
1 81
1 82
1 83
1 84
1 89
1 90
1 91
1 92
1 96
1 97
1 98
1 106
1 107
1 108
1 109
1 114
1 115
1 116
1 117
1 122
1 123
1 134
1 135
1 136
1 137
1 142
1 143
1 144
1 145
1 150
1 151
1 152
1 156
1 157
1 158
1 164
1 165
1 171
1 172
1 173
1 174
1 177
1 178
1 179
1 180
1 182
1 183
1 184
1 185
1 186
1 198
1 199
1 200
1 201
1 202
1 203
1 204
1 205
1 206
1 207
1 208
1 214
1 215
1 216
1 219
1 220
1 221
1 222
1 224
1 225
1 226
1 227
1 228
1 229
1 230
1 231
1 235
1 236
1 246
1 247
1 248
1 249
1 250
1 253
1 254
1 255
1 256
1 257
1 259
1 260
1 261
1 262
1 263
1 264
1 265
1 266
1 267
1 268
1 269
1 273
1 274
1 279
1 280
1 287
1 288
1 295
1 296
1 297
1 299
1 300
1 301
1 302
1 307
1 308
1 309
1 310
1 317
1 318
1 324
1 326
1 327
1 328
1 329
1 330
1 331
1 332
1 333
1 334
1 335
1 336
1 337
1 338
1 339
1 340
1 342
1 343
1 344
1 345
1 346
1 351
1 352
1 358
1 359
1 360
1 362
1 363
1 364
1 365
1 369
1 370
1 375
1 376
1 382
1 383
1 388
1 389
1 394
1 395
1 396
1 397
1 399
1 400
1 401
1 402
1 403
1 404
1 408
1 409
1 414
1 415
1 416
1 417
1 418
1 420
1 421
1 422
1 423
1 424
1 425
1 426
1 427
1 428
1 429
1 430
1 431
1 432
1 433
1 434
1 436
1 437
1 438
1 439
1 440
1 441
1 442
1 443
1 448
1 449
1 455
1 456
1 457
1 461
1 462
1 463
1 468
1 469
1 479
1 480
1 485
1 486
1 497
1 498
1 499
1 500
1 501
1 507
1 508
1 509
1 510
1 511
1 516
1 517
2 3
2 4
2 5
2 6
2 7
2 8
2 9
2 10
2 11
2 12
2 13
2 14
2 15
2 16
2 17
2 18
2 19
2 20
2 21
2 22
2 23
2 24
2 25
2 26
2 28
2 29
2 30
2 31
2 32
2 33
2 34
2 35
2 36
2 37
2 38
2 39
2 41
2 42
2 43
2 48
2 49
2 54
2 55
2 60
2 61
2 62
2 63
2 64
2 66
2 67
2 68
2 69
2 73
2 74
2 81
2 82
2 83
2 84
2 89
2 90
2 91
2 92
2 96
2 97
2 98
2 101
2 102
2 103
2 104
2 105
2 107
2 108
2 109
2 110
2 111
2 112
2 113
2 114
2 115
2 116
2 117
2 122
2 123
2 129
2 130
2 131
2 132
2 133
2 134
2 136
2 137
2 138
2 139
2 140
2 141
2 142
2 143
2 144
2 145
2 150
2 151
2 152
2 156
2 157
2 158
2 164
2 165
2 167
2 168
2 169
2 170
2 172
2 173
2 174
2 175
2 176
2 181
2 182
2 183
2 184
2 198
2 199
2 200
2 201
2 202
2 203
2 204
2 205
2 206
2 207
2 208
2 211
2 212
2 213
2 215
2 216
2 217
2 218
2 223
2 224
2 225
2 229
2 230
2 231
2 235
2 236
2 246
2 247
2 248
2 249
2 250
2 258
2 259
2 260
2 261
2 266
2 267
2 268
2 269
2 273
2 274
2 279
2 280
2 287
2 288
2 298
2 299
2 300
2 307
2 308
2 309
2 310
2 317
2 318
2 324
2 325
2 327
2 328
2 329
2 330
2 331
2 332
2 333
2 334
2 335
2 336
2 341
2 342
2 343
2 344
2 347
2 348
2 349
2 350
2 352
2 353
2 354
2 355
2 356
2 357
2 361
2 362
2 363
2 369
2 370
2 375
2 376
2 382
2 383
2 388
2 389
2 398
2 399
2 408
2 409
2 419
2 420
2 421
2 422
2 427
2 428
2 429
2 430
2 435
2 436
2 437
2 441
2 442
2 443
2 448
2 449
2 451
2 452
2 453
2 454
2 455
2 457
2 458
2 459
2 460
2 461
2 462
2 463
2 468
2 469
2 479
2 480
2 485
2 486
2 497
2 498
2 499
2 500
2 501
2 507
2 508
2 509
2 510
2 511
2 516
2 517
3 4
3 5
3 6
3 7
3 8
3 9
3 10
3 11
3 12
3 13
3 14
3 15
3 16
3 17
3 18
3 19
3 20
3 21
3 22
3 23
3 24
3 25
3 26
3 27
3 29
3 30
3 31
3 32
3 33
3 34
3 35
3 39
3 40
3 41
3 48
3 49
3 54
3 55
3 64
3 65
3 66
3 67
3 73
3 74
3 81
3 82
3 83
3 84
3 89
3 90
3 91
3 92
3 96
3 97
3 98
3 101
3 102
3 103
3 104
3 105
3 106
3 108
3 109
3 110
3 111
3 112
3 113
3 114
3 115
3 116
3 117
3 122
3 123
3 134
3 135
3 136
3 137
3 142
3 143
3 144
3 145
3 150
3 151
3 152
3 156
3 157
3 158
3 164
3 165
3 167
3 168
3 169
3 170
3 171
3 173
3 174
3 175
3 176
3 181
3 182
3 183
3 184
3 198
3 199
3 200
3 201
3 202
3 203
3 204
3 205
3 206
3 207
3 208
3 211
3 212
3 213
3 214
3 216
3 217
3 218
3 219
3 220
3 221
3 222
3 223
3 225
3 226
3 227
3 228
3 229
3 230
3 231
3 235
3 236
3 246
3 247
3 248
3 249
3 250
3 258
3 259
3 260
3 261
3 266
3 267
3 268
3 269
3 273
3 274
3 279
3 280
3 287
3 288
3 298
3 299
3 300
3 307
3 308
3 309
3 310
3 313
3 314
3 315
3 316
3 318
3 319
3 320
3 321
3 322
3 323
3 324
3 325
3 326
3 328
3 329
3 330
3 331
3 332
3 333
3 334
3 335
3 336
3 337
3 338
3 339
3 340
3 341
3 343
3 344
3 345
3 346
3 351
3 352
3 358
3 359
3 360
3 361
3 363
3 364
3 365
3 369
3 370
3 375
3 376
3 382
3 383
3 388
3 389
3 398
3 399
3 408
3 409
3 414
3 415
3 416
3 417
3 418
3 419
3 421
3 422
3 423
3 424
3 425
3 426
3 427
3 428
3 429
3 430
3 435
3 436
3 437
3 441
3 442
3 443
3 448
3 449
3 455
3 456
3 457
3 461
3 462
3 463
3 468
3 469
3 479
3 480
3 485
3 486
3 497
3 498
3 499
3 500
3 501
3 507
3 508
3 509
3 510
3 511
3 516
3 517
4 5
4 6
4 7
4 8
4 9
4 10
4 11
4 12
4 13
4 14
4 15
4 16
4 17
4 18
4 19
4 20
4 21
4 22
4 27
4 28
4 29
4 33
4 34
4 35
4 39
4 40
4 41
4 48
4 49
4 54
4 55
4 64
4 65
4 66
4 67
4 73
4 74
4 76
4 77
4 78
4 79
4 80
4 81
4 83
4 84
4 85
4 86
4 87
4 88
4 89
4 90
4 91
4 92
4 93
4 94
4 95
4 96
4 98
4 99
4 100
4 106
4 107
4 108
4 109
4 114
4 115
4 116
4 117
4 118
4 119
4 120
4 121
4 123
4 124
4 125
4 126
4 127
4 128
4 134
4 135
4 136
4 137
4 142
4 143
4 144
4 145
4 146
4 147
4 148
4 149
4 150
4 152
4 153
4 154
4 155
4 156
4 157
4 158
4 164
4 165
4 171
4 172
4 173
4 174
4 177
4 178
4 179
4 180
4 181
4 183
4 184
4 185
4 186
4 198
4 199
4 200
4 201
4 202
4 203
4 204
4 205
4 206
4 207
4 208
4 214
4 215
4 216
4 223
4 224
4 225
4 229
4 230
4 231
4 235
4 236
4 246
4 247
4 248
4 249
4 250
4 253
4 254
4 255
4 256
4 257
4 258
4 260
4 261
4 262
4 263
4 264
4 265
4 266
4 267
4 268
4 269
4 273
4 274
4 279
4 280
4 287
4 288
4 295
4 296
4 297
4 298
4 300
4 301
4 302
4 303
4 304
4 305
4 306
4 307
4 309
4 310
4 311
4 312
4 317
4 318
4 324
4 325
4 326
4 327
4 329
4 330
4 331
4 332
4 333
4 334
4 335
4 336
4 341
4 342
4 343
4 344
4 351
4 352
4 361
4 362
4 363
4 369
4 370
4 375
4 376
4 382
4 383
4 388
4 389
4 398
4 399
4 408
4 409
4 419
4 420
4 421
4 422
4 427
4 428
4 429
4 430
4 431
4 432
4 433
4 434
4 435
4 437
4 438
4 439
4 440
4 441
4 442
4 443
4 448
4 449
4 455
4 456
4 457
4 461
4 462
4 463
4 468
4 469
4 479
4 480
4 485
4 486
4 497
4 498
4 499
4 500
4 501
4 507
4 508
4 509
4 510
4 511
4 516
4 517
5 6
5 7
5 8
5 9
5 10
5 11
5 12
5 13
5 14
5 15
5 16
5 17
5 18
5 19
5 20
5 21
5 22
5 27
5 28
5 29
5 33
5 34
5 35
5 39
5 40
5 41
5 48
5 49
5 54
5 55
5 60
5 61
5 62
5 63
5 64
5 65
5 67
5 68
5 69
5 73
5 74
5 76
5 77
5 78
5 79
5 80
5 81
5 82
5 84
5 85
5 86
5 87
5 88
5 89
5 90
5 91
5 92
5 96
5 97
5 98
5 106
5 107
5 108
5 109
5 114
5 115
5 116
5 117
5 122
5 123
5 129
5 130
5 131
5 132
5 133
5 134
5 135
5 137
5 138
5 139
5 140
5 141
5 142
5 143
5 144
5 145
5 150
5 151
5 152
5 156
5 157
5 158
5 164
5 165
5 171
5 172
5 173
5 174
5 181
5 182
5 183
5 184
5 198
5 199
5 200
5 201
5 202
5 203
5 204
5 205
5 206
5 207
5 208
5 214
5 215
5 216
5 223
5 224
5 225
5 229
5 230
5 231
5 232
5 233
5 234
5 236
5 237
5 238
5 239
5 240
5 241
5 242
5 243
5 244
5 245
5 247
5 248
5 249
5 250
5 251
5 252
5 258
5 259
5 260
5 261
5 266
5 267
5 268
5 269
5 273
5 274
5 279
5 280
5 287
5 288
5 298
5 299
5 300
5 303
5 304
5 305
5 306
5 307
5 308
5 310
5 311
5 312
5 317
5 318
5 324
5 325
5 326
5 327
5 328
5 330
5 331
5 332
5 333
5 334
5 335
5 336
5 341
5 342
5 343
5 344
5 351
5 352
5 361
5 362
5 363
5 369
5 370
5 375
5 376
5 382
5 383
5 388
5 389
5 398
5 399
5 408
5 409
5 419
5 420
5 421
5 422
5 427
5 428
5 429
5 430
5 435
5 436
5 437
5 441
5 442
5 443
5 448
5 449
5 455
5 456
5 457
5 461
5 462
5 463
5 468
5 469
5 479
5 480
5 485
5 486
5 491
5 492
5 493
5 494
5 495
5 496
5 498
5 499
5 500
5 501
5 502
5 503
5 504
5 505
5 506
5 507
5 508
5 509
5 510
5 511
5 516
5 517
6 7
6 8
6 9
6 10
6 11
6 12
6 13
6 14
6 15
6 16
6 17
6 18
6 19
6 20
6 21
6 22
6 27
6 28
6 29
6 33
6 34
6 35
6 39
6 40
6 41
6 48
6 49
6 54
6 55
6 64
6 65
6 66
6 67
6 73
6 74
6 81
6 82
6 83
6 84
6 89
6 90
6 91
6 92
6 96
6 97
6 98
6 106
6 107
6 108
6 109
6 114
6 115
6 116
6 117
6 122
6 123
6 134
6 135
6 136
6 137
6 142
6 143
6 144
6 145
6 150
6 151
6 152
6 156
6 157
6 158
6 164
6 165
6 171
6 172
6 173
6 174
6 177
6 178
6 179
6 180
6 181
6 182
6 184
6 185
6 186
6 198
6 199
6 200
6 201
6 202
6 203
6 204
6 205
6 206
6 207
6 208
6 214
6 215
6 216
6 223
6 224
6 225
6 229
6 230
6 231
6 235
6 236
6 241
6 242
6 243
6 244
6 245
6 246
6 248
6 249
6 250
6 251
6 252
6 253
6 254
6 255
6 256
6 257
6 258
6 259
6 261
6 262
6 263
6 264
6 265
6 266
6 267
6 268
6 269
6 273
6 274
6 279
6 280
6 287
6 288
6 298
6 299
6 300
6 307
6 308
6 309
6 310
6 317
6 318
6 324
6 325
6 326
6 327
6 328
6 329
6 331
6 332
6 333
6 334
6 335
6 336
6 337
6 338
6 339
6 340
6 341
6 342
6 344
6 345
6 346
6 351
6 352
6 361
6 362
6 363
6 369
6 370
6 375
6 376
6 382
6 383
6 388
6 389
6 398
6 399
6 408
6 409
6 414
6 415
6 416
6 417
6 418
6 419
6 420
6 422
6 423
6 424
6 425
6 426
6 427
6 428
6 429
6 430
6 435
6 436
6 437
6 441
6 442
6 443
6 448
6 449
6 455
6 456
6 457
6 461
6 462
6 463
6 468
6 469
6 479
6 480
6 482
6 483
6 484
6 486
6 487
6 488
6 489
6 490
6 491
6 492
6 493
6 494
6 495
6 496
6 497
6 499
6 500
6 501
6 502
6 503
6 504
6 505
6 506
6 507
6 508
6 509
6 510
6 511
6 516
6 517
7 8
7 9
7 10
7 11
7 12
7 13
7 14
7 15
7 16
7 17
7 18
7 19
7 20
7 21
7 22
7 27
7 28
7 29
7 33
7 34
7 35
7 39
7 40
7 41
7 48
7 49
7 51
7 52
7 53
7 55
7 56
7 57
7 58
7 59
7 60
7 61
7 62
7 63
7 64
7 65
7 66
7 68
7 69
7 73
7 74
7 81
7 82
7 83
7 84
7 89
7 90
7 91
7 92
7 96
7 97
7 98
7 101
7 102
7 103
7 104
7 105
7 106
7 107
7 109
7 110
7 111
7 112
7 113
7 114
7 115
7 116
7 117
7 122
7 123
7 129
7 130
7 131
7 132
7 133
7 134
7 135
7 136
7 138
7 139
7 140
7 141
7 142
7 143
7 144
7 145
7 150
7 151
7 152
7 156
7 157
7 158
7 164
7 165
7 167
7 168
7 169
7 170
7 171
7 172
7 174
7 175
7 176
7 181
7 182
7 183
7 184
7 198
7 199
7 200
7 201
7 202
7 203
7 204
7 205
7 206
7 207
7 208
7 214
7 215
7 216
7 223
7 224
7 225
7 229
7 230
7 231
7 235
7 236
7 241
7 242
7 243
7 244
7 245
7 246
7 247
7 249
7 250
7 251
7 252
7 258
7 259
7 260
7 261
7 266
7 267
7 268
7 269
7 273
7 274
7 279
7 280
7 287
7 288
7 298
7 299
7 300
7 307
7 308
7 309
7 310
7 317
7 318
7 324
7 325
7 326
7 327
7 328
7 329
7 330
7 332
7 333
7 334
7 335
7 336
7 341
7 342
7 343
7 344
7 351
7 352
7 361
7 362
7 363
7 369
7 370
7 375
7 376
7 382
7 383
7 388
7 389
7 398
7 399
7 408
7 409
7 419
7 420
7 421
7 422
7 427
7 428
7 429
7 430
7 435
7 436
7 437
7 441
7 442
7 443
7 448
7 449
7 455
7 456
7 457
7 461
7 462
7 463
7 468
7 469
7 479
7 480
7 485
7 486
7 491
7 492
7 493
7 494
7 495
7 496
7 497
7 498
7 500
7 501
7 502
7 503
7 504
7 505
7 506
7 507
7 508
7 509
7 510
7 511
7 516
7 517
8 9
8 10
8 11
8 12
8 13
8 14
8 15
8 16
8 17
8 18
8 19
8 20
8 21
8 22
8 27
8 28
8 29
8 33
8 34
8 35
8 39
8 40
8 41
8 48
8 49
8 54
8 55
8 64
8 65
8 66
8 67
8 73
8 74
8 81
8 82
8 83
8 84
8 89
8 90
8 91
8 92
8 96
8 97
8 98
8 101
8 102
8 103
8 104
8 105
8 106
8 107
8 108
8 110
8 111
8 112
8 113
8 114
8 115
8 116
8 117
8 122
8 123
8 134
8 135
8 136
8 137
8 142
8 143
8 144
8 145
8 150
8 151
8 152
8 156
8 157
8 158
8 164
8 165
8 167
8 168
8 169
8 170
8 171
8 172
8 173
8 175
8 176
8 181
8 182
8 183
8 184
8 198
8 199
8 200
8 201
8 202
8 203
8 204
8 205
8 206
8 207
8 208
8 214
8 215
8 216
8 223
8 224
8 225
8 229
8 230
8 231
8 235
8 236
8 241
8 242
8 243
8 244
8 245
8 246
8 247
8 248
8 250
8 251
8 252
8 258
8 259
8 260
8 261
8 266
8 267
8 268
8 269
8 273
8 274
8 279
8 280
8 287
8 288
8 298
8 299
8 300
8 307
8 308
8 309
8 310
8 317
8 318
8 324
8 325
8 326
8 327
8 328
8 329
8 330
8 331
8 333
8 334
8 335
8 336
8 337
8 338
8 339
8 340
8 341
8 342
8 343
8 345
8 346
8 351
8 352
8 361
8 362
8 363
8 369
8 370
8 375
8 376
8 382
8 383
8 388
8 389
8 398
8 399
8 405
8 406
8 407
8 409
8 410
8 411
8 412
8 413
8 414
8 415
8 416
8 417
8 418
8 419
8 420
8 421
8 423
8 424
8 425
8 426
8 427
8 428
8 429
8 430
8 435
8 436
8 437
8 441
8 442
8 443
8 448
8 449
8 455
8 456
8 457
8 461
8 462
8 463
8 468
8 469
8 479
8 480
8 485
8 486
8 491
8 492
8 493
8 494
8 495
8 496
8 497
8 498
8 499
8 501
8 502
8 503
8 504
8 505
8 506
8 507
8 508
8 509
8 510
8 511
8 516
8 517
9 10
9 11
9 12
9 13
9 14
9 15
9 16
9 17
9 18
9 19
9 20
9 21
9 22
9 27
9 28
9 29
9 33
9 34
9 35
9 39
9 40
9 41
9 48
9 49
9 54
9 55
9 64
9 65
9 66
9 67
9 73
9 74
9 76
9 77
9 78
9 79
9 80
9 81
9 82
9 83
9 85
9 86
9 87
9 88
9 89
9 90
9 91
9 92
9 96
9 97
9 98
9 106
9 107
9 108
9 109
9 114
9 115
9 116
9 117
9 122
9 123
9 134
9 135
9 136
9 137
9 142
9 143
9 144
9 145
9 150
9 151
9 152
9 156
9 157
9 158
9 164
9 165
9 171
9 172
9 173
9 174
9 177
9 178
9 179
9 180
9 181
9 182
9 183
9 185
9 186
9 198
9 199
9 200
9 201
9 202
9 203
9 204
9 205
9 206
9 207
9 208
9 214
9 215
9 216
9 223
9 224
9 225
9 229
9 230
9 231
9 235
9 236
9 241
9 242
9 243
9 244
9 245
9 246
9 247
9 248
9 249
9 251
9 252
9 253
9 254
9 255
9 256
9 257
9 258
9 259
9 260
9 262
9 263
9 264
9 265
9 266
9 267
9 268
9 269
9 273
9 274
9 279
9 280
9 287
9 288
9 298
9 299
9 300
9 303
9 304
9 305
9 306
9 307
9 308
9 309
9 311
9 312
9 317
9 318
9 324
9 325
9 326
9 327
9 328
9 329
9 330
9 331
9 332
9 334
9 335
9 336
9 341
9 342
9 343
9 344
9 351
9 352
9 361
9 362
9 363
9 369
9 370
9 375
9 376
9 382
9 383
9 385
9 386
9 387
9 389
9 390
9 391
9 392
9 393
9 398
9 399
9 408
9 409
9 419
9 420
9 421
9 422
9 427
9 428
9 429
9 430
9 435
9 436
9 437
9 441
9 442
9 443
9 448
9 449
9 455
9 456
9 457
9 461
9 462
9 463
9 468
9 469
9 479
9 480
9 485
9 486
9 491
9 492
9 493
9 494
9 495
9 496
9 497
9 498
9 499
9 500
9 502
9 503
9 504
9 505
9 506
9 507
9 508
9 509
9 510
9 511
9 516
9 517
10 11
10 12
10 13
10 14
10 15
10 16
10 17
10 18
10 19
10 20
10 21
10 22
10 23
10 24
10 25
10 26
10 27
10 28
10 30
10 31
10 32
10 33
10 34
10 35
10 36
10 37
10 38
10 39
10 40
10 42
10 43
10 48
10 49
10 54
10 55
10 64
10 65
10 66
10 67
10 73
10 74
10 81
10 82
10 83
10 84
10 89
10 90
10 91
10 92
10 93
10 94
10 95
10 96
10 97
10 99
10 100
10 106
10 107
10 108
10 109
10 114
10 115
10 116
10 117
10 122
10 123
10 134
10 135
10 136
10 137
10 142
10 143
10 144
10 145
10 146
10 147
10 148
10 149
10 150
10 151
10 153
10 154
10 155
10 156
10 157
10 158
10 164
10 165
10 171
10 172
10 173
10 174
10 181
10 182
10 183
10 184
10 198
10 199
10 200
10 201
10 202
10 203
10 204
10 205
10 206
10 207
10 208
10 211
10 212
10 213
10 214
10 215
10 217
10 218
10 219
10 220
10 221
10 222
10 223
10 224
10 226
10 227
10 228
10 229
10 230
10 231
10 235
10 236
10 246
10 247
10 248
10 249
10 250
10 258
10 259
10 260
10 261
10 266
10 267
10 268
10 269
10 273
10 274
10 279
10 280
10 282
10 283
10 284
10 285
10 286
10 288
10 289
10 290
10 291
10 292
10 293
10 294
10 295
10 296
10 297
10 298
10 299
10 301
10 302
10 307
10 308
10 309
10 310
10 317
10 318
10 324
10 325
10 326
10 327
10 328
10 329
10 330
10 331
10 332
10 333
10 335
10 336
10 341
10 342
10 343
10 344
10 351
10 352
10 358
10 359
10 360
10 361
10 362
10 364
10 365
10 369
10 370
10 375
10 376
10 382
10 383
10 388
10 389
10 398
10 399
10 408
10 409
10 419
10 420
10 421
10 422
10 427
10 428
10 429
10 430
10 431
10 432
10 433
10 434
10 435
10 436
10 438
10 439
10 440
10 441
10 442
10 443
10 448
10 449
10 451
10 452
10 453
10 454
10 455
10 456
10 458
10 459
10 460
10 461
10 462
10 463
10 468
10 469
10 479
10 480
10 485
10 486
10 497
10 498
10 499
10 500
10 501
10 507
10 508
10 509
10 510
10 511
10 516
10 517
11 12
11 13
11 14
11 15
11 16
11 17
11 18
11 19
11 20
11 21
11 22
11 27
11 28
11 29
11 33
11 34
11 35
11 39
11 40
11 41
11 44
11 45
11 46
11 47
11 49
11 50
11 51
11 52
11 53
11 54
11 56
11 57
11 58
11 59
11 64
11 65
11 66
11 67
11 70
11 71
11 72
11 74
11 75
11 81
11 82
11 83
11 84
11 89
11 90
11 91
11 92
11 96
11 97
11 98
11 106
11 107
11 108
11 109
11 114
11 115
11 116
11 117
11 118
11 119
11 120
11 121
11 122
11 124
11 125
11 126
11 127
11 128
11 134
11 135
11 136
11 137
11 142
11 143
11 144
11 145
11 150
11 151
11 152
11 156
11 157
11 158
11 159
11 160
11 161
11 162
11 163
11 165
11 166
11 171
11 172
11 173
11 174
11 181
11 182
11 183
11 184
11 198
11 199
11 200
11 201
11 202
11 203
11 204
11 205
11 206
11 207
11 208
11 214
11 215
11 216
11 223
11 224
11 225
11 229
11 230
11 231
11 232
11 233
11 234
11 235
11 237
11 238
11 239
11 240
11 246
11 247
11 248
11 249
11 250
11 258
11 259
11 260
11 261
11 266
11 267
11 268
11 269
11 270
11 271
11 272
11 274
11 275
11 276
11 277
11 278
11 280
11 281
11 282
11 283
11 284
11 285
11 286
11 287
11 289
11 290
11 291
11 292
11 293
11 294
11 298
11 299
11 300
11 307
11 308
11 309
11 310
11 313
11 314
11 315
11 316
11 317
11 319
11 320
11 321
11 322
11 323
11 324
11 325
11 326
11 327
11 328
11 329
11 330
11 331
11 332
11 333
11 334
11 341
11 342
11 343
11 344
11 347
11 348
11 349
11 350
11 351
11 353
11 354
11 355
11 356
11 357
11 361
11 362
11 363
11 366
11 367
11 368
11 370
11 371
11 372
11 373
11 374
11 376
11 377
11 378
11 379
11 380
11 381
11 383
11 384
11 385
11 386
11 387
11 388
11 390
11 391
11 392
11 393
11 394
11 395
11 396
11 397
11 398
11 400
11 401
11 402
11 403
11 404
11 405
11 406
11 407
11 408
11 410
11 411
11 412
11 413
11 419
11 420
11 421
11 422
11 427
11 428
11 429
11 430
11 435
11 436
11 437
11 441
11 442
11 443
11 444
11 445
11 446
11 447
11 449
11 450
11 455
11 456
11 457
11 461
11 462
11 463
11 464
11 465
11 466
11 467
11 468
11 470
11 471
11 472
11 473
11 474
11 475
11 476
11 477
11 478
11 480
11 481
11 482
11 483
11 484
11 485
11 487
11 488
11 489
11 490
11 497
11 498
11 499
11 500
11 501
11 507
11 508
11 509
11 510
11 511
11 512
11 513
11 514
11 515
11 517
11 518
12 13
12 14
12 15
12 16
12 17
12 18
12 19
12 20
12 21
12 22
12 27
12 28
12 29
12 33
12 34
12 35
12 39
12 40
12 41
12 48
12 49
12 54
12 55
12 64
12 65
12 66
12 67
12 73
12 74
12 76
12 77
12 78
12 79
12 80
12 81
12 82
12 83
12 84
12 85
12 86
12 87
12 88
12 90
12 91
12 92
12 96
12 97
12 98
12 106
12 107
12 108
12 109
12 114
12 115
12 116
12 117
12 122
12 123
12 129
12 130
12 131
12 132
12 133
12 134
12 135
12 136
12 137
12 138
12 139
12 140
12 141
12 143
12 144
12 145
12 146
12 147
12 148
12 149
12 150
12 151
12 152
12 153
12 154
12 155
12 157
12 158
12 164
12 165
12 171
12 172
12 173
12 174
12 181
12 182
12 183
12 184
12 187
12 188
12 189
12 190
12 191
12 192
12 193
12 194
12 195
12 196
12 197
12 199
12 200
12 201
12 202
12 203
12 204
12 205
12 206
12 207
12 208
12 209
12 210
12 214
12 215
12 216
12 223
12 224
12 225
12 229
12 230
12 231
12 235
12 236
12 246
12 247
12 248
12 249
12 250
12 258
12 259
12 260
12 261
12 266
12 267
12 268
12 269
12 273
12 274
12 279
12 280
12 287
12 288
12 298
12 299
12 300
12 307
12 308
12 309
12 310
12 317
12 318
12 324
12 325
12 326
12 327
12 328
12 329
12 330
12 331
12 332
12 333
12 334
12 341
12 342
12 343
12 344
12 351
12 352
12 361
12 362
12 363
12 369
12 370
12 375
12 376
12 378
12 379
12 380
12 381
12 382
12 384
12 388
12 389
12 398
12 399
12 408
12 409
12 419
12 420
12 421
12 422
12 427
12 428
12 429
12 430
12 435
12 436
12 437
12 441
12 442
12 443
12 448
12 449
12 451
12 452
12 453
12 454
12 455
12 456
12 457
12 458
12 459
12 460
12 462
12 463
12 468
12 469
12 479
12 480
12 485
12 486
12 497
12 498
12 499
12 500
12 501
12 507
12 508
12 509
12 510
12 511
12 516
12 517
13 14
13 15
13 16
13 17
13 18
13 19
13 20
13 21
13 22
13 27
13 28
13 29
13 33
13 34
13 35
13 39
13 40
13 41
13 48
13 49
13 54
13 55
13 64
13 65
13 66
13 67
13 73
13 74
13 81
13 82
13 83
13 84
13 89
13 90
13 91
13 92
13 96
13 97
13 98
13 106
13 107
13 108
13 109
13 114
13 115
13 116
13 117
13 122
13 123
13 134
13 135
13 136
13 137
13 142
13 143
13 144
13 145
13 150
13 151
13 152
13 156
13 157
13 158
13 164
13 165
13 171
13 172
13 173
13 174
13 181
13 182
13 183
13 184
13 187
13 188
13 189
13 190
13 191
13 192
13 193
13 194
13 195
13 196
13 197
13 198
13 200
13 201
13 202
13 203
13 204
13 205
13 206
13 207
13 208
13 209
13 210
13 214
13 215
13 216
13 219
13 220
13 221
13 222
13 223
13 224
13 225
13 226
13 227
13 228
13 230
13 231
13 235
13 236
13 246
13 247
13 248
13 249
13 250
13 253
13 254
13 255
13 256
13 257
13 258
13 259
13 260
13 261
13 262
13 263
13 264
13 265
13 267
13 268
13 269
13 273
13 274
13 279
13 280
13 287
13 288
13 298
13 299
13 300
13 307
13 308
13 309
13 310
13 317
13 318
13 324
13 325
13 326
13 327
13 328
13 329
13 330
13 331
13 332
13 333
13 334
13 341
13 342
13 343
13 344
13 351
13 352
13 361
13 362
13 363
13 369
13 370
13 375
13 376
13 382
13 383
13 388
13 389
13 398
13 399
13 408
13 409
13 414
13 415
13 416
13 417
13 418
13 419
13 420
13 421
13 422
13 423
13 424
13 425
13 426
13 428
13 429
13 430
13 431
13 432
13 433
13 434
13 435
13 436
13 437
13 438
13 439
13 440
13 442
13 443
13 448
13 449
13 455
13 456
13 457
13 461
13 462
13 463
13 468
13 469
13 479
13 480
13 485
13 486
13 497
13 498
13 499
13 500
13 501
13 507
13 508
13 509
13 510
13 511
13 512
13 513
13 514
13 515
13 516
13 518
14 15
14 16
14 17
14 18
14 19
14 20
14 21
14 22
14 23
14 24
14 25
14 26
14 27
14 28
14 29
14 30
14 31
14 32
14 34
14 35
14 39
14 40
14 41
14 48
14 49
14 54
14 55
14 64
14 65
14 66
14 67
14 73
14 74
14 81
14 82
14 83
14 84
14 89
14 90
14 91
14 92
14 96
14 97
14 98
14 101
14 102
14 103
14 104
14 105
14 106
14 107
14 108
14 109
14 110
14 111
14 112
14 113
14 115
14 116
14 117
14 122
14 123
14 129
14 130
14 131
14 132
14 133
14 134
14 135
14 136
14 137
14 138
14 139
14 140
14 141
14 142
14 144
14 145
14 150
14 151
14 152
14 156
14 157
14 158
14 164
14 165
14 171
14 172
14 173
14 174
14 181
14 182
14 183
14 184
14 187
14 188
14 189
14 190
14 191
14 192
14 193
14 194
14 195
14 196
14 197
14 198
14 199
14 201
14 202
14 203
14 204
14 205
14 206
14 207
14 208
14 209
14 210
14 214
14 215
14 216
14 223
14 224
14 225
14 229
14 230
14 231
14 235
14 236
14 246
14 247
14 248
14 249
14 250
14 258
14 259
14 260
14 261
14 266
14 267
14 268
14 269
14 273
14 274
14 279
14 280
14 287
14 288
14 298
14 299
14 300
14 307
14 308
14 309
14 310
14 317
14 318
14 324
14 325
14 326
14 327
14 328
14 329
14 330
14 331
14 332
14 333
14 334
14 341
14 342
14 343
14 344
14 351
14 352
14 361
14 362
14 363
14 369
14 370
14 375
14 376
14 382
14 383
14 388
14 389
14 398
14 399
14 408
14 409
14 419
14 420
14 421
14 422
14 427
14 428
14 429
14 430
14 435
14 436
14 437
14 441
14 442
14 443
14 444
14 445
14 446
14 447
14 448
14 450
14 451
14 452
14 453
14 454
14 455
14 456
14 457
14 458
14 459
14 460
14 461
14 463
14 468
14 469
14 479
14 480
14 485
14 486
14 497
14 498
14 499
14 500
14 501
14 507
14 508
14 509
14 510
14 511
14 516
14 517
15 16
15 17
15 18
15 19
15 20
15 21
15 22
15 23
15 24
15 25
15 26
15 27
15 28
15 29
15 30
15 31
15 32
15 33
15 35
15 39
15 40
15 41
15 48
15 49
15 54
15 55
15 64
15 65
15 66
15 67
15 73
15 74
15 81
15 82
15 83
15 84
15 89
15 90
15 91
15 92
15 96
15 97
15 98
15 101
15 102
15 103
15 104
15 105
15 106
15 107
15 108
15 109
15 110
15 111
15 112
15 113
15 114
15 116
15 117
15 122
15 123
15 134
15 135
15 136
15 137
15 142
15 143
15 144
15 145
15 150
15 151
15 152
15 156
15 157
15 158
15 164
15 165
15 171
15 172
15 173
15 174
15 181
15 182
15 183
15 184
15 187
15 188
15 189
15 190
15 191
15 192
15 193
15 194
15 195
15 196
15 197
15 198
15 199
15 200
15 202
15 203
15 204
15 205
15 206
15 207
15 208
15 209
15 210
15 214
15 215
15 216
15 219
15 220
15 221
15 222
15 223
15 224
15 225
15 226
15 227
15 228
15 229
15 231
15 235
15 236
15 246
15 247
15 248
15 249
15 250
15 258
15 259
15 260
15 261
15 266
15 267
15 268
15 269
15 273
15 274
15 279
15 280
15 287
15 288
15 298
15 299
15 300
15 307
15 308
15 309
15 310
15 317
15 318
15 324
15 325
15 326
15 327
15 328
15 329
15 330
15 331
15 332
15 333
15 334
15 341
15 342
15 343
15 344
15 351
15 352
15 361
15 362
15 363
15 369
15 370
15 375
15 376
15 382
15 383
15 388
15 389
15 398
15 399
15 408
15 409
15 414
15 415
15 416
15 417
15 418
15 419
15 420
15 421
15 422
15 423
15 424
15 425
15 426
15 427
15 429
15 430
15 435
15 436
15 437
15 441
15 442
15 443
15 448
15 449
15 455
15 456
15 457
15 461
15 462
15 463
15 468
15 469
15 475
15 476
15 477
15 478
15 479
15 481
15 485
15 486
15 497
15 498
15 499
15 500
15 501
15 507
15 508
15 509
15 510
15 511
15 516
15 517
16 17
16 18
16 19
16 20
16 21
16 22
16 27
16 28
16 29
16 33
16 34
16 35
16 39
16 40
16 41
16 44
16 45
16 46
16 47
16 48
16 50
16 54
16 55
16 64
16 65
16 66
16 67
16 73
16 74
16 76
16 77
16 78
16 79
16 80
16 81
16 82
16 83
16 84
16 85
16 86
16 87
16 88
16 89
16 91
16 92
16 96
16 97
16 98
16 106
16 107
16 108
16 109
16 114
16 115
16 116
16 117
16 122
16 123
16 134
16 135
16 136
16 137
16 142
16 143
16 144
16 145
16 146
16 147
16 148
16 149
16 150
16 151
16 152
16 153
16 154
16 155
16 156
16 158
16 164
16 165
16 171
16 172
16 173
16 174
16 181
16 182
16 183
16 184
16 187
16 188
16 189
16 190
16 191
16 192
16 193
16 194
16 195
16 196
16 197
16 198
16 199
16 200
16 201
16 203
16 204
16 205
16 206
16 207
16 208
16 209
16 210
16 214
16 215
16 216
16 223
16 224
16 225
16 229
16 230
16 231
16 235
16 236
16 246
16 247
16 248
16 249
16 250
16 253
16 254
16 255
16 256
16 257
16 258
16 259
16 260
16 261
16 262
16 263
16 264
16 265
16 266
16 268
16 269
16 273
16 274
16 279
16 280
16 287
16 288
16 298
16 299
16 300
16 307
16 308
16 309
16 310
16 317
16 318
16 324
16 325
16 326
16 327
16 328
16 329
16 330
16 331
16 332
16 333
16 334
16 341
16 342
16 343
16 344
16 351
16 352
16 361
16 362
16 363
16 369
16 370
16 375
16 376
16 382
16 383
16 388
16 389
16 398
16 399
16 408
16 409
16 419
16 420
16 421
16 422
16 427
16 428
16 429
16 430
16 431
16 432
16 433
16 434
16 435
16 436
16 437
16 438
16 439
16 440
16 441
16 443
16 448
16 449
16 455
16 456
16 457
16 461
16 462
16 463
16 468
16 469
16 479
16 480
16 485
16 486
16 497
16 498
16 499
16 500
16 501
16 507
16 508
16 509
16 510
16 511
16 516
16 517
17 18
17 19
17 20
17 21
17 22
17 27
17 28
17 29
17 33
17 34
17 35
17 39
17 40
17 41
17 48
17 49
17 54
17 55
17 64
17 65
17 66
17 67
17 73
17 74
17 76
17 77
17 78
17 79
17 80
17 81
17 82
17 83
17 84
17 85
17 86
17 87
17 88
17 89
17 90
17 92
17 96
17 97
17 98
17 106
17 107
17 108
17 109
17 114
17 115
17 116
17 117
17 122
17 123
17 129
17 130
17 131
17 132
17 133
17 134
17 135
17 136
17 137
17 138
17 139
17 140
17 141
17 142
17 143
17 145
17 150
17 151
17 152
17 156
17 157
17 158
17 164
17 165
17 171
17 172
17 173
17 174
17 181
17 182
17 183
17 184
17 187
17 188
17 189
17 190
17 191
17 192
17 193
17 194
17 195
17 196
17 197
17 198
17 199
17 200
17 201
17 202
17 204
17 205
17 206
17 207
17 208
17 209
17 210
17 214
17 215
17 216
17 223
17 224
17 225
17 229
17 230
17 231
17 235
17 236
17 246
17 247
17 248
17 249
17 250
17 258
17 259
17 260
17 261
17 266
17 267
17 268
17 269
17 270
17 271
17 272
17 273
17 275
17 279
17 280
17 287
17 288
17 298
17 299
17 300
17 307
17 308
17 309
17 310
17 317
17 318
17 324
17 325
17 326
17 327
17 328
17 329
17 330
17 331
17 332
17 333
17 334
17 341
17 342
17 343
17 344
17 351
17 352
17 361
17 362
17 363
17 369
17 370
17 375
17 376
17 382
17 383
17 388
17 389
17 398
17 399
17 408
17 409
17 419
17 420
17 421
17 422
17 427
17 428
17 429
17 430
17 435
17 436
17 437
17 441
17 442
17 443
17 448
17 449
17 455
17 456
17 457
17 461
17 462
17 463
17 468
17 469
17 479
17 480
17 485
17 486
17 491
17 492
17 493
17 494
17 495
17 496
17 497
17 498
17 499
17 500
17 501
17 502
17 503
17 504
17 505
17 506
17 508
17 509
17 510
17 511
17 516
17 517
18 19
18 20
18 21
18 22
18 27
18 28
18 29
18 33
18 34
18 35
18 39
18 40
18 41
18 48
18 49
18 54
18 55
18 64
18 65
18 66
18 67
18 73
18 74
18 81
18 82
18 83
18 84
18 89
18 90
18 91
18 92
18 96
18 97
18 98
18 106
18 107
18 108
18 109
18 114
18 115
18 116
18 117
18 122
18 123
18 134
18 135
18 136
18 137
18 142
18 143
18 144
18 145
18 150
18 151
18 152
18 156
18 157
18 158
18 164
18 165
18 171
18 172
18 173
18 174
18 181
18 182
18 183
18 184
18 187
18 188
18 189
18 190
18 191
18 192
18 193
18 194
18 195
18 196
18 197
18 198
18 199
18 200
18 201
18 202
18 203
18 205
18 206
18 207
18 208
18 209
18 210
18 214
18 215
18 216
18 223
18 224
18 225
18 229
18 230
18 231
18 235
18 236
18 246
18 247
18 248
18 249
18 250
18 253
18 254
18 255
18 256
18 257
18 258
18 259
18 260
18 261
18 262
18 263
18 264
18 265
18 266
18 267
18 269
18 273
18 274
18 279
18 280
18 287
18 288
18 298
18 299
18 300
18 307
18 308
18 309
18 310
18 317
18 318
18 324
18 325
18 326
18 327
18 328
18 329
18 330
18 331
18 332
18 333
18 334
18 341
18 342
18 343
18 344
18 351
18 352
18 361
18 362
18 363
18 366
18 367
18 368
18 369
18 371
18 375
18 376
18 382
18 383
18 388
18 389
18 398
18 399
18 408
18 409
18 414
18 415
18 416
18 417
18 418
18 419
18 420
18 421
18 422
18 423
18 424
18 425
18 426
18 427
18 428
18 430
18 435
18 436
18 437
18 441
18 442
18 443
18 448
18 449
18 455
18 456
18 457
18 461
18 462
18 463
18 468
18 469
18 479
18 480
18 485
18 486
18 491
18 492
18 493
18 494
18 495
18 496
18 497
18 498
18 499
18 500
18 501
18 502
18 503
18 504
18 505
18 506
18 507
18 509
18 510
18 511
18 516
18 517
19 20
19 21
19 22
19 27
19 28
19 29
19 33
19 34
19 35
19 39
19 40
19 41
19 48
19 49
19 54
19 55
19 64
19 65
19 66
19 67
19 70
19 71
19 72
19 73
19 75
19 81
19 82
19 83
19 84
19 89
19 90
19 91
19 92
19 96
19 97
19 98
19 101
19 102
19 103
19 104
19 105
19 106
19 107
19 108
19 109
19 110
19 111
19 112
19 113
19 114
19 115
19 117
19 122
19 123
19 129
19 130
19 131
19 132
19 133
19 134
19 135
19 136
19 137
19 138
19 139
19 140
19 141
19 142
19 143
19 144
19 150
19 151
19 152
19 156
19 157
19 158
19 164
19 165
19 171
19 172
19 173
19 174
19 181
19 182
19 183
19 184
19 187
19 188
19 189
19 190
19 191
19 192
19 193
19 194
19 195
19 196
19 197
19 198
19 199
19 200
19 201
19 202
19 203
19 204
19 206
19 207
19 208
19 209
19 210
19 214
19 215
19 216
19 223
19 224
19 225
19 229
19 230
19 231
19 235
19 236
19 246
19 247
19 248
19 249
19 250
19 258
19 259
19 260
19 261
19 266
19 267
19 268
19 269
19 273
19 274
19 279
19 280
19 287
19 288
19 298
19 299
19 300
19 307
19 308
19 309
19 310
19 317
19 318
19 324
19 325
19 326
19 327
19 328
19 329
19 330
19 331
19 332
19 333
19 334
19 341
19 342
19 343
19 344
19 351
19 352
19 361
19 362
19 363
19 369
19 370
19 375
19 376
19 382
19 383
19 388
19 389
19 398
19 399
19 408
19 409
19 419
19 420
19 421
19 422
19 427
19 428
19 429
19 430
19 435
19 436
19 437
19 441
19 442
19 443
19 448
19 449
19 455
19 456
19 457
19 461
19 462
19 463
19 468
19 469
19 479
19 480
19 485
19 486
19 491
19 492
19 493
19 494
19 495
19 496
19 497
19 498
19 499
19 500
19 501
19 502
19 503
19 504
19 505
19 506
19 507
19 508
19 510
19 511
19 516
19 517
20 21
20 22
20 27
20 28
20 29
20 33
20 34
20 35
20 39
20 40
20 41
20 48
20 49
20 54
20 55
20 64
20 65
20 66
20 67
20 73
20 74
20 81
20 82
20 83
20 84
20 89
20 90
20 91
20 92
20 96
20 97
20 98
20 101
20 102
20 103
20 104
20 105
20 106
20 107
20 108
20 109
20 110
20 111
20 112
20 113
20 114
20 115
20 116
20 122
20 123
20 134
20 135
20 136
20 137
20 142
20 143
20 144
20 145
20 150
20 151
20 152
20 156
20 157
20 158
20 164
20 165
20 171
20 172
20 173
20 174
20 181
20 182
20 183
20 184
20 187
20 188
20 189
20 190
20 191
20 192
20 193
20 194
20 195
20 196
20 197
20 198
20 199
20 200
20 201
20 202
20 203
20 204
20 205
20 207
20 208
20 209
20 210
20 214
20 215
20 216
20 223
20 224
20 225
20 229
20 230
20 231
20 235
20 236
20 246
20 247
20 248
20 249
20 250
20 258
20 259
20 260
20 261
20 266
20 267
20 268
20 269
20 273
20 274
20 276
20 277
20 278
20 279
20 281
20 287
20 288
20 298
20 299
20 300
20 307
20 308
20 309
20 310
20 317
20 318
20 324
20 325
20 326
20 327
20 328
20 329
20 330
20 331
20 332
20 333
20 334
20 341
20 342
20 343
20 344
20 351
20 352
20 361
20 362
20 363
20 369
20 370
20 375
20 376
20 382
20 383
20 388
20 389
20 398
20 399
20 408
20 409
20 414
20 415
20 416
20 417
20 418
20 419
20 420
20 421
20 422
20 423
20 424
20 425
20 426
20 427
20 428
20 429
20 435
20 436
20 437
20 441
20 442
20 443
20 448
20 449
20 455
20 456
20 457
20 461
20 462
20 463
20 468
20 469
20 479
20 480
20 485
20 486
20 491
20 492
20 493
20 494
20 495
20 496
20 497
20 498
20 499
20 500
20 501
20 502
20 503
20 504
20 505
20 506
20 507
20 508
20 509
20 511
20 516
20 517
21 22
21 27
21 28
21 29
21 33
21 34
21 35
21 39
21 40
21 41
21 48
21 49
21 54
21 55
21 64
21 65
21 66
21 67
21 73
21 74
21 76
21 77
21 78
21 79
21 80
21 81
21 82
21 83
21 84
21 85
21 86
21 87
21 88
21 89
21 90
21 91
21 96
21 97
21 98
21 106
21 107
21 108
21 109
21 114
21 115
21 116
21 117
21 122
21 123
21 134
21 135
21 136
21 137
21 142
21 143
21 144
21 145
21 150
21 151
21 152
21 156
21 157
21 158
21 164
21 165
21 171
21 172
21 173
21 174
21 181
21 182
21 183
21 184
21 187
21 188
21 189
21 190
21 191
21 192
21 193
21 194
21 195
21 196
21 197
21 198
21 199
21 200
21 201
21 202
21 203
21 204
21 205
21 206
21 208
21 209
21 210
21 214
21 215
21 216
21 223
21 224
21 225
21 229
21 230
21 231
21 235
21 236
21 246
21 247
21 248
21 249
21 250
21 253
21 254
21 255
21 256
21 257
21 258
21 259
21 260
21 261
21 262
21 263
21 264
21 265
21 266
21 267
21 268
21 273
21 274
21 279
21 280
21 287
21 288
21 298
21 299
21 300
21 307
21 308
21 309
21 310
21 317
21 318
21 324
21 325
21 326
21 327
21 328
21 329
21 330
21 331
21 332
21 333
21 334
21 341
21 342
21 343
21 344
21 351
21 352
21 361
21 362
21 363
21 369
21 370
21 372
21 373
21 374
21 375
21 377
21 382
21 383
21 388
21 389
21 398
21 399
21 408
21 409
21 419
21 420
21 421
21 422
21 427
21 428
21 429
21 430
21 435
21 436
21 437
21 441
21 442
21 443
21 448
21 449
21 455
21 456
21 457
21 461
21 462
21 463
21 468
21 469
21 479
21 480
21 485
21 486
21 491
21 492
21 493
21 494
21 495
21 496
21 497
21 498
21 499
21 500
21 501
21 502
21 503
21 504
21 505
21 506
21 507
21 508
21 509
21 510
21 516
21 517
22 23
22 24
22 25
22 26
22 27
22 28
22 29
22 30
22 31
22 32
22 33
22 34
22 39
22 40
22 41
22 48
22 49
22 54
22 55
22 64
22 65
22 66
22 67
22 73
22 74
22 81
22 82
22 83
22 84
22 89
22 90
22 91
22 92
22 96
22 97
22 98
22 106
22 107
22 108
22 109
22 114
22 115
22 116
22 117
22 122
22 123
22 134
22 135
22 136
22 137
22 142
22 143
22 144
22 145
22 146
22 147
22 148
22 149
22 150
22 151
22 152
22 153
22 154
22 155
22 156
22 157
22 159
22 160
22 161
22 162
22 163
22 164
22 166
22 171
22 172
22 173
22 174
22 181
22 182
22 183
22 184
22 187
22 188
22 189
22 190
22 191
22 192
22 193
22 194
22 195
22 196
22 197
22 198
22 199
22 200
22 201
22 202
22 203
22 204
22 205
22 206
22 207
22 209
22 210
22 214
22 215
22 216
22 219
22 220
22 221
22 222
22 223
22 224
22 225
22 226
22 227
22 228
22 229
22 230
22 235
22 236
22 246
22 247
22 248
22 249
22 250
22 258
22 259
22 260
22 261
22 266
22 267
22 268
22 269
22 273
22 274
22 279
22 280
22 287
22 288
22 298
22 299
22 300
22 307
22 308
22 309
22 310
22 317
22 318
22 324
22 325
22 326
22 327
22 328
22 329
22 330
22 331
22 332
22 333
22 334
22 341
22 342
22 343
22 344
22 351
22 352
22 361
22 362
22 363
22 369
22 370
22 375
22 376
22 382
22 383
22 388
22 389
22 398
22 399
22 408
22 409
22 419
22 420
22 421
22 422
22 427
22 428
22 429
22 430
22 431
22 432
22 433
22 434
22 435
22 436
22 437
22 438
22 439
22 440
22 441
22 442
22 448
22 449
22 451
22 452
22 453
22 454
22 455
22 456
22 457
22 458
22 459
22 460
22 461
22 462
22 468
22 469
22 479
22 480
22 485
22 486
22 497
22 498
22 499
22 500
22 501
22 507
22 508
22 509
22 510
22 511
22 516
22 517
23 24
23 25
23 26
23 27
23 28
23 29
23 30
23 31
23 32
23 33
23 34
23 35
23 36
23 38
23 39
23 40
23 41
23 42
23 43
23 45
23 46
23 47
23 48
23 49
23 50
23 53
23 58
23 60
23 62
23 63
23 64
23 65
23 66
23 67
23 68
23 69
23 72
23 77
23 80
23 95
23 98
23 102
23 103
23 104
23 105
23 106
23 107
23 108
23 109
23 110
23 111
23 112
23 113
23 114
23 115
23 116
23 117
23 119
23 120
23 121
23 122
23 123
23 124
23 125
23 126
23 127
23 128
23 129
23 130
23 132
23 133
23 134
23 135
23 136
23 137
23 138
23 139
23 140
23 141
23 142
23 143
23 144
23 145
23 149
23 152
23 155
23 158
23 163
23 165
23 168
23 169
23 170
23 171
23 172
23 173
23 174
23 175
23 176
23 180
23 185
23 189
23 190
23 197
23 200
23 201
23 208
23 212
23 213
23 214
23 215
23 216
23 217
23 218
23 220
23 222
23 224
23 225
23 227
23 228
23 230
23 231
23 233
23 234
23 238
23 239
23 245
23 251
23 253
23 255
23 256
23 257
23 258
23 259
23 260
23 261
23 262
23 263
23 264
23 265
23 266
23 267
23 268
23 269
23 271
23 272
23 278
23 286
23 287
23 297
23 300
23 306
23 311
23 316
23 317
23 326
23 327
23 334
23 338
23 342
23 350
23 351
23 359
23 360
23 362
23 363
23 366
23 368
23 369
23 370
23 371
23 373
23 374
23 375
23 376
23 377
23 379
23 386
23 387
23 388
23 389
23 390
23 391
23 392
23 393
23 394
23 396
23 397
23 398
23 399
23 400
23 401
23 402
23 403
23 404
23 407
23 412
23 416
23 420
23 424
23 428
23 434
23 437
23 440
23 443
23 447
23 449
23 451
23 453
23 454
23 455
23 456
23 457
23 458
23 459
23 460
23 461
23 462
23 463
23 465
23 471
23 478
23 480
23 482
23 484
23 485
23 486
23 487
23 488
23 489
23 490
23 495
23 496
23 512
23 514
23 515
23 516
23 517
23 518
24 25
24 26
24 27
24 28
24 29
24 30
24 31
24 32
24 33
24 34
24 35
24 37
24 38
24 40
24 41
24 44
24 46
24 47
24 48
24 49
24 50
24 53
24 58
24 61
24 65
24 72
24 76
24 78
24 79
24 80
24 81
24 82
24 83
24 84
24 85
24 86
24 87
24 88
24 89
24 90
24 91
24 92
24 95
24 98
24 101
24 103
24 104
24 105
24 106
24 107
24 108
24 109
24 110
24 111
24 112
24 113
24 114
24 115
24 116
24 117
24 118
24 120
24 121
24 122
24 123
24 124
24 125
24 126
24 127
24 128
24 131
24 135
24 139
24 143
24 149
24 152
24 155
24 158
24 163
24 165
24 167
24 169
24 170
24 171
24 172
24 173
24 174
24 175
24 176
24 180
24 185
24 189
24 190
24 197
24 200
24 201
24 208
24 211
24 213
24 214
24 215
24 216
24 217
24 218
24 219
24 221
24 222
24 223
24 224
24 225
24 226
24 227
24 228
24 229
24 230
24 231
24 232
24 234
24 235
24 236
24 237
24 238
24 239
24 240
24 245
24 251
24 254
24 257
24 270
24 272
24 273
24 274
24 275
24 278
24 286
24 287
24 297
24 300
24 306
24 311
24 316
24 317
24 326
24 327
24 334
24 337
24 339
24 340
24 341
24 342
24 343
24 344
24 345
24 346
24 350
24 351
24 358
24 360
24 361
24 362
24 363
24 364
24 365
24 367
24 368
24 372
24 374
24 375
24 376
24 377
24 378
24 380
24 381
24 382
24 383
24 384
24 385
24 387
24 388
24 389
24 390
24 391
24 392
24 393
24 395
24 401
24 407
24 412
24 414
24 415
24 417
24 418
24 419
24 420
24 421
24 422
24 423
24 424
24 425
24 426
24 427
24 428
24 429
24 430
24 434
24 437
24 440
24 443
24 447
24 449
24 452
24 454
24 456
24 457
24 459
24 460
24 462
24 463
24 464
24 466
24 467
24 468
24 469
24 470
24 471
24 472
24 473
24 474
24 478
24 480
24 483
24 484
24 488
24 489
24 495
24 496
24 513
25 26
25 27
25 28
25 29
25 30
25 31
25 32
25 33
25 34
25 35
25 37
25 38
25 40
25 41
25 44
25 45
25 53
25 58
25 61
25 65
25 72
25 76
25 77
25 78
25 79
25 81
25 82
25 83
25 84
25 85
25 86
25 87
25 88
25 89
25 90
25 91
25 92
25 95
25 98
25 101
25 102
25 106
25 107
25 110
25 111
25 114
25 115
25 118
25 119
25 124
25 125
25 131
25 135
25 139
25 143
25 149
25 152
25 155
25 158
25 159
25 160
25 161
25 162
25 164
25 165
25 166
25 167
25 168
25 171
25 172
25 177
25 178
25 179
25 181
25 182
25 183
25 184
25 185
25 186
25 189
25 190
25 197
25 200
25 201
25 208
25 211
25 212
25 213
25 214
25 215
25 216
25 220
25 222
25 224
25 225
25 227
25 228
25 230
25 231
25 233
25 234
25 238
25 239
25 241
25 242
25 243
25 244
25 246
25 247
25 248
25 249
25 250
25 251
25 252
25 253
25 254
25 255
25 256
25 258
25 259
25 260
25 261
25 262
25 263
25 264
25 265
25 266
25 267
25 268
25 269
25 271
25 272
25 278
25 282
25 283
25 284
25 285
25 287
25 288
25 289
25 290
25 291
25 292
25 293
25 294
25 297
25 300
25 303
25 304
25 305
25 307
25 308
25 309
25 310
25 311
25 312
25 313
25 314
25 315
25 317
25 318
25 319
25 320
25 321
25 322
25 323
25 326
25 327
25 334
25 338
25 342
25 347
25 348
25 349
25 351
25 352
25 353
25 354
25 355
25 356
25 357
25 359
25 360
25 362
25 363
25 367
25 368
25 372
25 373
25 374
25 379
25 385
25 386
25 387
25 390
25 391
25 392
25 395
25 401
25 407
25 412
25 416
25 420
25 424
25 428
25 434
25 437
25 440
25 443
25 444
25 445
25 446
25 448
25 449
25 450
25 452
25 454
25 456
25 457
25 459
25 460
25 462
25 463
25 465
25 471
25 475
25 476
25 477
25 479
25 480
25 481
25 483
25 484
25 488
25 489
25 491
25 492
25 493
25 494
25 496
25 497
25 498
25 499
25 500
25 501
25 502
25 503
25 504
25 505
25 506
25 507
25 508
25 509
25 510
25 511
25 513
26 27
26 28
26 29
26 30
26 31
26 32
26 33
26 34
26 35
26 36
26 37
26 39
26 40
26 41
26 42
26 43
26 44
26 45
26 51
26 52
26 54
26 55
26 56
26 57
26 58
26 59
26 61
26 65
26 70
26 71
26 73
26 74
26 75
26 77
26 80
26 93
26 94
26 96
26 97
26 98
26 99
26 100
26 101
26 102
26 106
26 107
26 110
26 111
26 114
26 115
26 118
26 119
26 124
26 125
26 131
26 135
26 139
26 143
26 146
26 147
26 148
26 150
26 151
26 152
26 153
26 154
26 155
26 156
26 157
26 158
26 163
26 165
26 167
26 168
26 171
26 172
26 180
26 185
26 189
26 190
26 197
26 200
26 201
26 208
26 211
26 212
26 214
26 215
26 216
26 217
26 218
26 219
26 220
26 221
26 223
26 224
26 225
26 226
26 227
26 228
26 229
26 230
26 231
26 232
26 233
26 235
26 236
26 237
26 238
26 239
26 240
26 245
26 251
26 254
26 257
26 270
26 271
26 273
26 274
26 275
26 276
26 277
26 279
26 280
26 281
26 286
26 287
26 295
26 296
26 298
26 299
26 300
26 301
26 302
26 306
26 311
26 316
26 317
26 326
26 327
26 334
26 338
26 342
26 350
26 351
26 358
26 359
26 361
26 362
26 363
26 364
26 365
26 366
26 367
26 369
26 370
26 371
26 372
26 373
26 375
26 376
26 377
26 379
26 385
26 386
26 388
26 389
26 390
26 391
26 392
26 393
26 395
26 401
26 405
26 406
26 408
26 409
26 410
26 411
26 412
26 413
26 416
26 420
26 424
26 428
26 431
26 432
26 433
26 435
26 436
26 437
26 438
26 439
26 440
26 441
26 442
26 443
26 447
26 449
26 451
26 452
26 453
26 455
26 456
26 457
26 458
26 459
26 460
26 461
26 462
26 463
26 465
26 471
26 478
26 480
26 482
26 483
26 485
26 486
26 487
26 488
26 489
26 490
26 491
26 492
26 493
26 494
26 495
26 497
26 498
26 499
26 500
26 501
26 502
26 503
26 504
26 505
26 506
26 507
26 508
26 509
26 510
26 511
26 513
27 28
27 29
27 30
27 31
27 32
27 33
27 34
27 35
27 36
27 37
27 38
27 39
27 41
27 42
27 43
27 44
27 45
27 53
27 58
27 60
27 61
27 62
27 63
27 64
27 66
27 67
27 68
27 69
27 72
27 77
27 80
27 95
27 98
27 101
27 102
27 103
27 104
27 105
27 107
27 108
27 109
27 110
27 111
27 112
27 113
27 114
27 115
27 116
27 117
27 118
27 119
27 124
27 125
27 129
27 130
27 131
27 132
27 133
27 134
27 136
27 137
27 138
27 139
27 140
27 141
27 142
27 143
27 144
27 145
27 149
27 152
27 155
27 158
27 163
27 165
27 167
27 168
27 169
27 170
27 172
27 173
27 174
27 175
27 176
27 180
27 185
27 189
27 190
27 197
27 200
27 201
27 208
27 211
27 212
27 213
27 215
27 216
27 217
27 218
27 220
27 222
27 224
27 225
27 227
27 228
27 230
27 231
27 233
27 234
27 238
27 239
27 245
27 251
27 254
27 257
27 271
27 272
27 278
27 286
27 287
27 297
27 300
27 306
27 311
27 316
27 317
27 324
27 325
27 327
27 328
27 329
27 330
27 331
27 332
27 333
27 334
27 335
27 336
27 338
27 342
27 347
27 348
27 349
27 350
27 352
27 353
27 354
27 355
27 356
27 357
27 359
27 360
27 362
27 363
27 367
27 368
27 372
27 373
27 374
27 379
27 385
27 386
27 387
27 390
27 391
27 392
27 395
27 401
27 407
27 412
27 416
27 420
27 424
27 428
27 434
27 437
27 440
27 443
27 447
27 449
27 451
27 452
27 453
27 454
27 455
27 457
27 458
27 459
27 460
27 461
27 462
27 463
27 465
27 471
27 478
27 480
27 483
27 484
27 488
27 489
27 495
27 496
27 513
28 29
28 30
28 31
28 32
28 33
28 34
28 35
28 37
28 38
28 40
28 41
28 44
28 45
28 53
28 58
28 61
28 65
28 72
28 77
28 80
28 95
28 98
28 101
28 102
28 103
28 104
28 105
28 106
28 108
28 109
28 110
28 111
28 112
28 113
28 114
28 115
28 116
28 117
28 118
28 119
28 124
28 125
28 131
28 135
28 139
28 143
28 149
28 152
28 155
28 158
28 163
28 165
28 167
28 168
28 169
28 170
28 171
28 173
28 174
28 175
28 176
28 180
28 185
28 189
28 190
28 197
28 200
28 201
28 208
28 211
28 212
28 213
28 214
28 216
28 217
28 218
28 219
28 220
28 221
28 222
28 223
28 225
28 226
28 227
28 228
28 229
28 230
28 231
28 233
28 234
28 238
28 239
28 245
28 251
28 254
28 257
28 271
28 272
28 278
28 286
28 287
28 297
28 300
28 306
28 311
28 313
28 314
28 315
28 316
28 318
28 319
28 320
28 321
28 322
28 323
28 324
28 325
28 326
28 328
28 329
28 330
28 331
28 332
28 333
28 334
28 335
28 336
28 337
28 338
28 339
28 340
28 341
28 343
28 344
28 345
28 346
28 350
28 351
28 358
28 359
28 360
28 361
28 363
28 364
28 365
28 367
28 368
28 372
28 373
28 374
28 379
28 385
28 386
28 387
28 390
28 391
28 392
28 395
28 401
28 407
28 412
28 414
28 415
28 416
28 417
28 418
28 419
28 421
28 422
28 423
28 424
28 425
28 426
28 427
28 428
28 429
28 430
28 434
28 437
28 440
28 443
28 447
28 449
28 452
28 454
28 456
28 457
28 459
28 460
28 462
28 463
28 465
28 471
28 478
28 480
28 483
28 484
28 488
28 489
28 495
28 496
28 513
29 30
29 31
29 32
29 33
29 34
29 35
29 36
29 37
29 38
29 39
29 40
29 42
29 43
29 44
29 45
29 53
29 58
29 61
29 65
29 72
29 77
29 80
29 93
29 94
29 95
29 96
29 97
29 99
29 100
29 101
29 102
29 106
29 107
29 110
29 111
29 114
29 115
29 118
29 119
29 124
29 125
29 131
29 135
29 139
29 143
29 146
29 147
29 148
29 149
29 150
29 151
29 153
29 154
29 155
29 156
29 157
29 158
29 163
29 165
29 167
29 168
29 171
29 172
29 180
29 185
29 189
29 190
29 197
29 200
29 201
29 208
29 211
29 212
29 213
29 214
29 215
29 217
29 218
29 219
29 220
29 221
29 222
29 223
29 224
29 226
29 227
29 228
29 229
29 230
29 231
29 233
29 234
29 238
29 239
29 245
29 251
29 254
29 257
29 271
29 272
29 278
29 282
29 283
29 284
29 285
29 286
29 288
29 289
29 290
29 291
29 292
29 293
29 294
29 295
29 296
29 297
29 298
29 299
29 301
29 302
29 306
29 311
29 316
29 317
29 324
29 325
29 326
29 327
29 328
29 329
29 330
29 331
29 332
29 333
29 335
29 336
29 338
29 342
29 350
29 351
29 358
29 359
29 360
29 361
29 362
29 364
29 365
29 367
29 368
29 372
29 373
29 374
29 379
29 385
29 386
29 387
29 390
29 391
29 392
29 395
29 401
29 407
29 412
29 416
29 420
29 424
29 428
29 431
29 432
29 433
29 434
29 435
29 436
29 438
29 439
29 440
29 441
29 442
29 443
29 447
29 449
29 451
29 452
29 453
29 454
29 455
29 456
29 458
29 459
29 460
29 461
29 462
29 463
29 465
29 471
29 478
29 480
29 483
29 484
29 488
29 489
29 495
29 496
29 513
30 31
30 32
30 33
30 34
30 35
30 37
30 38
30 40
30 41
30 44
30 45
30 53
30 58
30 61
30 65
30 72
30 77
30 80
30 95
30 98
30 101
30 102
30 103
30 104
30 105
30 106
30 107
30 108
30 109
30 111
30 112
30 113
30 114
30 115
30 116
30 117
30 118
30 119
30 120
30 121
30 122
30 123
30 125
30 126
30 127
30 128
30 129
30 130
30 131
30 132
30 133
30 134
30 135
30 136
30 137
30 138
30 140
30 141
30 142
30 143
30 144
30 145
30 149
30 152
30 155
30 158
30 163
30 165
30 167
30 168
30 171
30 172
30 177
30 178
30 179
30 180
30 181
30 182
30 183
30 184
30 186
30 187
30 188
30 190
30 191
30 192
30 193
30 194
30 195
30 196
30 197
30 198
30 199
30 200
30 201
30 202
30 203
30 204
30 205
30 206
30 207
30 208
30 209
30 210
30 211
30 212
30 213
30 214
30 215
30 216
30 220
30 222
30 224
30 225
30 227
30 228
30 230
30 231
30 233
30 234
30 238
30 239
30 245
30 251
30 254
30 257
30 271
30 272
30 278
30 286
30 287
30 297
30 300
30 306
30 311
30 316
30 317
30 326
30 327
30 334
30 338
30 342
30 350
30 351
30 359
30 360
30 362
30 363
30 367
30 368
30 372
30 373
30 374
30 379
30 385
30 386
30 387
30 388
30 389
30 391
30 392
30 393
30 394
30 395
30 396
30 397
30 398
30 399
30 400
30 402
30 403
30 404
30 407
30 412
30 416
30 420
30 424
30 428
30 434
30 437
30 440
30 443
30 447
30 449
30 451
30 452
30 453
30 454
30 455
30 456
30 457
30 458
30 460
30 461
30 462
30 463
30 465
30 471
30 478
30 480
30 482
30 483
30 484
30 485
30 486
30 487
30 489
30 490
30 495
30 496
30 513
31 32
31 33
31 34
31 35
31 37
31 38
31 40
31 41
31 44
31 45
31 53
31 58
31 61
31 65
31 72
31 77
31 80
31 95
31 98
31 101
31 102
31 103
31 104
31 105
31 106
31 107
31 108
31 109
31 110
31 112
31 113
31 114
31 115
31 116
31 117
31 118
31 119
31 120
31 121
31 122
31 123
31 124
31 126
31 127
31 128
31 131
31 135
31 139
31 143
31 149
31 152
31 155
31 158
31 163
31 165
31 167
31 168
31 171
31 172
31 180
31 185
31 187
31 188
31 189
31 191
31 192
31 193
31 194
31 195
31 196
31 197
31 198
31 199
31 200
31 201
31 202
31 203
31 204
31 205
31 206
31 207
31 208
31 209
31 210
31 211
31 212
31 213
31 214
31 215
31 216
31 219
31 220
31 221
31 222
31 223
31 224
31 225
31 226
31 228
31 229
31 230
31 231
31 232
31 233
31 234
31 235
31 236
31 237
31 239
31 240
31 245
31 251
31 254
31 257
31 271
31 272
31 278
31 286
31 287
31 297
31 300
31 303
31 304
31 305
31 306
31 307
31 308
31 309
31 310
31 312
31 316
31 317
31 326
31 327
31 334
31 338
31 342
31 350
31 351
31 359
31 360
31 362
31 363
31 367
31 368
31 372
31 373
31 374
31 379
31 385
31 386
31 387
31 388
31 389
31 390
31 392
31 393
31 395
31 401
31 407
31 412
31 414
31 415
31 416
31 417
31 418
31 419
31 420
31 421
31 422
31 423
31 425
31 426
31 427
31 428
31 429
31 430
31 434
31 437
31 440
31 443
31 447
31 449
31 452
31 454
31 456
31 457
31 459
31 460
31 462
31 463
31 464
31 465
31 466
31 467
31 468
31 469
31 470
31 472
31 473
31 474
31 478
31 480
31 483
31 484
31 488
31 489
31 495
31 496
31 513
32 33
32 34
32 35
32 37
32 38
32 40
32 41
32 44
32 45
32 51
32 52
32 53
32 54
32 55
32 56
32 57
32 59
32 61
32 65
32 72
32 77
32 80
32 95
32 98
32 101
32 102
32 106
32 107
32 110
32 111
32 114
32 115
32 118
32 119
32 124
32 125
32 131
32 135
32 139
32 143
32 146
32 147
32 148
32 149
32 150
32 151
32 152
32 153
32 154
32 156
32 157
32 158
32 163
32 165
32 167
32 168
32 171
32 172
32 180
32 185
32 187
32 188
32 189
32 190
32 191
32 192
32 193
32 194
32 195
32 196
32 198
32 199
32 200
32 201
32 202
32 203
32 204
32 205
32 206
32 207
32 208
32 209
32 210
32 211
32 212
32 213
32 214
32 215
32 216
32 219
32 220
32 221
32 222
32 223
32 224
32 225
32 226
32 227
32 229
32 230
32 231
32 232
32 233
32 234
32 235
32 236
32 237
32 238
32 240
32 241
32 242
32 243
32 244
32 245
32 246
32 247
32 248
32 249
32 250
32 252
32 254
32 257
32 271
32 272
32 278
32 286
32 287
32 297
32 300
32 306
32 311
32 316
32 317
32 326
32 327
32 334
32 338
32 342
32 350
32 351
32 359
32 360
32 362
32 363
32 367
32 368
32 372
32 373
32 374
32 379
32 385
32 386
32 387
32 388
32 389
32 390
32 391
32 393
32 395
32 401
32 405
32 406
32 407
32 408
32 409
32 410
32 411
32 413
32 416
32 420
32 424
32 428
32 431
32 432
32 433
32 434
32 435
32 436
32 437
32 438
32 439
32 441
32 442
32 443
32 447
32 449
32 451
32 452
32 453
32 454
32 455
32 456
32 457
32 458
32 459
32 461
32 462
32 463
32 465
32 471
32 478
32 480
32 482
32 483
32 484
32 485
32 486
32 487
32 488
32 490
32 495
32 496
32 513
33 34
33 35
33 37
33 38
33 40
33 41
33 44
33 45
33 53
33 58
33 61
33 65
33 72
33 77
33 80
33 95
33 98
33 101
33 102
33 103
33 104
33 105
33 106
33 107
33 108
33 109
33 110
33 111
33 112
33 113
33 115
33 116
33 117
33 118
33 119
33 124
33 125
33 129
33 130
33 131
33 132
33 133
33 134
33 135
33 136
33 137
33 138
33 139
33 140
33 141
33 142
33 144
33 145
33 149
33 152
33 155
33 158
33 163
33 165
33 167
33 168
33 171
33 172
33 180
33 185
33 187
33 188
33 189
33 190
33 191
33 192
33 193
33 194
33 195
33 196
33 197
33 198
33 199
33 201
33 202
33 203
33 204
33 205
33 206
33 207
33 208
33 209
33 210
33 211
33 212
33 213
33 214
33 215
33 216
33 220
33 222
33 224
33 225
33 227
33 228
33 230
33 231
33 233
33 234
33 238
33 239
33 245
33 251
33 254
33 257
33 271
33 272
33 278
33 286
33 287
33 297
33 300
33 306
33 311
33 316
33 317
33 326
33 327
33 334
33 338
33 342
33 350
33 351
33 359
33 360
33 362
33 363
33 367
33 368
33 372
33 373
33 374
33 379
33 385
33 386
33 387
33 390
33 391
33 392
33 395
33 401
33 407
33 412
33 416
33 420
33 424
33 428
33 434
33 437
33 440
33 443
33 444
33 445
33 446
33 447
33 448
33 450
33 451
33 452
33 453
33 454
33 455
33 456
33 457
33 458
33 459
33 460
33 461
33 463
33 465
33 471
33 478
33 480
33 483
33 484
33 488
33 489
33 495
33 496
33 513
34 35
34 37
34 38
34 40
34 41
34 44
34 45
34 53
34 58
34 61
34 65
34 72
34 77
34 80
34 95
34 98
34 101
34 102
34 103
34 104
34 105
34 106
34 107
34 108
34 109
34 110
34 111
34 112
34 113
34 114
34 116
34 117
34 118
34 119
34 124
34 125
34 131
34 135
34 139
34 143
34 149
34 152
34 155
34 158
34 163
34 165
34 167
34 168
34 171
34 172
34 180
34 185
34 187
34 188
34 189
34 190
34 191
34 192
34 193
34 194
34 195
34 196
34 197
34 198
34 199
34 200
34 202
34 203
34 204
34 205
34 206
34 207
34 208
34 209
34 210
34 211
34 212
34 213
34 214
34 215
34 216
34 219
34 220
34 221
34 222
34 223
34 224
34 225
34 226
34 227
34 228
34 229
34 231
34 233
34 234
34 238
34 239
34 245
34 251
34 254
34 257
34 271
34 272
34 278
34 286
34 287
34 297
34 300
34 306
34 311
34 316
34 317
34 326
34 327
34 334
34 338
34 342
34 350
34 351
34 359
34 360
34 362
34 363
34 367
34 368
34 372
34 373
34 374
34 379
34 385
34 386
34 387
34 390
34 391
34 392
34 395
34 401
34 407
34 412
34 414
34 415
34 416
34 417
34 418
34 419
34 420
34 421
34 422
34 423
34 424
34 425
34 426
34 427
34 429
34 430
34 434
34 437
34 440
34 443
34 447
34 449
34 452
34 454
34 456
34 457
34 459
34 460
34 462
34 463
34 465
34 471
34 475
34 476
34 477
34 478
34 479
34 481
34 483
34 484
34 488
34 489
34 495
34 496
34 513
35 37
35 38
35 40
35 41
35 44
35 45
35 53
35 58
35 61
35 65
35 72
35 77
35 80
35 95
35 98
35 101
35 102
35 106
35 107
35 110
35 111
35 114
35 115
35 118
35 119
35 124
35 125
35 131
35 135
35 139
35 143
35 146
35 147
35 148
35 149
35 150
35 151
35 152
35 153
35 154
35 155
35 156
35 157
35 159
35 160
35 161
35 162
35 163
35 164
35 166
35 167
35 168
35 171
35 172
35 180
35 185
35 187
35 188
35 189
35 190
35 191
35 192
35 193
35 194
35 195
35 196
35 197
35 198
35 199
35 200
35 201
35 202
35 203
35 204
35 205
35 206
35 207
35 209
35 210
35 211
35 212
35 213
35 214
35 215
35 216
35 219
35 220
35 221
35 222
35 223
35 224
35 225
35 226
35 227
35 228
35 229
35 230
35 233
35 234
35 238
35 239
35 245
35 251
35 254
35 257
35 271
35 272
35 278
35 286
35 287
35 297
35 300
35 306
35 311
35 316
35 317
35 326
35 327
35 334
35 338
35 342
35 350
35 351
35 359
35 360
35 362
35 363
35 367
35 368
35 372
35 373
35 374
35 379
35 385
35 386
35 387
35 390
35 391
35 392
35 395
35 401
35 407
35 412
35 416
35 420
35 424
35 428
35 431
35 432
35 433
35 434
35 435
35 436
35 437
35 438
35 439
35 440
35 441
35 442
35 447
35 449
35 451
35 452
35 453
35 454
35 455
35 456
35 457
35 458
35 459
35 460
35 461
35 462
35 465
35 471
35 478
35 480
35 483
35 484
35 488
35 489
35 495
35 496
35 513
36 37
36 38
36 39
36 40
36 41
36 42
36 43
36 44
36 50
36 53
36 61
36 62
36 63
36 64
36 65
36 66
36 67
36 68
36 69
36 72
36 75
36 77
36 78
36 79
36 80
36 81
36 82
36 83
36 84
36 85
36 86
36 87
36 88
36 89
36 90
36 91
36 92
36 94
36 95
36 96
36 97
36 98
36 99
36 100
36 101
36 106
36 118
36 130
36 131
36 132
36 133
36 134
36 135
36 136
36 137
36 138
36 139
36 140
36 141
36 142
36 143
36 144
36 145
36 147
36 148
36 149
36 150
36 151
36 152
36 153
36 154
36 155
36 156
36 157
36 158
36 166
36 167
36 171
36 176
36 186
36 193
36 210
36 211
36 213
36 214
36 216
36 218
36 222
36 225
36 234
36 252
36 254
36 264
36 272
36 275
36 277
36 278
36 279
36 280
36 281
36 287
36 290
36 297
36 300
36 302
36 304
36 305
36 306
36 307
36 308
36 309
36 310
36 311
36 312
36 314
36 315
36 316
36 317
36 318
36 319
36 320
36 321
36 322
36 323
36 324
36 326
36 334
36 336
36 346
36 351
36 355
36 360
36 363
36 365
36 367
36 368
36 369
36 370
36 371
36 372
36 374
36 377
36 384
36 385
36 387
36 395
36 396
36 397
36 398
36 399
36 400
36 401
36 402
36 403
36 404
36 406
36 407
36 408
36 409
36 410
36 411
36 412
36 413
36 415
36 416
36 417
36 418
36 419
36 420
36 421
36 422
36 423
36 424
36 425
36 426
36 427
36 428
36 429
36 430
36 434
36 437
36 450
36 452
36 453
36 454
36 455
36 456
36 457
36 458
36 459
36 460
36 461
36 462
36 463
36 468
36 472
36 476
36 477
36 478
36 479
36 480
36 481
36 483
36 484
36 485
36 486
36 487
36 488
36 489
36 490
36 496
36 503
36 513
36 514
36 515
36 516
36 517
36 518
37 38
37 39
37 40
37 41
37 42
37 43
37 45
37 46
37 47
37 48
37 49
37 50
37 53
37 60
37 62
37 63
37 64
37 65
37 66
37 67
37 68
37 69
37 72
37 75
37 76
37 81
37 93
37 95
37 96
37 98
37 100
37 102
37 103
37 104
37 105
37 106
37 107
37 108
37 109
37 110
37 111
37 112
37 113
37 114
37 115
37 116
37 117
37 119
37 120
37 121
37 122
37 123
37 124
37 125
37 126
37 127
37 128
37 129
37 130
37 132
37 133
37 134
37 135
37 136
37 137
37 138
37 139
37 140
37 141
37 142
37 143
37 144
37 145
37 146
37 149
37 150
37 152
37 166
37 168
37 169
37 170
37 171
37 172
37 173
37 174
37 175
37 176
37 186
37 193
37 210
37 212
37 213
37 214
37 215
37 216
37 217
37 218
37 222
37 225
37 234
37 252
37 253
37 255
37 256
37 257
37 258
37 259
37 260
37 261
37 262
37 263
37 264
37 265
37 266
37 267
37 268
37 269
37 272
37 275
37 276
37 278
37 281
37 287
37 290
37 297
37 300
37 302
37 303
37 307
37 312
37 313
37 324
37 326
37 334
37 336
37 346
37 351
37 355
37 360
37 363
37 365
37 366
37 368
37 369
37 370
37 371
37 373
37 374
37 375
37 376
37 377
37 384
37 386
37 387
37 388
37 389
37 390
37 391
37 392
37 393
37 394
37 396
37 397
37 398
37 399
37 400
37 401
37 402
37 403
37 404
37 405
37 407
37 414
37 425
37 434
37 437
37 450
37 451
37 453
37 454
37 455
37 456
37 457
37 458
37 459
37 460
37 461
37 462
37 463
37 468
37 472
37 475
37 481
37 482
37 484
37 485
37 486
37 487
37 488
37 489
37 490
37 496
37 503
37 512
37 514
37 515
37 516
37 517
37 518
38 39
38 40
38 41
38 42
38 43
38 44
38 50
38 51
38 52
38 54
38 55
38 56
38 57
38 58
38 59
38 60
38 61
38 64
38 65
38 69
38 70
38 71
38 73
38 74
38 75
38 76
38 81
38 93
38 94
38 96
38 97
38 98
38 99
38 100
38 101
38 106
38 118
38 129
38 131
38 134
38 135
38 146
38 147
38 148
38 150
38 151
38 152
38 153
38 154
38 155
38 156
38 157
38 158
38 166
38 167
38 171
38 176
38 186
38 193
38 210
38 211
38 212
38 214
38 215
38 216
38 217
38 218
38 219
38 220
38 221
38 223
38 224
38 225
38 226
38 227
38 228
38 229
38 230
38 231
38 232
38 233
38 235
38 236
38 237
38 238
38 239
38 240
38 252
38 254
38 264
38 270
38 271
38 273
38 274
38 275
38 276
38 277
38 279
38 280
38 281
38 287
38 290
38 295
38 296
38 298
38 299
38 300
38 301
38 302
38 303
38 307
38 312
38 313
38 324
38 326
38 334
38 336
38 346
38 351
38 355
38 358
38 359
38 361
38 362
38 363
38 364
38 365
38 366
38 367
38 369
38 370
38 371
38 372
38 373
38 375
38 376
38 377
38 384
38 385
38 386
38 388
38 389
38 390
38 391
38 392
38 393
38 394
38 395
38 405
38 406
38 408
38 409
38 410
38 411
38 412
38 413
38 414
38 425
38 431
38 432
38 433
38 435
38 436
38 437
38 438
38 439
38 440
38 441
38 442
38 443
38 450
38 451
38 452
38 453
38 455
38 456
38 457
38 458
38 459
38 460
38 461
38 462
38 463
38 468
38 472
38 475
38 481
38 482
38 483
38 485
38 486
38 487
38 488
38 489
38 490
38 491
38 492
38 493
38 494
38 495
38 497
38 498
38 499
38 500
38 501
38 502
38 503
38 504
38 505
38 506
38 507
38 508
38 509
38 510
38 511
38 512
38 513
38 518
39 40
39 41
39 42
39 43
39 44
39 50
39 53
39 60
39 61
39 62
39 63
39 65
39 66
39 67
39 68
39 69
39 72
39 75
39 76
39 77
39 78
39 79
39 80
39 82
39 83
39 84
39 85
39 86
39 87
39 88
39 89
39 90
39 91
39 92
39 93
39 94
39 95
39 97
39 98
39 99
39 100
39 101
39 106
39 118
39 129
39 130
39 131
39 132
39 133
39 135
39 136
39 137
39 138
39 139
39 140
39 141
39 142
39 143
39 144
39 145
39 146
39 147
39 148
39 149
39 151
39 152
39 153
39 154
39 155
39 156
39 157
39 158
39 166
39 167
39 171
39 176
39 186
39 193
39 210
39 211
39 213
39 214
39 216
39 218
39 222
39 225
39 234
39 252
39 254
39 264
39 272
39 275
39 276
39 278
39 281
39 287
39 290
39 297
39 300
39 302
39 303
39 304
39 305
39 306
39 308
39 309
39 310
39 311
39 312
39 313
39 325
39 326
39 327
39 328
39 329
39 330
39 331
39 332
39 333
39 334
39 335
39 336
39 346
39 351
39 355
39 360
39 363
39 365
39 366
39 367
39 368
39 371
39 372
39 374
39 377
39 384
39 385
39 387
39 394
39 395
39 405
39 407
39 414
39 425
39 434
39 437
39 450
39 451
39 452
39 453
39 454
39 456
39 457
39 458
39 459
39 460
39 461
39 462
39 463
39 464
39 465
39 466
39 467
39 469
39 470
39 471
39 472
39 473
39 474
39 475
39 481
39 482
39 483
39 484
39 496
39 503
39 512
39 513
39 518
40 41
40 42
40 43
40 44
40 50
40 53
40 60
40 61
40 62
40 63
40 64
40 66
40 67
40 68
40 69
40 72
40 75
40 76
40 81
40 93
40 95
40 96
40 98
40 100
40 101
40 102
40 103
40 104
40 105
40 107
40 108
40 109
40 110
40 111
40 112
40 113
40 114
40 115
40 116
40 117
40 118
40 129
40 130
40 131
40 132
40 133
40 134
40 136
40 137
40 138
40 139
40 140
40 141
40 142
40 143
40 144
40 145
40 146
40 149
40 150
40 152
40 166
40 167
40 168
40 169
40 170
40 172
40 173
40 174
40 175
40 176
40 186
40 193
40 210
40 211
40 212
40 213
40 215
40 216
40 217
40 218
40 222
40 225
40 234
40 252
40 254
40 264
40 272
40 275
40 276
40 278
40 281
40 287
40 290
40 297
40 300
40 302
40 303
40 307
40 312
40 313
40 324
40 325
40 327
40 328
40 329
40 330
40 331
40 332
40 333
40 334
40 335
40 336
40 346
40 347
40 348
40 349
40 350
40 352
40 353
40 354
40 355
40 356
40 357
40 360
40 363
40 365
40 366
40 367
40 368
40 371
40 372
40 374
40 377
40 384
40 385
40 387
40 394
40 395
40 405
40 407
40 414
40 425
40 434
40 437
40 450
40 451
40 452
40 453
40 454
40 455
40 457
40 458
40 459
40 460
40 461
40 462
40 463
40 468
40 472
40 475
40 481
40 482
40 483
40 484
40 496
40 503
40 512
40 513
40 518
41 42
41 43
41 44
41 50
41 53
41 60
41 61
41 64
41 65
41 69
41 72
41 75
41 76
41 81
41 93
41 94
41 95
41 96
41 97
41 99
41 100
41 101
41 106
41 118
41 129
41 131
41 134
41 135
41 146
41 147
41 148
41 149
41 150
41 151
41 153
41 154
41 155
41 156
41 157
41 158
41 166
41 167
41 171
41 176
41 186
41 193
41 210
41 211
41 212
41 213
41 214
41 215
41 217
41 218
41 219
41 220
41 221
41 222
41 223
41 224
41 226
41 227
41 228
41 229
41 230
41 231
41 234
41 252
41 254
41 264
41 272
41 275
41 276
41 278
41 281
41 282
41 283
41 284
41 285
41 286
41 288
41 289
41 290
41 291
41 292
41 293
41 294
41 295
41 296
41 297
41 298
41 299
41 301
41 302
41 303
41 307
41 312
41 313
41 324
41 325
41 326
41 327
41 328
41 329
41 330
41 331
41 332
41 333
41 335
41 336
41 346
41 351
41 355
41 358
41 359
41 360
41 361
41 362
41 364
41 365
41 366
41 367
41 368
41 371
41 372
41 374
41 377
41 384
41 385
41 387
41 394
41 395
41 405
41 407
41 414
41 425
41 431
41 432
41 433
41 434
41 435
41 436
41 438
41 439
41 440
41 441
41 442
41 443
41 450
41 451
41 452
41 453
41 454
41 455
41 456
41 458
41 459
41 460
41 461
41 462
41 463
41 468
41 472
41 475
41 481
41 482
41 483
41 484
41 496
41 503
41 512
41 513
41 518
42 43
42 44
42 50
42 53
42 60
42 61
42 64
42 65
42 69
42 72
42 75
42 76
42 81
42 93
42 95
42 96
42 98
42 100
42 101
42 106
42 118
42 129
42 131
42 134
42 135
42 146
42 149
42 150
42 152
42 166
42 167
42 171
42 176
42 186
42 187
42 188
42 189
42 190
42 191
42 192
42 194
42 195
42 196
42 197
42 198
42 199
42 200
42 201
42 202
42 203
42 204
42 205
42 206
42 207
42 208
42 209
42 210
42 211
42 213
42 214
42 216
42 218
42 222
42 225
42 234
42 252
42 253
42 254
42 255
42 256
42 257
42 258
42 259
42 260
42 261
42 262
42 263
42 265
42 266
42 267
42 268
42 269
42 272
42 275
42 276
42 278
42 281
42 282
42 283
42 284
42 285
42 286
42 287
42 288
42 289
42 291
42 292
42 293
42 294
42 297
42 300
42 302
42 303
42 307
42 312
42 313
42 324
42 326
42 334
42 336
42 346
42 347
42 348
42 349
42 350
42 351
42 352
42 353
42 354
42 356
42 357
42 360
42 363
42 365
42 366
42 367
42 368
42 371
42 372
42 374
42 377
42 384
42 385
42 387
42 394
42 395
42 405
42 407
42 414
42 415
42 416
42 417
42 418
42 419
42 420
42 421
42 422
42 423
42 424
42 426
42 427
42 428
42 429
42 430
42 434
42 437
42 450
42 451
42 452
42 454
42 455
42 456
42 457
42 464
42 465
42 466
42 467
42 468
42 469
42 470
42 471
42 473
42 474
42 475
42 481
42 482
42 483
42 484
42 491
42 492
42 493
42 494
42 495
42 496
42 497
42 498
42 499
42 500
42 501
42 502
42 504
42 505
42 506
42 507
42 508
42 509
42 510
42 511
42 512
42 513
42 518
43 44
43 45
43 46
43 47
43 48
43 49
43 53
43 60
43 61
43 62
43 63
43 64
43 65
43 66
43 67
43 68
43 70
43 71
43 72
43 73
43 74
43 76
43 81
43 93
43 94
43 95
43 96
43 97
43 98
43 99
43 101
43 106
43 118
43 129
43 131
43 134
43 135
43 146
43 149
43 150
43 152
43 159
43 160
43 161
43 162
43 163
43 164
43 165
43 167
43 168
43 169
43 170
43 171
43 172
43 173
43 174
43 175
43 177
43 178
43 179
43 180
43 181
43 182
43 183
43 184
43 185
43 187
43 188
43 189
43 190
43 191
43 192
43 193
43 194
43 195
43 196
43 197
43 198
43 199
43 200
43 201
43 202
43 203
43 204
43 205
43 206
43 207
43 208
43 209
43 211
43 212
43 213
43 214
43 215
43 216
43 217
43 222
43 225
43 234
43 241
43 242
43 243
43 244
43 245
43 246
43 247
43 248
43 249
43 250
43 251
43 254
43 264
43 270
43 271
43 272
43 273
43 274
43 276
43 277
43 278
43 279
43 280
43 287
43 290
43 295
43 296
43 297
43 298
43 299
43 300
43 301
43 303
43 304
43 305
43 306
43 307
43 308
43 309
43 310
43 311
43 313
43 324
43 325
43 326
43 327
43 328
43 329
43 330
43 331
43 332
43 333
43 334
43 335
43 337
43 338
43 339
43 340
43 341
43 342
43 343
43 344
43 345
43 351
43 355
43 358
43 359
43 360
43 361
43 362
43 363
43 364
43 366
43 367
43 368
43 369
43 370
43 372
43 373
43 374
43 375
43 376
43 378
43 379
43 380
43 381
43 382
43 383
43 385
43 387
43 394
43 395
43 405
43 407
43 414
43 425
43 434
43 437
43 444
43 445
43 446
43 447
43 448
43 449
43 451
43 452
43 454
43 455
43 456
43 457
43 468
43 472
43 475
43 476
43 477
43 478
43 479
43 480
43 482
43 483
43 484
43 496
43 503
43 512
43 513
43 514
43 515
43 516
43 517
44 45
44 46
44 47
44 48
44 49
44 50
44 55
44 60
44 62
44 63
44 64
44 65
44 66
44 67
44 68
44 69
44 73
44 75
44 77
44 90
44 100
44 102
44 103
44 104
44 105
44 106
44 107
44 108
44 109
44 110
44 111
44 112
44 113
44 114
44 115
44 116
44 117
44 119
44 120
44 121
44 122
44 123
44 124
44 125
44 126
44 127
44 128
44 129
44 130
44 132
44 133
44 134
44 135
44 136
44 137
44 138
44 139
44 140
44 141
44 142
44 143
44 144
44 145
44 148
44 157
44 161
44 162
44 164
44 166
44 168
44 169
44 170
44 171
44 172
44 173
44 174
44 175
44 176
44 186
44 202
44 210
44 212
44 213
44 214
44 215
44 216
44 217
44 218
44 220
44 233
44 236
44 243
44 244
44 252
44 253
44 255
44 256
44 257
44 258
44 259
44 260
44 261
44 262
44 263
44 264
44 265
44 266
44 267
44 268
44 269
44 271
44 273
44 275
44 279
44 281
44 284
44 285
44 288
44 302
44 312
44 318
44 336
44 338
44 340
44 346
44 352
44 359
44 365
44 366
44 368
44 369
44 370
44 371
44 373
44 374
44 375
44 376
44 377
44 379
44 381
44 382
44 384
44 386
44 387
44 388
44 389
44 390
44 391
44 392
44 393
44 394
44 396
44 397
44 398
44 399
44 400
44 401
44 402
44 403
44 404
44 409
44 416
44 418
44 433
44 442
44 448
44 450
44 451
44 453
44 454
44 455
44 456
44 457
44 458
44 459
44 460
44 461
44 462
44 463
44 465
44 467
44 469
44 479
44 481
44 482
44 484
44 485
44 486
44 487
44 488
44 489
44 490
44 493
44 494
44 512
44 514
44 515
44 516
44 517
44 518
45 46
45 47
45 48
45 49
45 50
45 55
45 61
45 63
45 69
45 73
45 75
45 76
45 78
45 79
45 80
45 81
45 82
45 83
45 84
45 85
45 86
45 87
45 88
45 89
45 90
45 91
45 92
45 100
45 101
45 103
45 104
45 105
45 106
45 107
45 108
45 109
45 110
45 111
45 112
45 113
45 114
45 115
45 116
45 117
45 118
45 120
45 121
45 122
45 123
45 124
45 125
45 126
45 127
45 128
45 131
45 133
45 148
45 157
45 161
45 162
45 164
45 166
45 167
45 169
45 170
45 171
45 172
45 173
45 174
45 175
45 176
45 186
45 202
45 210
45 211
45 213
45 214
45 215
45 216
45 217
45 218
45 219
45 221
45 222
45 223
45 224
45 225
45 226
45 227
45 228
45 229
45 230
45 231
45 232
45 234
45 235
45 236
45 237
45 238
45 239
45 240
45 243
45 244
45 252
45 254
45 267
45 270
45 272
45 273
45 274
45 275
45 279
45 281
45 284
45 285
45 288
45 302
45 312
45 318
45 336
45 337
45 339
45 340
45 341
45 342
45 343
45 344
45 345
45 346
45 352
45 358
45 360
45 361
45 362
45 363
45 364
45 365
45 367
45 369
45 371
45 372
45 374
45 375
45 376
45 377
45 378
45 380
45 381
45 382
45 383
45 384
45 385
45 387
45 388
45 389
45 390
45 391
45 392
45 393
45 395
45 397
45 399
45 409
45 414
45 415
45 417
45 418
45 419
45 420
45 421
45 422
45 423
45 424
45 425
45 426
45 427
45 428
45 429
45 430
45 433
45 442
45 448
45 450
45 452
45 464
45 466
45 467
45 468
45 469
45 470
45 471
45 472
45 473
45 474
45 479
45 481
45 483
45 486
45 493
45 494
45 513
45 515
45 516
45 518
46 47
46 48
46 49
46 50
46 55
46 60
46 61
46 62
46 64
46 65
46 66
46 67
46 68
46 69
46 73
46 75
46 77
46 90
46 100
46 101
46 102
46 103
46 105
46 106
46 107
46 108
46 109
46 110
46 111
46 112
46 113
46 114
46 115
46 116
46 117
46 118
46 119
46 121
46 122
46 123
46 124
46 125
46 126
46 127
46 128
46 129
46 130
46 131
46 132
46 134
46 135
46 136
46 137
46 138
46 139
46 140
46 141
46 142
46 143
46 144
46 145
46 148
46 157
46 159
46 160
46 162
46 163
46 164
46 165
46 166
46 167
46 168
46 170
46 171
46 172
46 173
46 174
46 175
46 176
46 186
46 202
46 210
46 211
46 212
46 218
46 220
46 233
46 236
46 241
46 242
46 244
46 245
46 246
46 247
46 248
46 249
46 250
46 251
46 252
46 254
46 267
46 271
46 273
46 275
46 279
46 281
46 282
46 283
46 285
46 286
46 287
46 288
46 289
46 290
46 291
46 292
46 293
46 294
46 302
46 312
46 318
46 336
46 338
46 340
46 346
46 352
46 359
46 365
46 367
46 369
46 371
46 372
46 373
46 375
46 377
46 379
46 381
46 382
46 384
46 385
46 386
46 389
46 394
46 395
46 396
46 398
46 399
46 400
46 401
46 402
46 403
46 404
46 409
46 416
46 418
46 431
46 432
46 434
46 435
46 436
46 437
46 438
46 439
46 440
46 441
46 442
46 443
46 448
46 450
46 452
46 465
46 467
46 469
46 479
46 481
46 483
46 486
46 491
46 492
46 494
46 495
46 496
46 497
46 498
46 499
46 500
46 501
46 502
46 503
46 504
46 505
46 506
46 507
46 508
46 509
46 510
46 511
46 512
46 513
46 514
46 516
46 517
46 518
47 48
47 49
47 50
47 55
47 61
47 63
47 69
47 73
47 75
47 77
47 90
47 100
47 101
47 102
47 103
47 104
47 106
47 107
47 108
47 109
47 110
47 111
47 112
47 113
47 114
47 115
47 116
47 117
47 118
47 119
47 120
47 122
47 123
47 124
47 125
47 126
47 127
47 128
47 131
47 133
47 146
47 147
47 149
47 150
47 151
47 152
47 153
47 154
47 155
47 156
47 157
47 158
47 159
47 160
47 161
47 163
47 164
47 165
47 166
47 167
47 168
47 169
47 171
47 172
47 173
47 174
47 175
47 176
47 186
47 202
47 210
47 211
47 212
47 218
47 220
47 233
47 236
47 241
47 242
47 243
47 245
47 246
47 247
47 248
47 249
47 250
47 251
47 252
47 254
47 267
47 271
47 273
47 275
47 279
47 281
47 282
47 283
47 284
47 286
47 287
47 288
47 289
47 290
47 291
47 292
47 293
47 294
47 302
47 312
47 318
47 336
47 337
47 338
47 339
47 341
47 342
47 343
47 344
47 345
47 346
47 352
47 359
47 365
47 367
47 369
47 371
47 372
47 373
47 375
47 377
47 378
47 379
47 380
47 382
47 383
47 384
47 385
47 386
47 389
47 395
47 397
47 399
47 409
47 414
47 415
47 416
47 417
47 419
47 420
47 421
47 422
47 423
47 424
47 425
47 426
47 427
47 428
47 429
47 430
47 433
47 442
47 448
47 450
47 452
47 464
47 465
47 466
47 468
47 469
47 470
47 471
47 472
47 473
47 474
47 479
47 481
47 483
47 486
47 491
47 492
47 493
47 495
47 496
47 497
47 498
47 499
47 500
47 501
47 502
47 503
47 504
47 505
47 506
47 507
47 508
47 509
47 510
47 511
47 513
47 515
47 516
47 518
48 49
48 50
48 51
48 52
48 53
48 54
48 56
48 57
48 58
48 59
48 61
48 63
48 69
48 70
48 71
48 72
48 74
48 75
48 77
48 90
48 100
48 101
48 102
48 104
48 105
48 118
48 119
48 120
48 121
48 122
48 124
48 125
48 126
48 127
48 128
48 131
48 133
48 148
48 157
48 159
48 160
48 161
48 162
48 163
48 165
48 166
48 167
48 168
48 169
48 170
48 176
48 186
48 202
48 210
48 211
48 212
48 218
48 220
48 232
48 233
48 234
48 235
48 237
48 238
48 239
48 240
48 243
48 244
48 252
48 254
48 267
48 270
48 271
48 272
48 274
48 275
48 276
48 277
48 278
48 280
48 281
48 282
48 283
48 284
48 285
48 286
48 287
48 289
48 290
48 291
48 292
48 293
48 294
48 302
48 312
48 313
48 314
48 315
48 316
48 317
48 319
48 320
48 321
48 322
48 323
48 336
48 338
48 340
48 346
48 347
48 348
48 349
48 350
48 351
48 353
48 354
48 355
48 356
48 357
48 359
48 365
48 366
48 367
48 368
48 370
48 371
48 372
48 373
48 374
48 376
48 377
48 378
48 379
48 380
48 381
48 383
48 384
48 385
48 386
48 387
48 388
48 390
48 391
48 392
48 393
48 394
48 395
48 396
48 397
48 398
48 400
48 401
48 402
48 403
48 404
48 405
48 406
48 407
48 408
48 410
48 411
48 412
48 413
48 416
48 418
48 433
48 442
48 444
48 445
48 446
48 447
48 449
48 450
48 452
48 464
48 465
48 466
48 467
48 468
48 470
48 471
48 472
48 473
48 474
48 475
48 476
48 477
48 478
48 480
48 481
48 482
48 483
48 484
48 485
48 487
48 488
48 489
48 490
48 493
48 494
48 512
48 513
48 514
48 515
48 517
48 518
49 50
49 55
49 61
49 63
49 69
49 73
49 75
49 76
49 77
49 78
49 79
49 80
49 81
49 82
49 83
49 84
49 85
49 86
49 87
49 88
49 89
49 91
49 92
49 100
49 101
49 102
49 104
49 105
49 118
49 119
49 120
49 121
49 123
49 131
49 133
49 146
49 147
49 148
49 149
49 150
49 151
49 152
49 153
49 154
49 155
49 156
49 158
49 161
49 162
49 164
49 166
49 167
49 168
49 169
49 170
49 176
49 186
49 187
49 188
49 189
49 190
49 191
49 192
49 193
49 194
49 195
49 196
49 197
49 198
49 199
49 200
49 201
49 203
49 204
49 205
49 206
49 207
49 208
49 209
49 210
49 211
49 212
49 218
49 220
49 233
49 236
49 243
49 244
49 252
49 253
49 254
49 255
49 256
49 257
49 258
49 259
49 260
49 261
49 262
49 263
49 264
49 265
49 266
49 268
49 269
49 271
49 273
49 275
49 279
49 281
49 284
49 285
49 288
49 302
49 312
49 318
49 336
49 338
49 340
49 346
49 352
49 359
49 365
49 367
49 369
49 371
49 372
49 373
49 375
49 377
49 379
49 381
49 382
49 384
49 385
49 386
49 389
49 395
49 397
49 399
49 409
49 416
49 418
49 431
49 432
49 433
49 434
49 435
49 436
49 437
49 438
49 439
49 440
49 441
49 443
49 448
49 450
49 452
49 465
49 467
49 469
49 479
49 481
49 483
49 486
49 493
49 494
49 513
49 515
49 516
49 518
50 55
50 60
50 61
50 62
50 63
50 64
50 65
50 66
50 67
50 68
50 70
50 71
50 72
50 73
50 74
50 77
50 90
50 93
50 94
50 95
50 96
50 97
50 98
50 99
50 101
50 102
50 104
50 105
50 118
50 119
50 120
50 121
50 123
50 131
50 133
50 148
50 157
50 159
50 160
50 161
50 162
50 163
50 164
50 165
50 167
50 168
50 169
50 170
50 171
50 172
50 173
50 174
50 175
50 177
50 178
50 179
50 180
50 181
50 182
50 183
50 184
50 185
50 187
50 188
50 189
50 190
50 191
50 192
50 193
50 194
50 195
50 196
50 197
50 198
50 199
50 200
50 201
50 202
50 203
50 204
50 205
50 206
50 207
50 208
50 209
50 211
50 212
50 213
50 214
50 215
50 216
50 217
50 220
50 233
50 236
50 241
50 242
50 243
50 244
50 245
50 246
50 247
50 248
50 249
50 250
50 251
50 254
50 267
50 270
50 271
50 272
50 273
50 274
50 276
50 277
50 278
50 279
50 280
50 284
50 285
50 288
50 295
50 296
50 297
50 298
50 299
50 300
50 301
50 303
50 304
50 305
50 306
50 307
50 308
50 309
50 310
50 311
50 318
50 324
50 325
50 326
50 327
50 328
50 329
50 330
50 331
50 332
50 333
50 334
50 335
50 337
50 338
50 339
50 340
50 341
50 342
50 343
50 344
50 345
50 352
50 358
50 359
50 360
50 361
50 362
50 363
50 364
50 366
50 367
50 368
50 369
50 370
50 372
50 373
50 374
50 375
50 376
50 378
50 379
50 380
50 381
50 382
50 383
50 385
50 386
50 389
50 395
50 397
50 399
50 409
50 416
50 418
50 433
50 442
50 444
50 445
50 446
50 447
50 448
50 449
50 452
50 465
50 467
50 469
50 475
50 476
50 477
50 478
50 479
50 480
50 483
50 486
50 493
50 494
50 512
50 513
50 514
50 515
50 516
50 517
51 52
51 53
51 54
51 55
51 56
51 57
51 58
51 59
51 67
51 68
51 71
51 72
51 73
51 74
51 75
51 78
51 86
51 94
51 95
51 103
51 108
51 123
51 128
51 129
51 131
51 132
51 133
51 134
51 135
51 136
51 137
51 138
51 139
51 140
51 141
51 142
51 143
51 144
51 145
51 147
51 149
51 154
51 155
51 164
51 173
51 175
51 178
51 179
51 180
51 181
51 182
51 183
51 184
51 185
51 186
51 188
51 191
51 197
51 209
51 213
51 220
51 221
51 222
51 223
51 224
51 225
51 226
51 227
51 228
51 229
51 230
51 231
51 233
51 234
51 235
51 236
51 237
51 238
51 239
51 240
51 248
51 251
51 254
51 255
51 256
51 257
51 258
51 259
51 260
51 261
51 262
51 263
51 264
51 265
51 266
51 267
51 268
51 269
51 271
51 272
51 273
51 274
51 275
51 277
51 278
51 279
51 288
51 294
51 296
51 297
51 298
51 299
51 300
51 301
51 302
51 304
51 314
51 318
51 320
51 323
51 331
51 335
51 338
51 339
51 340
51 341
51 342
51 343
51 344
51 345
51 346
51 348
51 349
51 350
51 351
51 352
51 353
51 354
51 355
51 356
51 357
51 359
51 360
51 361
51 362
51 363
51 364
51 365
51 368
51 369
51 374
51 375
51 379
51 380
51 381
51 382
51 383
51 384
51 387
51 389
51 392
51 393
51 399
51 404
51 406
51 407
51 409
51 411
51 412
51 413
51 414
51 416
51 417
51 418
51 419
51 420
51 421
51 422
51 423
51 424
51 425
51 426
51 427
51 428
51 429
51 430
51 432
51 433
51 434
51 435
51 436
51 437
51 438
51 439
51 440
51 441
51 442
51 443
51 445
51 446
51 447
51 448
51 449
51 450
51 454
51 460
51 465
51 466
51 467
51 468
51 469
51 470
51 471
51 472
51 473
51 474
51 476
51 479
51 484
51 486
51 489
51 490
51 496
51 499
51 516
52 53
52 54
52 55
52 56
52 57
52 58
52 59
52 67
52 68
52 70
52 72
52 73
52 74
52 75
52 76
52 77
52 79
52 80
52 81
52 82
52 83
52 84
52 85
52 86
52 87
52 88
52 89
52 90
52 91
52 92
52 93
52 95
52 96
52 97
52 98
52 99
52 100
52 101
52 102
52 104
52 105
52 106
52 107
52 108
52 109
52 110
52 111
52 112
52 113
52 114
52 115
52 116
52 117
52 123
52 128
52 130
52 137
52 146
52 148
52 149
52 150
52 151
52 152
52 153
52 154
52 155
52 156
52 157
52 158
52 164
52 173
52 175
52 177
52 179
52 180
52 181
52 182
52 183
52 184
52 185
52 186
52 188
52 191
52 197
52 209
52 213
52 219
52 222
52 226
52 228
52 232
52 234
52 236
52 237
52 239
52 240
52 248
52 251
52 253
52 254
52 256
52 257
52 258
52 259
52 260
52 261
52 262
52 263
52 264
52 265
52 266
52 267
52 268
52 269
52 270
52 272
52 273
52 276
52 278
52 279
52 280
52 281
52 288
52 294
52 295
52 297
52 298
52 299
52 300
52 301
52 302
52 303
52 305
52 306
52 307
52 308
52 309
52 310
52 311
52 312
52 313
52 315
52 316
52 317
52 318
52 319
52 320
52 321
52 322
52 323
52 331
52 335
52 337
52 347
52 349
52 350
52 351
52 352
52 353
52 354
52 355
52 356
52 357
52 358
52 360
52 368
52 369
52 374
52 375
52 378
52 382
52 387
52 389
52 392
52 393
52 399
52 404
52 405
52 407
52 408
52 409
52 410
52 411
52 412
52 413
52 415
52 423
52 431
52 433
52 434
52 435
52 436
52 437
52 438
52 439
52 440
52 441
52 442
52 443
52 444
52 446
52 447
52 448
52 449
52 450
52 454
52 460
52 464
52 469
52 470
52 474
52 475
52 477
52 478
52 479
52 480
52 481
52 484
52 486
52 489
52 490
52 496
52 499
52 516
53 54
53 55
53 56
53 57
53 58
53 59
53 67
53 68
53 70
53 71
53 73
53 74
53 75
53 78
53 86
53 93
53 94
53 96
53 97
53 98
53 99
53 100
53 103
53 108
53 123
53 128
53 130
53 137
53 146
53 147
53 148
53 150
53 151
53 152
53 153
53 154
53 155
53 156
53 157
53 158
53 164
53 173
53 175
53 177
53 178
53 188
53 191
53 197
53 209
53 211
53 212
53 214
53 215
53 216
53 217
53 218
53 219
53 220
53 221
53 223
53 224
53 225
53 226
53 227
53 228
53 229
53 230
53 231
53 232
53 233
53 235
53 236
53 237
53 238
53 239
53 240
53 248
53 251
53 253
53 255
53 262
53 263
53 270
53 271
53 273
53 274
53 275
53 276
53 277
53 279
53 280
53 281
53 288
53 294
53 295
53 296
53 298
53 299
53 300
53 301
53 302
53 304
53 314
53 318
53 320
53 323
53 331
53 335
53 337
53 347
53 348
53 352
53 353
53 354
53 357
53 358
53 359
53 361
53 362
53 363
53 364
53 365
53 366
53 367
53 369
53 370
53 371
53 372
53 373
53 375
53 376
53 377
53 378
53 382
53 385
53 386
53 388
53 389
53 390
53 391
53 392
53 393
53 399
53 404
53 405
53 406
53 408
53 409
53 410
53 411
53 412
53 413
53 415
53 423
53 431
53 432
53 433
53 435
53 436
53 437
53 438
53 439
53 440
53 441
53 442
53 443
53 444
53 445
53 448
53 451
53 452
53 453
53 455
53 456
53 457
53 458
53 459
53 460
53 461
53 462
53 463
53 464
53 469
53 470
53 474
53 476
53 479
53 482
53 483
53 485
53 486
53 487
53 488
53 489
53 490
53 491
53 492
53 493
53 494
53 495
53 497
53 498
53 499
53 500
53 501
53 502
53 503
53 504
53 505
53 506
53 507
53 508
53 509
53 510
53 511
53 516
54 55
54 56
54 57
54 58
54 59
54 60
54 61
54 62
54 63
54 64
54 65
54 66
54 68
54 69
54 70
54 71
54 72
54 73
54 78
54 86
54 94
54 95
54 101
54 102
54 103
54 104
54 105
54 106
54 107
54 109
54 110
54 111
54 112
54 113
54 114
54 115
54 116
54 117
54 123
54 128
54 129
54 130
54 131
54 132
54 133
54 134
54 135
54 136
54 138
54 139
54 140
54 141
54 142
54 143
54 144
54 145
54 147
54 149
54 154
54 155
54 164
54 167
54 168
54 169
54 170
54 171
54 172
54 174
54 175
54 176
54 177
54 178
54 188
54 191
54 197
54 209
54 213
54 219
54 222
54 226
54 228
54 232
54 234
54 236
54 237
54 239
54 240
54 241
54 242
54 243
54 244
54 245
54 246
54 247
54 249
54 250
54 251
54 252
54 253
54 255
54 262
54 263
54 270
54 272
54 273
54 277
54 278
54 279
54 288
54 294
54 295
54 296
54 297
54 304
54 314
54 318
54 320
54 323
54 324
54 325
54 326
54 327
54 328
54 329
54 330
54 332
54 333
54 334
54 335
54 336
54 337
54 347
54 348
54 352
54 353
54 354
54 357
54 358
54 360
54 368
54 369
54 374
54 375
54 378
54 382
54 387
54 389
54 392
54 393
54 399
54 404
54 406
54 407
54 409
54 411
54 412
54 413
54 415
54 423
54 431
54 432
54 434
54 438
54 439
54 440
54 444
54 445
54 448
54 454
54 460
54 464
54 469
54 470
54 474
54 476
54 479
54 484
54 486
54 489
54 490
54 491
54 492
54 493
54 494
54 495
54 496
54 497
54 498
54 500
54 501
54 502
54 503
54 504
54 505
54 506
54 507
54 508
54 509
54 510
54 511
54 516
55 56
55 57
55 58
55 59
55 67
55 68
55 70
55 71
55 72
55 74
55 75
55 78
55 86
55 94
55 95
55 103
55 108
55 118
55 119
55 120
55 121
55 122
55 124
55 125
55 126
55 127
55 128
55 130
55 137
55 147
55 149
55 154
55 155
55 159
55 160
55 161
55 162
55 163
55 165
55 166
55 173
55 175
55 177
55 178
55 188
55 191
55 197
55 209
55 213
55 219
55 222
55 226
55 228
55 232
55 233
55 234
55 235
55 237
55 238
55 239
55 240
55 248
55 251
55 253
55 255
55 262
55 263
55 270
55 271
55 272
55 274
55 275
55 276
55 277
55 278
55 280
55 281
55 282
55 283
55 284
55 285
55 286
55 287
55 289
55 290
55 291
55 292
55 293
55 294
55 295
55 296
55 297
55 304
55 313
55 314
55 315
55 316
55 317
55 319
55 320
55 321
55 322
55 323
55 331
55 335
55 337
55 347
55 348
55 349
55 350
55 351
55 353
55 354
55 355
55 356
55 357
55 358
55 360
55 366
55 367
55 368
55 370
55 371
55 372
55 373
55 374
55 376
55 377
55 378
55 379
55 380
55 381
55 383
55 384
55 385
55 386
55 387
55 388
55 390
55 391
55 392
55 393
55 394
55 395
55 396
55 397
55 398
55 400
55 401
55 402
55 403
55 404
55 405
55 406
55 407
55 408
55 410
55 411
55 412
55 413
55 415
55 423
55 431
55 432
55 434
55 438
55 439
55 440
55 444
55 445
55 446
55 447
55 449
55 450
55 454
55 460
55 464
55 465
55 466
55 467
55 468
55 470
55 471
55 472
55 473
55 474
55 475
55 476
55 477
55 478
55 480
55 481
55 482
55 483
55 484
55 485
55 487
55 488
55 489
55 490
55 496
55 499
55 512
55 513
55 514
55 515
55 517
55 518
56 57
56 58
56 59
56 60
56 61
56 62
56 63
56 64
56 65
56 66
56 67
56 69
56 70
56 71
56 72
56 73
56 78
56 86
56 94
56 95
56 103
56 108
56 123
56 128
56 130
56 137
56 147
56 149
56 154
56 155
56 164
56 173
56 175
56 177
56 178
56 187
56 189
56 190
56 191
56 192
56 193
56 194
56 195
56 196
56 197
56 198
56 199
56 200
56 201
56 202
56 203
56 204
56 205
56 206
56 207
56 208
56 209
56 210
56 213
56 219
56 220
56 221
56 222
56 223
56 224
56 225
56 227
56 228
56 229
56 230
56 231
56 232
56 233
56 234
56 235
56 236
56 238
56 239
56 240
56 248
56 251
56 253
56 254
56 255
56 256
56 257
56 258
56 259
56 260
56 261
56 263
56 264
56 265
56 266
56 267
56 268
56 269
56 270
56 272
56 273
56 277
56 278
56 279
56 288
56 294
56 295
56 296
56 297
56 304
56 314
56 318
56 320
56 323
56 331
56 335
56 337
56 347
56 348
56 349
56 350
56 351
56 352
56 354
56 355
56 356
56 357
56 358
56 360
56 368
56 369
56 374
56 375
56 378
56 382
56 387
56 389
56 392
56 393
56 399
56 404
56 406
56 407
56 409
56 411
56 412
56 413
56 414
56 415
56 416
56 417
56 418
56 419
56 420
56 421
56 422
56 424
56 425
56 426
56 427
56 428
56 429
56 430
56 431
56 432
56 433
56 434
56 435
56 436
56 437
56 439
56 440
56 441
56 442
56 443
56 444
56 445
56 448
56 454
56 460
56 464
56 465
56 466
56 467
56 468
56 469
56 471
56 472
56 473
56 474
56 476
56 479
56 484
56 486
56 489
56 490
56 496
56 499
56 516
57 58
57 59
57 67
57 68
57 70
57 71
57 72
57 73
57 76
57 77
57 78
57 79
57 80
57 81
57 82
57 83
57 84
57 85
57 87
57 88
57 89
57 90
57 91
57 92
57 94
57 95
57 103
57 108
57 123
57 128
57 130
57 137
57 146
57 147
57 148
57 149
57 150
57 151
57 152
57 153
57 155
57 156
57 157
57 158
57 164
57 167
57 168
57 169
57 170
57 171
57 172
57 173
57 174
57 176
57 177
57 178
57 187
57 188
57 189
57 190
57 192
57 193
57 194
57 195
57 196
57 197
57 198
57 199
57 200
57 201
57 202
57 203
57 204
57 205
57 206
57 207
57 208
57 209
57 210
57 213
57 219
57 222
57 226
57 228
57 232
57 234
57 236
57 237
57 239
57 240
57 248
57 251
57 253
57 254
57 255
57 256
57 257
57 258
57 259
57 260
57 261
57 262
57 264
57 265
57 266
57 267
57 268
57 269
57 270
57 272
57 273
57 277
57 278
57 279
57 288
57 294
57 295
57 296
57 297
57 304
57 313
57 314
57 315
57 316
57 317
57 318
57 319
57 321
57 322
57 323
57 331
57 335
57 337
57 347
57 348
57 349
57 350
57 351
57 352
57 353
57 355
57 356
57 357
57 358
57 360
57 368
57 369
57 374
57 375
57 378
57 382
57 387
57 389
57 392
57 393
57 399
57 404
57 405
57 406
57 407
57 408
57 409
57 410
57 412
57 413
57 415
57 423
57 431
57 432
57 433
57 434
57 435
57 436
57 437
57 438
57 440
57 441
57 442
57 443
57 444
57 445
57 448
57 454
57 460
57 464
57 469
57 470
57 474
57 476
57 479
57 484
57 486
57 489
57 490
57 496
57 499
57 516
58 59
58 67
58 68
58 70
58 71
58 72
58 73
58 78
58 86
58 94
58 95
58 103
58 108
58 123
58 128
58 130
58 137
58 146
58 147
58 148
58 149
58 150
58 151
58 152
58 153
58 154
58 156
58 157
58 158
58 164
58 173
58 175
58 177
58 178
58 187
58 188
58 189
58 190
58 191
58 192
58 193
58 194
58 195
58 196
58 198
58 199
58 200
58 201
58 202
58 203
58 204
58 205
58 206
58 207
58 208
58 209
58 210
58 213
58 219
58 220
58 221
58 222
58 223
58 224
58 225
58 226
58 227
58 229
58 230
58 231
58 232
58 233
58 234
58 235
58 236
58 237
58 238
58 240
58 241
58 242
58 243
58 244
58 245
58 246
58 247
58 248
58 249
58 250
58 252
58 253
58 255
58 262
58 263
58 270
58 272
58 273
58 277
58 278
58 279
58 288
58 294
58 295
58 296
58 297
58 304
58 314
58 318
58 320
58 323
58 331
58 335
58 337
58 347
58 348
58 352
58 353
58 354
58 357
58 358
58 360
58 368
58 369
58 374
58 375
58 378
58 382
58 385
58 386
58 387
58 388
58 389
58 390
58 391
58 393
58 399
58 404
58 405
58 406
58 407
58 408
58 409
58 410
58 411
58 413
58 415
58 423
58 431
58 432
58 433
58 434
58 435
58 436
58 437
58 438
58 439
58 441
58 442
58 443
58 444
58 445
58 448
58 451
58 452
58 453
58 454
58 455
58 456
58 457
58 458
58 459
58 461
58 462
58 463
58 464
58 469
58 470
58 474
58 476
58 479
58 482
58 483
58 484
58 485
58 486
58 487
58 488
58 490
58 496
58 499
58 516
59 67
59 68
59 70
59 71
59 72
59 73
59 78
59 86
59 94
59 95
59 103
59 108
59 118
59 119
59 120
59 121
59 122
59 123
59 124
59 125
59 126
59 127
59 130
59 137
59 147
59 149
59 154
59 155
59 164
59 173
59 175
59 177
59 178
59 187
59 188
59 189
59 190
59 191
59 192
59 193
59 194
59 195
59 196
59 197
59 198
59 199
59 200
59 201
59 202
59 203
59 204
59 205
59 206
59 207
59 208
59 210
59 213
59 219
59 222
59 226
59 228
59 232
59 233
59 234
59 235
59 236
59 237
59 238
59 239
59 248
59 251
59 253
59 255
59 262
59 263
59 270
59 272
59 273
59 277
59 278
59 279
59 282
59 283
59 284
59 285
59 286
59 287
59 288
59 289
59 290
59 291
59 292
59 293
59 295
59 296
59 297
59 304
59 313
59 314
59 315
59 316
59 317
59 318
59 319
59 320
59 321
59 322
59 324
59 325
59 326
59 327
59 328
59 329
59 330
59 331
59 332
59 333
59 334
59 336
59 337
59 347
59 348
59 349
59 350
59 351
59 352
59 353
59 354
59 355
59 356
59 358
59 360
59 368
59 369
59 374
59 375
59 378
59 382
59 385
59 386
59 387
59 388
59 389
59 390
59 391
59 392
59 394
59 395
59 396
59 397
59 398
59 399
59 400
59 401
59 402
59 403
59 405
59 406
59 407
59 408
59 409
59 410
59 411
59 412
59 415
59 423
59 431
59 432
59 434
59 438
59 439
59 440
59 444
59 445
59 448
59 454
59 460
59 464
59 465
59 466
59 467
59 468
59 469
59 470
59 471
59 472
59 473
59 476
59 479
59 482
59 483
59 484
59 485
59 486
59 487
59 488
59 489
59 496
59 499
59 516
60 61
60 62
60 63
60 64
60 65
60 66
60 67
60 68
60 69
60 75
60 77
60 78
60 79
60 80
60 81
60 82
60 83
60 84
60 85
60 86
60 87
60 88
60 89
60 90
60 91
60 92
60 94
60 95
60 96
60 97
60 98
60 99
60 100
60 101
60 104
60 106
60 108
60 118
60 120
60 130
60 131
60 132
60 133
60 134
60 135
60 136
60 137
60 138
60 139
60 140
60 141
60 142
60 143
60 144
60 145
60 147
60 148
60 149
60 150
60 151
60 152
60 153
60 154
60 155
60 156
60 157
60 158
60 159
60 161
60 166
60 167
60 169
60 171
60 173
60 176
60 186
60 188
60 210
60 211
60 214
60 218
60 221
60 226
60 235
60 237
60 241
60 243
60 246
60 248
60 252
60 254
60 262
60 275
60 277
60 278
60 279
60 280
60 281
60 282
60 284
60 302
60 304
60 305
60 306
60 307
60 308
60 309
60 310
60 311
60 312
60 314
60 315
60 316
60 317
60 318
60 319
60 320
60 321
60 322
60 323
60 324
60 326
60 329
60 331
60 336
60 346
60 351
60 353
60 365
60 367
60 368
60 369
60 370
60 371
60 372
60 377
60 384
60 385
60 395
60 396
60 397
60 398
60 399
60 400
60 401
60 402
60 403
60 404
60 406
60 407
60 408
60 409
60 410
60 411
60 412
60 413
60 415
60 416
60 417
60 418
60 419
60 420
60 421
60 422
60 423
60 424
60 425
60 426
60 427
60 428
60 429
60 430
60 433
60 438
60 450
60 452
60 453
60 454
60 455
60 456
60 457
60 458
60 459
60 460
60 461
60 462
60 463
60 468
60 470
60 476
60 477
60 478
60 479
60 480
60 481
60 483
60 484
60 485
60 486
60 487
60 488
60 489
60 490
60 491
60 493
60 497
60 499
60 513
60 514
60 515
60 516
60 517
60 518
61 62
61 63
61 64
61 65
61 66
61 67
61 68
61 69
61 75
61 76
61 79
61 81
61 83
61 93
61 96
61 100
61 102
61 103
61 104
61 105
61 106
61 107
61 108
61 109
61 110
61 111
61 112
61 113
61 114
61 115
61 116
61 117
61 119
61 120
61 121
61 122
61 123
61 124
61 125
61 126
61 127
61 128
61 129
61 130
61 132
61 133
61 134
61 135
61 136
61 137
61 138
61 139
61 140
61 141
61 142
61 143
61 144
61 145
61 146
61 150
61 159
61 161
61 166
61 168
61 169
61 170
61 171
61 172
61 173
61 174
61 175
61 176
61 186
61 188
61 210
61 212
61 213
61 214
61 215
61 216
61 217
61 218
61 221
61 226
61 235
61 237
61 241
61 243
61 246
61 248
61 252
61 253
61 255
61 256
61 257
61 258
61 259
61 260
61 261
61 262
61 263
61 264
61 265
61 266
61 267
61 268
61 269
61 275
61 276
61 281
61 282
61 284
61 302
61 303
61 305
61 307
61 309
61 312
61 313
61 315
61 324
61 326
61 329
61 331
61 336
61 346
61 351
61 353
61 365
61 366
61 368
61 369
61 370
61 371
61 373
61 374
61 375
61 376
61 377
61 384
61 386
61 387
61 388
61 389
61 390
61 391
61 392
61 393
61 394
61 396
61 397
61 398
61 399
61 400
61 401
61 402
61 403
61 404
61 405
61 414
61 423
61 433
61 438
61 450
61 451
61 453
61 454
61 455
61 456
61 457
61 458
61 459
61 460
61 461
61 462
61 463
61 468
61 470
61 475
61 477
61 481
61 482
61 484
61 485
61 486
61 487
61 488
61 489
61 490
61 491
61 493
61 497
61 499
61 512
61 514
61 515
61 516
61 517
61 518
62 63
62 64
62 65
62 66
62 67
62 68
62 69
62 75
62 76
62 77
62 78
62 80
62 81
62 82
62 83
62 84
62 85
62 86
62 87
62 88
62 89
62 90
62 91
62 92
62 93
62 96
62 100
62 101
62 104
62 106
62 108
62 118
62 120
62 129
62 130
62 131
62 133
62 134
62 135
62 136
62 137
62 138
62 139
62 140
62 141
62 142
62 143
62 144
62 145
62 146
62 150
62 160
62 161
62 162
62 163
62 164
62 165
62 166
62 167
62 169
62 171
62 173
62 176
62 186
62 188
62 210
62 211
62 214
62 218
62 219
62 220
62 222
62 223
62 224
62 225
62 226
62 227
62 228
62 229
62 230
62 231
62 235
62 237
62 242
62 243
62 244
62 245
62 246
62 247
62 248
62 249
62 250
62 251
62 252
62 254
62 262
62 275
62 276
62 281
62 283
62 284
62 285
62 286
62 287
62 288
62 289
62 290
62 291
62 292
62 293
62 294
62 302
62 303
62 304
62 306
62 307
62 308
62 309
62 310
62 311
62 312
62 313
62 314
62 316
62 317
62 318
62 319
62 320
62 321
62 322
62 323
62 324
62 326
62 329
62 331
62 336
62 346
62 351
62 353
62 365
62 366
62 367
62 371
62 372
62 377
62 384
62 385
62 394
62 395
62 397
62 398
62 399
62 400
62 401
62 402
62 403
62 404
62 405
62 414
62 423
62 433
62 438
62 450
62 451
62 452
62 455
62 456
62 468
62 470
62 475
62 476
62 478
62 479
62 480
62 481
62 482
62 483
62 492
62 493
62 494
62 495
62 496
62 497
62 498
62 499
62 500
62 501
62 502
62 503
62 504
62 505
62 506
62 507
62 508
62 509
62 510
62 511
62 512
62 513
62 515
62 516
62 517
62 518
63 64
63 65
63 66
63 67
63 68
63 69
63 75
63 76
63 79
63 81
63 83
63 93
63 96
63 100
63 101
63 102
63 103
63 105
63 106
63 107
63 108
63 109
63 110
63 111
63 112
63 113
63 114
63 115
63 116
63 117
63 118
63 119
63 121
63 122
63 123
63 124
63 125
63 126
63 127
63 128
63 129
63 130
63 131
63 132
63 134
63 135
63 136
63 137
63 138
63 139
63 140
63 141
63 142
63 143
63 144
63 145
63 146
63 150
63 159
63 160
63 162
63 163
63 164
63 165
63 166
63 167
63 168
63 170
63 171
63 172
63 173
63 174
63 175
63 176
63 186
63 188
63 210
63 211
63 214
63 218
63 221
63 226
63 235
63 237
63 241
63 242
63 244
63 245
63 246
63 247
63 248
63 249
63 250
63 251
63 252
63 254
63 262
63 275
63 276
63 281
63 282
63 283
63 285
63 286
63 287
63 288
63 289
63 290
63 291
63 292
63 293
63 294
63 302
63 303
63 305
63 307
63 309
63 312
63 313
63 315
63 324
63 326
63 329
63 331
63 336
63 346
63 351
63 353
63 365
63 366
63 367
63 371
63 372
63 377
63 384
63 385
63 394
63 395
63 396
63 398
63 399
63 400
63 401
63 402
63 403
63 404
63 405
63 414
63 423
63 431
63 432
63 434
63 435
63 436
63 437
63 438
63 439
63 440
63 441
63 442
63 443
63 450
63 451
63 452
63 455
63 456
63 468
63 470
63 475
63 477
63 481
63 482
63 483
63 491
63 492
63 494
63 495
63 496
63 497
63 498
63 499
63 500
63 501
63 502
63 503
63 504
63 505
63 506
63 507
63 508
63 509
63 510
63 511
63 512
63 513
63 514
63 516
63 517
63 518
64 65
64 66
64 67
64 68
64 69
64 75
64 76
64 77
64 78
64 79
64 80
64 82
64 83
64 84
64 85
64 86
64 87
64 88
64 89
64 90
64 91
64 92
64 93
64 94
64 95
64 97
64 98
64 99
64 100
64 101
64 104
64 106
64 108
64 118
64 120
64 129
64 130
64 131
64 132
64 133
64 135
64 136
64 137
64 138
64 139
64 140
64 141
64 142
64 143
64 144
64 145
64 146
64 147
64 148
64 149
64 151
64 152
64 153
64 154
64 155
64 156
64 157
64 158
64 159
64 161
64 166
64 167
64 169
64 171
64 173
64 176
64 186
64 188
64 210
64 211
64 214
64 218
64 221
64 226
64 235
64 237
64 241
64 243
64 246
64 248
64 252
64 254
64 262
64 275
64 276
64 281
64 282
64 284
64 302
64 303
64 304
64 305
64 306
64 308
64 309
64 310
64 311
64 312
64 313
64 315
64 325
64 326
64 327
64 328
64 329
64 330
64 331
64 332
64 333
64 334
64 335
64 336
64 346
64 351
64 353
64 365
64 366
64 367
64 371
64 372
64 377
64 384
64 385
64 394
64 395
64 396
64 397
64 405
64 414
64 423
64 433
64 438
64 450
64 451
64 452
64 453
64 454
64 456
64 457
64 458
64 459
64 460
64 461
64 462
64 463
64 464
64 465
64 466
64 467
64 469
64 470
64 471
64 472
64 473
64 474
64 475
64 477
64 481
64 482
64 483
64 491
64 493
64 497
64 499
64 512
64 513
64 514
64 515
64 518
65 66
65 67
65 68
65 69
65 75
65 76
65 79
65 81
65 83
65 93
65 96
65 100
65 101
65 102
65 103
65 104
65 105
65 107
65 108
65 109
65 110
65 111
65 112
65 113
65 114
65 115
65 116
65 117
65 118
65 120
65 129
65 130
65 131
65 132
65 133
65 134
65 136
65 137
65 138
65 139
65 140
65 141
65 142
65 143
65 144
65 145
65 146
65 150
65 159
65 161
65 166
65 167
65 168
65 169
65 170
65 172
65 173
65 174
65 175
65 176
65 186
65 188
65 210
65 211
65 212
65 213
65 215
65 216
65 217
65 218
65 221
65 226
65 235
65 237
65 241
65 243
65 246
65 248
65 252
65 254
65 262
65 275
65 276
65 281
65 282
65 284
65 302
65 303
65 305
65 307
65 309
65 312
65 313
65 315
65 324
65 325
65 327
65 328
65 329
65 330
65 331
65 332
65 333
65 334
65 335
65 336
65 346
65 347
65 348
65 349
65 350
65 352
65 353
65 354
65 355
65 356
65 357
65 365
65 366
65 367
65 371
65 372
65 377
65 384
65 385
65 394
65 395
65 396
65 397
65 405
65 414
65 423
65 433
65 438
65 450
65 451
65 452
65 453
65 454
65 455
65 457
65 458
65 459
65 460
65 461
65 462
65 463
65 468
65 470
65 475
65 477
65 481
65 482
65 483
65 491
65 493
65 497
65 499
65 512
65 513
65 514
65 515
65 518
66 67
66 68
66 69
66 75
66 76
66 77
66 78
66 79
66 80
66 81
66 82
66 84
66 85
66 86
66 87
66 88
66 89
66 90
66 91
66 92
66 93
66 96
66 100
66 101
66 104
66 106
66 108
66 118
66 120
66 129
66 130
66 131
66 132
66 133
66 134
66 135
66 137
66 138
66 139
66 140
66 141
66 142
66 143
66 144
66 145
66 146
66 150
66 159
66 161
66 166
66 167
66 169
66 171
66 173
66 176
66 186
66 188
66 210
66 211
66 214
66 218
66 221
66 226
66 232
66 233
66 234
66 236
66 237
66 238
66 239
66 240
66 241
66 242
66 243
66 244
66 245
66 247
66 248
66 249
66 250
66 251
66 252
66 254
66 262
66 275
66 276
66 281
66 282
66 284
66 302
66 303
66 304
66 305
66 306
66 307
66 308
66 310
66 311
66 312
66 313
66 315
66 324
66 325
66 326
66 327
66 328
66 330
66 331
66 332
66 333
66 334
66 335
66 336
66 346
66 351
66 353
66 365
66 366
66 367
66 371
66 372
66 377
66 384
66 385
66 394
66 395
66 396
66 397
66 405
66 414
66 423
66 433
66 438
66 450
66 451
66 452
66 455
66 456
66 468
66 470
66 475
66 477
66 481
66 482
66 483
66 491
66 492
66 493
66 494
66 495
66 496
66 498
66 499
66 500
66 501
66 502
66 503
66 504
66 505
66 506
66 507
66 508
66 509
66 510
66 511
66 512
66 513
66 514
66 515
66 518
67 68
67 69
67 75
67 76
67 79
67 81
67 83
67 93
67 96
67 100
67 101
67 102
67 103
67 104
67 105
67 106
67 107
67 109
67 110
67 111
67 112
67 113
67 114
67 115
67 116
67 117
67 118
67 120
67 129
67 130
67 131
67 132
67 133
67 134
67 135
67 136
67 138
67 139
67 140
67 141
67 142
67 143
67 144
67 145
67 146
67 150
67 159
67 161
67 166
67 167
67 168
67 169
67 170
67 171
67 172
67 174
67 175
67 176
67 186
67 188
67 210
67 211
67 214
67 218
67 221
67 226
67 235
67 237
67 241
67 242
67 243
67 244
67 245
67 246
67 247
67 249
67 250
67 251
67 252
67 254
67 262
67 275
67 276
67 281
67 282
67 284
67 302
67 303
67 305
67 307
67 309
67 312
67 313
67 315
67 324
67 325
67 326
67 327
67 328
67 329
67 330
67 332
67 333
67 334
67 335
67 336
67 346
67 351
67 353
67 365
67 366
67 367
67 371
67 372
67 377
67 384
67 385
67 394
67 395
67 396
67 397
67 405
67 414
67 423
67 433
67 438
67 450
67 451
67 452
67 455
67 456
67 468
67 470
67 475
67 477
67 481
67 482
67 483
67 491
67 492
67 493
67 494
67 495
67 496
67 497
67 498
67 500
67 501
67 502
67 503
67 504
67 505
67 506
67 507
67 508
67 509
67 510
67 511
67 512
67 513
67 514
67 515
67 518
68 69
68 75
68 76
68 79
68 81
68 83
68 93
68 96
68 100
68 101
68 104
68 106
68 108
68 118
68 120
68 129
68 131
68 132
68 133
68 134
68 135
68 136
68 137
68 146
68 150
68 159
68 161
68 166
68 167
68 169
68 171
68 173
68 176
68 186
68 187
68 189
68 190
68 191
68 192
68 193
68 194
68 195
68 196
68 197
68 198
68 199
68 200
68 201
68 202
68 203
68 204
68 205
68 206
68 207
68 208
68 209
68 210
68 211
68 214
68 218
68 219
68 220
68 221
68 222
68 223
68 224
68 225
68 227
68 228
68 229
68 230
68 231
68 232
68 233
68 234
68 235
68 236
68 238
68 239
68 240
68 241
68 243
68 246
68 248
68 252
68 253
68 254
68 255
68 256
68 257
68 258
68 259
68 260
68 261
68 263
68 264
68 265
68 266
68 267
68 268
68 269
68 275
68 276
68 281
68 282
68 284
68 302
68 303
68 305
68 307
68 309
68 312
68 313
68 315
68 324
68 326
68 329
68 331
68 336
68 346
68 347
68 348
68 349
68 350
68 351
68 352
68 354
68 355
68 356
68 357
68 365
68 366
68 367
68 371
68 372
68 377
68 384
68 385
68 394
68 395
68 396
68 397
68 405
68 414
68 415
68 416
68 417
68 418
68 419
68 420
68 421
68 422
68 424
68 425
68 426
68 427
68 428
68 429
68 430
68 431
68 432
68 433
68 434
68 435
68 436
68 437
68 439
68 440
68 441
68 442
68 443
68 450
68 451
68 452
68 455
68 456
68 464
68 465
68 466
68 467
68 468
68 469
68 471
68 472
68 473
68 474
68 475
68 477
68 481
68 482
68 483
68 491
68 493
68 497
68 499
68 512
68 513
68 514
68 515
68 518
69 70
69 71
69 72
69 73
69 74
69 76
69 79
69 81
69 83
69 93
69 94
69 95
69 96
69 97
69 98
69 99
69 101
69 104
69 106
69 108
69 118
69 120
69 129
69 131
69 132
69 133
69 134
69 135
69 136
69 137
69 146
69 150
69 159
69 160
69 161
69 162
69 163
69 164
69 165
69 167
69 168
69 169
69 170
69 171
69 172
69 173
69 174
69 175
69 177
69 178
69 179
69 180
69 181
69 182
69 183
69 184
69 185
69 187
69 188
69 189
69 190
69 191
69 192
69 193
69 194
69 195
69 196
69 197
69 198
69 199
69 200
69 201
69 202
69 203
69 204
69 205
69 206
69 207
69 208
69 209
69 211
69 212
69 213
69 214
69 215
69 216
69 217
69 221
69 226
69 235
69 237
69 241
69 242
69 243
69 244
69 245
69 246
69 247
69 248
69 249
69 250
69 251
69 254
69 262
69 270
69 271
69 272
69 273
69 274
69 276
69 277
69 278
69 279
69 280
69 282
69 284
69 295
69 296
69 297
69 298
69 299
69 300
69 301
69 303
69 304
69 305
69 306
69 307
69 308
69 309
69 310
69 311
69 313
69 315
69 324
69 325
69 326
69 327
69 328
69 329
69 330
69 331
69 332
69 333
69 334
69 335
69 337
69 338
69 339
69 340
69 341
69 342
69 343
69 344
69 345
69 351
69 353
69 358
69 359
69 360
69 361
69 362
69 363
69 364
69 366
69 367
69 368
69 369
69 370
69 372
69 373
69 374
69 375
69 376
69 378
69 379
69 380
69 381
69 382
69 383
69 385
69 394
69 395
69 396
69 397
69 405
69 414
69 423
69 433
69 438
69 444
69 445
69 446
69 447
69 448
69 449
69 451
69 452
69 455
69 456
69 468
69 470
69 475
69 476
69 477
69 478
69 479
69 480
69 482
69 483
69 491
69 493
69 497
69 499
69 512
69 513
69 514
69 515
69 516
69 517
70 71
70 72
70 73
70 74
70 75
70 78
70 94
70 95
70 100
70 103
70 116
70 123
70 129
70 131
70 132
70 133
70 134
70 135
70 136
70 137
70 138
70 139
70 140
70 141
70 142
70 143
70 144
70 145
70 147
70 149
70 164
70 166
70 176
70 178
70 179
70 180
70 181
70 182
70 183
70 184
70 185
70 186
70 205
70 210
70 213
70 218
70 220
70 221
70 222
70 223
70 224
70 225
70 226
70 227
70 228
70 229
70 230
70 231
70 233
70 234
70 235
70 236
70 237
70 238
70 239
70 240
70 252
70 254
70 255
70 256
70 257
70 258
70 259
70 260
70 261
70 262
70 263
70 264
70 265
70 266
70 267
70 268
70 269
70 271
70 272
70 273
70 274
70 275
70 277
70 278
70 279
70 281
70 288
70 296
70 297
70 298
70 299
70 300
70 301
70 302
70 304
70 312
70 314
70 318
70 336
70 338
70 339
70 340
70 341
70 342
70 343
70 344
70 345
70 346
70 348
70 349
70 350
70 351
70 352
70 353
70 354
70 355
70 356
70 357
70 359
70 360
70 361
70 362
70 363
70 364
70 365
70 368
70 369
70 371
70 374
70 375
70 377
70 379
70 380
70 381
70 382
70 383
70 384
70 387
70 389
70 399
70 406
70 407
70 409
70 414
70 416
70 417
70 418
70 419
70 420
70 421
70 422
70 423
70 424
70 425
70 426
70 427
70 428
70 429
70 430
70 432
70 433
70 434
70 435
70 436
70 437
70 438
70 439
70 440
70 441
70 442
70 443
70 445
70 446
70 447
70 448
70 449
70 450
70 454
70 465
70 466
70 467
70 468
70 469
70 470
70 471
70 472
70 473
70 474
70 476
70 479
70 481
70 484
70 486
70 496
70 509
70 516
70 518
71 72
71 73
71 74
71 75
71 76
71 77
71 79
71 80
71 81
71 82
71 83
71 84
71 85
71 86
71 87
71 88
71 89
71 90
71 91
71 92
71 93
71 95
71 96
71 97
71 98
71 99
71 100
71 101
71 102
71 104
71 105
71 106
71 107
71 108
71 109
71 110
71 111
71 112
71 113
71 114
71 115
71 116
71 117
71 123
71 130
71 145
71 146
71 148
71 149
71 150
71 151
71 152
71 153
71 154
71 155
71 156
71 157
71 158
71 164
71 166
71 176
71 177
71 179
71 180
71 181
71 182
71 183
71 184
71 185
71 186
71 205
71 210
71 213
71 218
71 219
71 222
71 232
71 234
71 236
71 252
71 253
71 254
71 256
71 257
71 258
71 259
71 260
71 261
71 262
71 263
71 264
71 265
71 266
71 267
71 268
71 269
71 270
71 272
71 273
71 275
71 276
71 278
71 279
71 280
71 281
71 288
71 295
71 297
71 298
71 299
71 300
71 301
71 302
71 303
71 305
71 306
71 307
71 308
71 309
71 310
71 311
71 312
71 313
71 315
71 316
71 317
71 318
71 319
71 320
71 321
71 322
71 323
71 336
71 337
71 346
71 347
71 349
71 350
71 351
71 352
71 353
71 354
71 355
71 356
71 357
71 358
71 360
71 365
71 368
71 369
71 371
71 374
71 375
71 377
71 378
71 382
71 384
71 387
71 389
71 399
71 405
71 407
71 408
71 409
71 410
71 411
71 412
71 413
71 415
71 431
71 433
71 434
71 435
71 436
71 437
71 438
71 439
71 440
71 441
71 442
71 443
71 444
71 446
71 447
71 448
71 449
71 450
71 454
71 464
71 469
71 475
71 477
71 478
71 479
71 480
71 481
71 484
71 486
71 496
71 509
71 516
71 518
72 73
72 74
72 75
72 78
72 93
72 94
72 96
72 97
72 98
72 99
72 100
72 103
72 116
72 123
72 130
72 145
72 146
72 147
72 148
72 150
72 151
72 152
72 153
72 154
72 155
72 156
72 157
72 158
72 164
72 166
72 176
72 177
72 178
72 186
72 205
72 210
72 211
72 212
72 214
72 215
72 216
72 217
72 218
72 219
72 220
72 221
72 223
72 224
72 225
72 226
72 227
72 228
72 229
72 230
72 231
72 232
72 233
72 235
72 236
72 237
72 238
72 239
72 240
72 252
72 253
72 255
72 270
72 271
72 273
72 274
72 275
72 276
72 277
72 279
72 280
72 281
72 288
72 295
72 296
72 298
72 299
72 300
72 301
72 302
72 304
72 312
72 314
72 318
72 336
72 337
72 346
72 347
72 348
72 352
72 358
72 359
72 361
72 362
72 363
72 364
72 365
72 366
72 367
72 369
72 370
72 371
72 372
72 373
72 375
72 376
72 377
72 378
72 382
72 384
72 385
72 386
72 388
72 389
72 390
72 391
72 392
72 393
72 399
72 405
72 406
72 408
72 409
72 410
72 411
72 412
72 413
72 415
72 431
72 432
72 433
72 435
72 436
72 437
72 438
72 439
72 440
72 441
72 442
72 443
72 444
72 445
72 448
72 450
72 451
72 452
72 453
72 455
72 456
72 457
72 458
72 459
72 460
72 461
72 462
72 463
72 464
72 469
72 476
72 479
72 481
72 482
72 483
72 485
72 486
72 487
72 488
72 489
72 490
72 491
72 492
72 493
72 494
72 495
72 497
72 498
72 499
72 500
72 501
72 502
72 503
72 504
72 505
72 506
72 507
72 508
72 509
72 510
72 511
72 516
72 518
73 74
73 75
73 78
73 94
73 95
73 100
73 103
73 116
73 118
73 119
73 120
73 121
73 122
73 124
73 125
73 126
73 127
73 128
73 130
73 145
73 147
73 149
73 159
73 160
73 161
73 162
73 163
73 165
73 166
73 176
73 177
73 178
73 186
73 205
73 210
73 213
73 218
73 219
73 222
73 232
73 233
73 234
73 235
73 237
73 238
73 239
73 240
73 252
73 253
73 255
73 270
73 271
73 272
73 274
73 275
73 276
73 277
73 278
73 280
73 281
73 282
73 283
73 284
73 285
73 286
73 287
73 289
73 290
73 291
73 292
73 293
73 294
73 295
73 296
73 297
73 302
73 304
73 312
73 313
73 314
73 315
73 316
73 317
73 319
73 320
73 321
73 322
73 323
73 336
73 337
73 346
73 347
73 348
73 349
73 350
73 351
73 353
73 354
73 355
73 356
73 357
73 358
73 360
73 365
73 366
73 367
73 368
73 370
73 371
73 372
73 373
73 374
73 376
73 377
73 378
73 379
73 380
73 381
73 383
73 384
73 385
73 386
73 387
73 388
73 390
73 391
73 392
73 393
73 394
73 395
73 396
73 397
73 398
73 400
73 401
73 402
73 403
73 404
73 405
73 406
73 407
73 408
73 410
73 411
73 412
73 413
73 415
73 431
73 432
73 434
73 444
73 445
73 446
73 447
73 449
73 450
73 454
73 464
73 465
73 466
73 467
73 468
73 470
73 471
73 472
73 473
73 474
73 475
73 476
73 477
73 478
73 480
73 481
73 482
73 483
73 484
73 485
73 487
73 488
73 489
73 490
73 496
73 509
73 512
73 513
73 514
73 515
73 517
73 518
74 75
74 78
74 94
74 95
74 100
74 101
74 102
74 103
74 104
74 105
74 106
74 107
74 108
74 109
74 110
74 111
74 112
74 113
74 114
74 115
74 117
74 123
74 129
74 130
74 131
74 132
74 133
74 134
74 135
74 136
74 137
74 138
74 139
74 140
74 141
74 142
74 143
74 144
74 147
74 149
74 164
74 166
74 176
74 177
74 178
74 186
74 187
74 188
74 189
74 190
74 191
74 192
74 193
74 194
74 195
74 196
74 197
74 198
74 199
74 200
74 201
74 202
74 203
74 204
74 206
74 207
74 208
74 209
74 210
74 213
74 218
74 219
74 222
74 232
74 234
74 236
74 252
74 253
74 255
74 270
74 272
74 273
74 275
74 277
74 278
74 279
74 281
74 288
74 295
74 296
74 297
74 302
74 304
74 312
74 314
74 318
74 336
74 337
74 346
74 347
74 348
74 352
74 358
74 360
74 365
74 368
74 369
74 371
74 374
74 375
74 377
74 378
74 382
74 384
74 387
74 389
74 399
74 406
74 407
74 409
74 415
74 431
74 432
74 434
74 444
74 445
74 448
74 450
74 454
74 464
74 469
74 476
74 479
74 481
74 484
74 486
74 491
74 492
74 493
74 494
74 495
74 496
74 497
74 498
74 499
74 500
74 501
74 502
74 503
74 504
74 505
74 506
74 507
74 508
74 510
74 511
74 516
74 518
75 78
75 93
75 94
75 95
75 96
75 97
75 98
75 99
75 103
75 116
75 123
75 130
75 145
75 147
75 149
75 159
75 160
75 161
75 162
75 163
75 164
75 165
75 167
75 168
75 169
75 170
75 171
75 172
75 173
75 174
75 175
75 177
75 178
75 179
75 180
75 181
75 182
75 183
75 184
75 185
75 187
75 188
75 189
75 190
75 191
75 192
75 193
75 194
75 195
75 196
75 197
75 198
75 199
75 200
75 201
75 202
75 203
75 204
75 205
75 206
75 207
75 208
75 209
75 211
75 212
75 213
75 214
75 215
75 216
75 217
75 219
75 222
75 232
75 234
75 236
75 241
75 242
75 243
75 244
75 245
75 246
75 247
75 248
75 249
75 250
75 251
75 253
75 255
75 270
75 271
75 272
75 273
75 274
75 276
75 277
75 278
75 279
75 280
75 288
75 295
75 296
75 297
75 298
75 299
75 300
75 301
75 303
75 304
75 305
75 306
75 307
75 308
75 309
75 310
75 311
75 314
75 318
75 324
75 325
75 326
75 327
75 328
75 329
75 330
75 331
75 332
75 333
75 334
75 335
75 337
75 338
75 339
75 340
75 341
75 342
75 343
75 344
75 345
75 347
75 348
75 352
75 358
75 359
75 360
75 361
75 362
75 363
75 364
75 366
75 367
75 368
75 369
75 370
75 372
75 373
75 374
75 375
75 376
75 378
75 379
75 380
75 381
75 382
75 383
75 387
75 389
75 399
75 406
75 407
75 409
75 415
75 431
75 432
75 434
75 444
75 445
75 446
75 447
75 448
75 449
75 454
75 464
75 469
75 475
75 476
75 477
75 478
75 479
75 480
75 484
75 486
75 496
75 509
75 512
75 513
75 514
75 515
75 516
75 517
76 77
76 78
76 79
76 80
76 81
76 82
76 83
76 84
76 85
76 86
76 87
76 88
76 89
76 90
76 91
76 92
76 94
76 95
76 96
76 97
76 98
76 99
76 100
76 102
76 103
76 119
76 122
76 130
76 131
76 132
76 133
76 134
76 135
76 136
76 137
76 138
76 139
76 140
76 141
76 142
76 143
76 144
76 145
76 147
76 148
76 149
76 150
76 151
76 152
76 153
76 154
76 155
76 156
76 157
76 158
76 159
76 163
76 168
76 175
76 178
76 180
76 182
76 184
76 187
76 191
76 192
76 196
76 198
76 202
76 203
76 207
76 212
76 217
76 220
76 221
76 233
76 235
76 241
76 245
76 246
76 250
76 255
76 257
76 259
76 261
76 263
76 265
76 267
76 269
76 271
76 274
76 277
76 278
76 279
76 280
76 281
76 282
76 286
76 289
76 293
76 296
76 299
76 304
76 305
76 306
76 307
76 308
76 309
76 310
76 311
76 312
76 314
76 315
76 316
76 317
76 318
76 319
76 320
76 321
76 322
76 323
76 324
76 328
76 329
76 333
76 338
76 345
76 348
76 350
76 354
76 356
76 359
76 364
76 367
76 368
76 369
76 370
76 371
76 373
76 376
76 379
76 383
76 386
76 388
76 395
76 396
76 397
76 398
76 399
76 400
76 401
76 402
76 403
76 404
76 406
76 407
76 408
76 409
76 410
76 411
76 412
76 413
76 415
76 416
76 417
76 418
76 419
76 420
76 421
76 422
76 423
76 424
76 425
76 426
76 427
76 428
76 429
76 430
76 432
76 436
76 439
76 442
76 445
76 447
76 452
76 453
76 454
76 455
76 456
76 457
76 458
76 459
76 460
76 461
76 462
76 463
76 465
76 468
76 476
76 477
76 478
76 479
76 480
76 481
76 483
76 484
76 485
76 486
76 487
76 488
76 489
76 490
76 491
76 495
76 497
76 501
76 502
76 506
76 507
76 511
76 513
76 514
76 515
76 516
76 517
76 518
77 78
77 79
77 80
77 81
77 82
77 83
77 84
77 85
77 86
77 87
77 88
77 89
77 90
77 91
77 92
77 93
77 94
77 96
77 97
77 101
77 103
77 104
77 105
77 106
77 107
77 108
77 109
77 110
77 111
77 112
77 113
77 114
77 115
77 116
77 117
77 118
77 120
77 121
77 122
77 123
77 124
77 125
77 126
77 127
77 128
77 129
77 132
77 134
77 136
77 138
77 140
77 142
77 144
77 146
77 147
77 150
77 151
77 153
77 154
77 156
77 157
77 159
77 163
77 167
77 169
77 170
77 171
77 172
77 173
77 174
77 175
77 176
77 178
77 180
77 182
77 184
77 187
77 191
77 192
77 196
77 198
77 202
77 203
77 207
77 211
77 213
77 214
77 215
77 216
77 217
77 218
77 219
77 221
77 222
77 223
77 224
77 225
77 226
77 227
77 228
77 229
77 230
77 231
77 232
77 234
77 235
77 236
77 237
77 238
77 239
77 240
77 241
77 245
77 246
77 250
77 255
77 257
77 259
77 261
77 263
77 265
77 267
77 269
77 270
77 272
77 273
77 274
77 275
77 276
77 277
77 282
77 286
77 289
77 293
77 296
77 299
77 303
77 304
77 305
77 306
77 307
77 308
77 309
77 310
77 313
77 314
77 315
77 316
77 319
77 320
77 321
77 322
77 324
77 328
77 329
77 333
77 337
77 339
77 340
77 341
77 342
77 343
77 344
77 345
77 346
77 348
77 350
77 354
77 356
77 358
77 360
77 361
77 362
77 363
77 364
77 365
77 366
77 372
77 374
77 375
77 376
77 377
77 378
77 380
77 381
77 382
77 383
77 384
77 385
77 387
77 388
77 389
77 390
77 391
77 392
77 393
77 394
77 396
77 400
77 402
77 405
77 406
77 410
77 411
77 414
77 415
77 417
77 418
77 419
77 420
77 421
77 422
77 423
77 424
77 425
77 426
77 427
77 428
77 429
77 430
77 432
77 436
77 439
77 442
77 445
77 447
77 451
77 455
77 458
77 461
77 464
77 466
77 467
77 468
77 469
77 470
77 471
77 472
77 473
77 474
77 475
77 476
77 477
77 478
77 482
77 487
77 491
77 495
77 497
77 501
77 502
77 506
77 507
77 511
77 512
77 514
78 79
78 80
78 81
78 82
78 83
78 84
78 85
78 86
78 87
78 88
78 89
78 90
78 91
78 92
78 93
78 95
78 96
78 97
78 98
78 99
78 100
78 101
78 102
78 104
78 105
78 106
78 107
78 108
78 109
78 110
78 111
78 112
78 113
78 114
78 115
78 116
78 117
78 119
78 122
78 129
78 132
78 134
78 136
78 138
78 140
78 142
78 144
78 146
78 148
78 149
78 150
78 151
78 152
78 153
78 154
78 155
78 156
78 157
78 158
78 159
78 163
78 168
78 175
78 177
78 179
78 180
78 181
78 182
78 183
78 184
78 185
78 186
78 187
78 191
78 192
78 196
78 198
78 202
78 203
78 207
78 212
78 217
78 220
78 221
78 233
78 235
78 241
78 245
78 246
78 250
78 253
78 254
78 256
78 257
78 258
78 259
78 260
78 261
78 262
78 263
78 264
78 265
78 266
78 267
78 268
78 269
78 271
78 274
78 276
78 278
78 279
78 280
78 281
78 282
78 286
78 289
78 293
78 295
78 297
78 298
78 299
78 300
78 301
78 302
78 303
78 305
78 306
78 307
78 308
78 309
78 310
78 311
78 312
78 313
78 315
78 316
78 317
78 318
78 319
78 320
78 321
78 322
78 323
78 324
78 328
78 329
78 333
78 338
78 345
78 347
78 349
78 350
78 351
78 352
78 353
78 354
78 355
78 356
78 357
78 359
78 364
78 366
78 373
78 376
78 379
78 383
78 386
78 388
78 394
78 396
78 400
78 402
78 405
78 407
78 408
78 409
78 410
78 411
78 412
78 413
78 414
78 416
78 431
78 433
78 434
78 435
78 436
78 437
78 438
78 439
78 440
78 441
78 442
78 443
78 444
78 446
78 447
78 448
78 449
78 450
78 451
78 455
78 458
78 461
78 465
78 468
78 475
78 477
78 478
78 479
78 480
78 481
78 482
78 487
78 491
78 495
78 497
78 501
78 502
78 506
78 507
78 511
78 512
78 514
79 80
79 81
79 82
79 83
79 84
79 85
79 86
79 87
79 88
79 89
79 90
79 91
79 92
79 93
79 94
79 96
79 97
79 102
79 103
79 119
79 122
79 129
79 130
79 131
79 133
79 134
79 135
79 136
79 137
79 138
79 139
79 140
79 141
79 142
79 143
79 144
79 145
79 146
79 147
79 150
79 151
79 153
79 154
79 156
79 157
79 160
79 161
79 162
79 163
79 164
79 165
79 166
79 168
79 175
79 178
79 180
79 182
79 184
79 187
79 191
79 192
79 196
79 198
79 202
79 203
79 207
79 212
79 217
79 219
79 220
79 222
79 223
79 224
79 225
79 226
79 227
79 228
79 229
79 230
79 231
79 233
79 235
79 242
79 243
79 244
79 245
79 246
79 247
79 248
79 249
79 250
79 251
79 252
79 255
79 257
79 259
79 261
79 263
79 265
79 267
79 269
79 271
79 274
79 276
79 277
79 283
79 284
79 285
79 286
79 287
79 288
79 289
79 290
79 291
79 292
79 293
79 294
79 296
79 299
79 303
79 304
79 306
79 307
79 308
79 309
79 310
79 311
79 312
79 313
79 314
79 316
79 317
79 318
79 319
79 320
79 321
79 322
79 323
79 324
79 328
79 329
79 333
79 338
79 345
79 348
79 350
79 354
79 356
79 359
79 364
79 366
79 373
79 376
79 379
79 383
79 386
79 388
79 394
79 395
79 397
79 398
79 399
79 400
79 401
79 402
79 403
79 404
79 405
79 406
79 410
79 411
79 414
79 416
79 432
79 436
79 439
79 442
79 445
79 447
79 451
79 455
79 458
79 461
79 465
79 468
79 475
79 476
79 478
79 479
79 480
79 481
79 482
79 487
79 492
79 493
79 494
79 495
79 496
79 497
79 498
79 499
79 500
79 501
79 502
79 503
79 504
79 505
79 506
79 507
79 508
79 509
79 510
79 511
79 512
79 513
79 515
79 516
79 517
79 518
80 81
80 82
80 83
80 84
80 85
80 86
80 87
80 88
80 89
80 90
80 91
80 92
80 93
80 94
80 96
80 97
80 102
80 103
80 119
80 122
80 129
80 132
80 134
80 136
80 138
80 140
80 142
80 144
80 146
80 147
80 150
80 151
80 153
80 154
80 156
80 157
80 159
80 160
80 161
80 162
80 164
80 165
80 166
80 168
80 175
80 177
80 178
80 179
80 181
80 182
80 183
80 184
80 185
80 186
80 187
80 191
80 192
80 196
80 198
80 202
80 203
80 207
80 212
80 217
80 220
80 221
80 233
80 235
80 241
80 242
80 243
80 244
80 246
80 247
80 248
80 249
80 250
80 251
80 252
80 253
80 254
80 255
80 256
80 258
80 259
80 260
80 261
80 262
80 263
80 264
80 265
80 266
80 267
80 268
80 269
80 271
80 274
80 276
80 277
80 282
80 283
80 284
80 285
80 287
80 288
80 289
80 290
80 291
80 292
80 293
80 294
80 296
80 299
80 303
80 304
80 305
80 307
80 308
80 309
80 310
80 311
80 312
80 313
80 314
80 315
80 317
80 318
80 319
80 320
80 321
80 322
80 323
80 324
80 328
80 329
80 333
80 338
80 345
80 347
80 348
80 349
80 351
80 352
80 353
80 354
80 355
80 356
80 357
80 359
80 364
80 366
80 373
80 376
80 379
80 383
80 386
80 388
80 394
80 396
80 400
80 402
80 405
80 406
80 410
80 411
80 414
80 416
80 432
80 436
80 439
80 442
80 444
80 445
80 446
80 448
80 449
80 450
80 451
80 455
80 458
80 461
80 465
80 468
80 475
80 476
80 477
80 479
80 480
80 481
80 482
80 487
80 491
80 492
80 493
80 494
80 496
80 497
80 498
80 499
80 500
80 501
80 502
80 503
80 504
80 505
80 506
80 507
80 508
80 509
80 510
80 511
80 512
80 514
81 82
81 83
81 84
81 85
81 86
81 87
81 88
81 89
81 90
81 91
81 92
81 93
81 94
81 95
81 97
81 98
81 99
81 100
81 102
81 103
81 119
81 122
81 129
81 130
81 131
81 132
81 133
81 135
81 136
81 137
81 138
81 139
81 140
81 141
81 142
81 143
81 144
81 145
81 146
81 147
81 148
81 149
81 151
81 152
81 153
81 154
81 155
81 156
81 157
81 158
81 159
81 163
81 168
81 175
81 178
81 180
81 182
81 184
81 187
81 191
81 192
81 196
81 198
81 202
81 203
81 207
81 212
81 217
81 220
81 221
81 233
81 235
81 241
81 245
81 246
81 250
81 255
81 257
81 259
81 261
81 263
81 265
81 267
81 269
81 271
81 274
81 276
81 277
81 282
81 286
81 289
81 293
81 296
81 299
81 303
81 304
81 305
81 306
81 308
81 309
81 310
81 311
81 312
81 313
81 314
81 315
81 316
81 319
81 320
81 321
81 322
81 325
81 326
81 327
81 328
81 329
81 330
81 331
81 332
81 333
81 334
81 335
81 336
81 338
81 345
81 348
81 350
81 354
81 356
81 359
81 364
81 366
81 373
81 376
81 379
81 383
81 386
81 388
81 394
81 396
81 400
81 402
81 405
81 406
81 410
81 411
81 414
81 416
81 432
81 436
81 439
81 442
81 445
81 447
81 451
81 452
81 453
81 454
81 456
81 457
81 458
81 459
81 460
81 461
81 462
81 463
81 464
81 465
81 466
81 467
81 469
81 470
81 471
81 472
81 473
81 474
81 475
81 476
81 477
81 478
81 482
81 487
81 491
81 495
81 497
81 501
81 502
81 506
81 507
81 511
81 512
81 514
82 83
82 84
82 85
82 86
82 87
82 88
82 89
82 90
82 91
82 92
82 93
82 94
82 95
82 96
82 98
82 99
82 100
82 102
82 103
82 118
82 119
82 120
82 121
82 123
82 124
82 125
82 126
82 127
82 128
82 129
82 132
82 134
82 136
82 138
82 140
82 142
82 144
82 146
82 147
82 148
82 149
82 150
82 152
82 153
82 154
82 155
82 156
82 157
82 158
82 159
82 163
82 168
82 175
82 177
82 178
82 179
82 180
82 181
82 183
82 184
82 185
82 186
82 187
82 191
82 192
82 196
82 198
82 202
82 203
82 207
82 212
82 217
82 220
82 221
82 233
82 235
82 241
82 245
82 246
82 250
82 253
82 254
82 255
82 256
82 257
82 258
82 260
82 261
82 262
82 263
82 264
82 265
82 266
82 267
82 268
82 269
82 271
82 274
82 276
82 277
82 282
82 286
82 289
82 293
82 295
82 296
82 297
82 298
82 300
82 301
82 302
82 303
82 304
82 305
82 306
82 307
82 309
82 310
82 311
82 312
82 313
82 314
82 315
82 316
82 319
82 320
82 321
82 322
82 324
82 325
82 326
82 327
82 329
82 330
82 331
82 332
82 333
82 334
82 335
82 336
82 338
82 345
82 348
82 350
82 354
82 356
82 359
82 364
82 366
82 373
82 376
82 379
82 383
82 386
82 388
82 394
82 396
82 400
82 402
82 405
82 406
82 410
82 411
82 414
82 416
82 431
82 432
82 433
82 434
82 435
82 437
82 438
82 439
82 440
82 441
82 442
82 443
82 445
82 447
82 451
82 455
82 458
82 461
82 465
82 468
82 475
82 476
82 477
82 478
82 482
82 487
82 491
82 495
82 497
82 501
82 502
82 506
82 507
82 511
82 512
82 514
83 84
83 85
83 86
83 87
83 88
83 89
83 90
83 91
83 92
83 93
83 94
83 96
83 97
83 102
83 103
83 119
83 122
83 129
83 130
83 131
83 132
83 133
83 134
83 135
83 137
83 138
83 139
83 140
83 141
83 142
83 143
83 144
83 145
83 146
83 147
83 150
83 151
83 153
83 154
83 156
83 157
83 159
83 163
83 168
83 175
83 178
83 180
83 182
83 184
83 187
83 191
83 192
83 196
83 198
83 202
83 203
83 207
83 212
83 217
83 220
83 221
83 232
83 233
83 234
83 236
83 237
83 238
83 239
83 240
83 241
83 242
83 243
83 244
83 245
83 247
83 248
83 249
83 250
83 251
83 252
83 255
83 257
83 259
83 261
83 263
83 265
83 267
83 269
83 271
83 274
83 276
83 277
83 282
83 286
83 289
83 293
83 296
83 299
83 303
83 304
83 305
83 306
83 307
83 308
83 310
83 311
83 312
83 313
83 314
83 315
83 316
83 319
83 320
83 321
83 322
83 324
83 325
83 326
83 327
83 328
83 330
83 331
83 332
83 333
83 334
83 335
83 336
83 338
83 345
83 348
83 350
83 354
83 356
83 359
83 364
83 366
83 373
83 376
83 379
83 383
83 386
83 388
83 394
83 396
83 400
83 402
83 405
83 406
83 410
83 411
83 414
83 416
83 432
83 436
83 439
83 442
83 445
83 447
83 451
83 455
83 458
83 461
83 465
83 468
83 475
83 476
83 477
83 478
83 482
83 487
83 491
83 492
83 493
83 494
83 495
83 496
83 498
83 499
83 500
83 501
83 502
83 503
83 504
83 505
83 506
83 507
83 508
83 509
83 510
83 511
83 512
83 514
84 85
84 86
84 87
84 88
84 89
84 90
84 91
84 92
84 93
84 94
84 96
84 97
84 102
84 103
84 119
84 122
84 129
84 132
84 134
84 136
84 138
84 140
84 142
84 144
84 146
84 147
84 150
84 151
84 153
84 154
84 156
84 157
84 159
84 163
84 168
84 175
84 177
84 178
84 179
84 180
84 181
84 182
84 183
84 185
84 186
84 187
84 191
84 192
84 196
84 198
84 202
84 203
84 207
84 212
84 217
84 220
84 221
84 233
84 235
84 241
84 242
84 243
84 244
84 245
84 246
84 247
84 248
84 249
84 251
84 252
84 253
84 254
84 255
84 256
84 257
84 258
84 259
84 260
84 262
84 263
84 264
84 265
84 266
84 267
84 268
84 269
84 271
84 274
84 276
84 277
84 282
84 286
84 289
84 293
84 296
84 299
84 303
84 304
84 305
84 306
84 307
84 308
84 309
84 311
84 312
84 313
84 314
84 315
84 316
84 319
84 320
84 321
84 322
84 324
84 325
84 326
84 327
84 328
84 329
84 330
84 331
84 332
84 334
84 335
84 336
84 338
84 345
84 348
84 350
84 354
84 356
84 359
84 364
84 366
84 373
84 376
84 379
84 383
84 385
84 386
84 387
84 389
84 390
84 391
84 392
84 393
84 394
84 396
84 400
84 402
84 405
84 406
84 410
84 411
84 414
84 416
84 432
84 436
84 439
84 442
84 445
84 447
84 451
84 455
84 458
84 461
84 465
84 468
84 475
84 476
84 477
84 478
84 482
84 487
84 491
84 492
84 493
84 494
84 495
84 496
84 497
84 498
84 499
84 500
84 502
84 503
84 504
84 505
84 506
84 507
84 508
84 509
84 510
84 511
84 512
84 514
85 86
85 87
85 88
85 89
85 90
85 91
85 92
85 93
85 94
85 96
85 97
85 102
85 103
85 119
85 122
85 129
85 130
85 131
85 132
85 133
85 134
85 135
85 136
85 137
85 139
85 140
85 141
85 142
85 143
85 144
85 145
85 146
85 147
85 148
85 149
85 150
85 151
85 152
85 154
85 155
85 156
85 157
85 158
85 159
85 163
85 168
85 175
85 178
85 180
85 182
85 184
85 188
85 189
85 190
85 191
85 192
85 193
85 194
85 195
85 196
85 197
85 198
85 199
85 200
85 201
85 202
85 203
85 204
85 205
85 206
85 207
85 208
85 209
85 210
85 212
85 217
85 220
85 221
85 233
85 235
85 241
85 245
85 246
85 250
85 255
85 257
85 259
85 261
85 263
85 265
85 267
85 269
85 271
85 274
85 276
85 277
85 282
85 286
85 289
85 293
85 296
85 299
85 303
85 304
85 305
85 306
85 307
85 308
85 309
85 310
85 313
85 314
85 315
85 316
85 317
85 318
85 320
85 321
85 322
85 323
85 324
85 328
85 329
85 333
85 337
85 338
85 339
85 340
85 341
85 342
85 343
85 344
85 346
85 348
85 350
85 354
85 356
85 359
85 364
85 366
85 373
85 376
85 379
85 383
85 386
85 388
85 394
85 395
85 396
85 397
85 398
85 399
85 401
85 402
85 403
85 404
85 405
85 406
85 407
85 408
85 409
85 411
85 412
85 413
85 414
85 416
85 432
85 436
85 439
85 442
85 445
85 447
85 451
85 452
85 453
85 454
85 455
85 456
85 457
85 459
85 460
85 461
85 462
85 463
85 465
85 468
85 475
85 476
85 477
85 478
85 482
85 483
85 484
85 485
85 486
85 488
85 489
85 490
85 491
85 495
85 497
85 501
85 502
85 506
85 507
85 511
85 512
85 514
86 87
86 88
86 89
86 90
86 91
86 92
86 93
86 94
86 96
86 97
86 102
86 103
86 119
86 122
86 129
86 132
86 134
86 136
86 138
86 140
86 142
86 144
86 146
86 147
86 148
86 149
86 150
86 151
86 152
86 153
86 155
86 156
86 157
86 158
86 159
86 163
86 167
86 168
86 169
86 170
86 171
86 172
86 173
86 174
86 176
86 178
86 180
86 182
86 184
86 187
86 188
86 189
86 190
86 192
86 193
86 194
86 195
86 196
86 197
86 198
86 199
86 200
86 201
86 202
86 203
86 204
86 205
86 206
86 207
86 208
86 209
86 210
86 212
86 217
86 220
86 221
86 233
86 235
86 241
86 245
86 246
86 250
86 253
86 254
86 255
86 256
86 257
86 258
86 259
86 260
86 261
86 262
86 264
86 265
86 266
86 267
86 268
86 269
86 271
86 274
86 276
86 277
86 282
86 286
86 289
86 293
86 296
86 299
86 303
86 304
86 305
86 306
86 307
86 308
86 309
86 310
86 313
86 314
86 315
86 316
86 317
86 318
86 319
86 321
86 322
86 323
86 324
86 328
86 329
86 333
86 338
86 345
86 347
86 348
86 349
86 350
86 351
86 352
86 353
86 355
86 356
86 357
86 359
86 364
86 366
86 373
86 376
86 379
86 383
86 386
86 388
86 394
86 396
86 400
86 402
86 405
86 406
86 407
86 408
86 409
86 410
86 412
86 413
86 414
86 416
86 431
86 432
86 433
86 434
86 435
86 436
86 437
86 438
86 440
86 441
86 442
86 443
86 445
86 447
86 451
86 455
86 458
86 461
86 465
86 468
86 475
86 476
86 477
86 478
86 482
86 487
86 491
86 495
86 497
86 501
86 502
86 506
86 507
86 511
86 512
86 514
87 88
87 89
87 90
87 91
87 92
87 93
87 94
87 96
87 97
87 102
87 103
87 119
87 122
87 129
87 130
87 131
87 132
87 133
87 134
87 135
87 136
87 137
87 138
87 139
87 141
87 142
87 143
87 144
87 145
87 146
87 147
87 150
87 151
87 153
87 154
87 156
87 157
87 159
87 163
87 168
87 175
87 178
87 180
87 182
87 184
87 187
87 188
87 189
87 190
87 191
87 193
87 194
87 195
87 196
87 197
87 198
87 199
87 200
87 201
87 202
87 203
87 204
87 205
87 206
87 207
87 208
87 209
87 210
87 212
87 217
87 220
87 221
87 233
87 235
87 241
87 245
87 246
87 250
87 255
87 257
87 259
87 261
87 263
87 265
87 267
87 269
87 271
87 274
87 276
87 277
87 282
87 283
87 284
87 285
87 286
87 287
87 288
87 290
87 291
87 292
87 293
87 294
87 296
87 299
87 303
87 304
87 305
87 306
87 307
87 308
87 309
87 310
87 313
87 314
87 315
87 316
87 317
87 318
87 319
87 320
87 322
87 323
87 324
87 328
87 329
87 333
87 338
87 345
87 348
87 350
87 354
87 356
87 358
87 359
87 360
87 361
87 362
87 363
87 365
87 366
87 373
87 376
87 379
87 383
87 386
87 388
87 394
87 395
87 396
87 397
87 398
87 399
87 400
87 401
87 403
87 404
87 405
87 406
87 410
87 411
87 414
87 416
87 432
87 436
87 439
87 442
87 445
87 447
87 451
87 455
87 458
87 461
87 465
87 468
87 475
87 476
87 477
87 478
87 482
87 487
87 491
87 492
87 493
87 494
87 495
87 496
87 497
87 498
87 499
87 500
87 501
87 503
87 504
87 505
87 506
87 507
87 508
87 509
87 510
87 511
87 512
87 514
88 89
88 90
88 91
88 92
88 93
88 94
88 96
88 97
88 102
88 103
88 119
88 122
88 129
88 132
88 134
88 136
88 138
88 140
88 142
88 144
88 146
88 147
88 150
88 151
88 153
88 154
88 156
88 157
88 159
88 163
88 168
88 175
88 178
88 180
88 182
88 184
88 187
88 188
88 189
88 190
88 191
88 192
88 193
88 194
88 195
88 197
88 198
88 199
88 200
88 201
88 202
88 203
88 204
88 205
88 206
88 207
88 208
88 209
88 210
88 211
88 212
88 213
88 214
88 215
88 216
88 218
88 220
88 221
88 233
88 235
88 241
88 245
88 246
88 250
88 253
88 254
88 255
88 256
88 257
88 258
88 259
88 260
88 261
88 262
88 263
88 264
88 266
88 267
88 268
88 269
88 271
88 274
88 276
88 277
88 282
88 283
88 284
88 285
88 286
88 287
88 288
88 289
88 290
88 291
88 292
88 294
88 296
88 299
88 303
88 304
88 305
88 306
88 307
88 308
88 309
88 310
88 313
88 314
88 315
88 316
88 317
88 318
88 319
88 320
88 321
88 323
88 324
88 328
88 329
88 333
88 338
88 345
88 347
88 348
88 349
88 350
88 351
88 352
88 353
88 354
88 355
88 357
88 359
88 364
88 366
88 373
88 376
88 379
88 383
88 386
88 388
88 394
88 396
88 400
88 402
88 405
88 406
88 410
88 411
88 414
88 416
88 432
88 436
88 439
88 442
88 445
88 447
88 451
88 455
88 458
88 461
88 465
88 468
88 475
88 476
88 477
88 478
88 482
88 487
88 491
88 492
88 493
88 494
88 495
88 496
88 497
88 498
88 499
88 500
88 501
88 502
88 503
88 504
88 505
88 507
88 508
88 509
88 510
88 511
88 512
88 514
89 90
89 91
89 92
89 93
89 94
89 96
89 97
89 102
89 103
89 119
89 122
89 129
89 130
89 131
89 132
89 133
89 134
89 135
89 136
89 137
89 138
89 139
89 140
89 141
89 143
89 144
89 145
89 146
89 147
89 148
89 149
89 150
89 151
89 152
89 153
89 154
89 155
89 157
89 158
89 159
89 163
89 168
89 175
89 178
89 180
89 182
89 184
89 187
89 188
89 189
89 190
89 191
89 192
89 193
89 194
89 195
89 196
89 197
89 199
89 200
89 201
89 202
89 203
89 204
89 205
89 206
89 207
89 208
89 209
89 210
89 212
89 217
89 220
89 221
89 233
89 235
89 241
89 245
89 246
89 250
89 255
89 257
89 259
89 261
89 263
89 265
89 267
89 269
89 271
89 274
89 276
89 277
89 282
89 286
89 289
89 293
89 296
89 299
89 303
89 304
89 305
89 306
89 307
89 308
89 309
89 310
89 313
89 314
89 315
89 316
89 319
89 320
89 321
89 322
89 324
89 328
89 329
89 333
89 338
89 345
89 348
89 350
89 354
89 356
89 359
89 364
89 366
89 373
89 376
89 378
89 379
89 380
89 381
89 382
89 384
89 386
89 388
89 394
89 396
89 400
89 402
89 405
89 406
89 410
89 411
89 414
89 416
89 432
89 436
89 439
89 442
89 445
89 447
89 451
89 452
89 453
89 454
89 455
89 456
89 457
89 458
89 459
89 460
89 462
89 463
89 465
89 468
89 475
89 476
89 477
89 478
89 482
89 487
89 491
89 495
89 497
89 501
89 502
89 506
89 507
89 511
89 512
89 514
90 91
90 92
90 93
90 94
90 96
90 97
90 102
90 103
90 119
90 122
90 129
90 132
90 134
90 136
90 138
90 140
90 142
90 144
90 146
90 147
90 148
90 149
90 150
90 151
90 152
90 153
90 154
90 155
90 156
90 158
90 159
90 163
90 168
90 175
90 178
90 180
90 182
90 184
90 187
90 188
90 189
90 190
90 191
90 192
90 193
90 194
90 195
90 196
90 197
90 198
90 199
90 200
90 201
90 203
90 204
90 205
90 206
90 207
90 208
90 209
90 210
90 212
90 217
90 220
90 221
90 233
90 235
90 241
90 245
90 246
90 250
90 253
90 254
90 255
90 256
90 257
90 258
90 259
90 260
90 261
90 262
90 263
90 264
90 265
90 266
90 268
90 269
90 271
90 274
90 276
90 277
90 282
90 286
90 289
90 293
90 296
90 299
90 303
90 304
90 305
90 306
90 307
90 308
90 309
90 310
90 313
90 314
90 315
90 316
90 319
90 320
90 321
90 322
90 324
90 328
90 329
90 333
90 338
90 345
90 348
90 350
90 354
90 356
90 359
90 364
90 366
90 373
90 376
90 379
90 383
90 386
90 388
90 394
90 396
90 400
90 402
90 405
90 406
90 410
90 411
90 414
90 416
90 431
90 432
90 433
90 434
90 435
90 436
90 437
90 438
90 439
90 440
90 441
90 443
90 445
90 447
90 451
90 455
90 458
90 461
90 465
90 468
90 475
90 476
90 477
90 478
90 482
90 487
90 491
90 495
90 497
90 501
90 502
90 506
90 507
90 511
90 512
90 514
91 92
91 93
91 94
91 96
91 97
91 102
91 103
91 119
91 122
91 129
91 130
91 131
91 132
91 133
91 134
91 135
91 136
91 137
91 138
91 139
91 140
91 141
91 142
91 143
91 145
91 146
91 147
91 150
91 151
91 153
91 154
91 156
91 157
91 159
91 163
91 168
91 175
91 178
91 180
91 182
91 184
91 187
91 188
91 189
91 190
91 191
91 192
91 193
91 194
91 195
91 196
91 197
91 198
91 199
91 200
91 201
91 202
91 204
91 205
91 206
91 207
91 208
91 209
91 210
91 212
91 217
91 220
91 221
91 233
91 235
91 241
91 245
91 246
91 250
91 255
91 257
91 259
91 261
91 263
91 265
91 267
91 269
91 270
91 271
91 272
91 273
91 275
91 276
91 277
91 282
91 286
91 289
91 293
91 296
91 299
91 303
91 304
91 305
91 306
91 307
91 308
91 309
91 310
91 313
91 314
91 315
91 316
91 319
91 320
91 321
91 322
91 324
91 328
91 329
91 333
91 338
91 345
91 348
91 350
91 354
91 356
91 359
91 364
91 366
91 373
91 376
91 379
91 383
91 386
91 388
91 394
91 396
91 400
91 402
91 405
91 406
91 410
91 411
91 414
91 416
91 432
91 436
91 439
91 442
91 445
91 447
91 451
91 455
91 458
91 461
91 465
91 468
91 475
91 476
91 477
91 478
91 482
91 487
91 491
91 492
91 493
91 494
91 495
91 496
91 497
91 498
91 499
91 500
91 501
91 502
91 503
91 504
91 505
91 506
91 508
91 509
91 510
91 511
91 512
91 514
92 93
92 94
92 96
92 97
92 102
92 103
92 119
92 122
92 129
92 132
92 134
92 136
92 138
92 140
92 142
92 144
92 146
92 147
92 150
92 151
92 153
92 154
92 156
92 157
92 159
92 163
92 168
92 175
92 178
92 180
92 182
92 184
92 187
92 188
92 189
92 190
92 191
92 192
92 193
92 194
92 195
92 196
92 197
92 198
92 199
92 200
92 201
92 202
92 203
92 204
92 205
92 206
92 208
92 209
92 210
92 212
92 217
92 220
92 221
92 233
92 235
92 241
92 245
92 246
92 250
92 253
92 254
92 255
92 256
92 257
92 258
92 259
92 260
92 261
92 262
92 263
92 264
92 265
92 266
92 267
92 268
92 271
92 274
92 276
92 277
92 282
92 286
92 289
92 293
92 296
92 299
92 303
92 304
92 305
92 306
92 307
92 308
92 309
92 310
92 313
92 314
92 315
92 316
92 319
92 320
92 321
92 322
92 324
92 328
92 329
92 333
92 338
92 345
92 348
92 350
92 354
92 356
92 359
92 364
92 366
92 372
92 373
92 374
92 375
92 377
92 379
92 383
92 386
92 388
92 394
92 396
92 400
92 402
92 405
92 406
92 410
92 411
92 414
92 416
92 432
92 436
92 439
92 442
92 445
92 447
92 451
92 455
92 458
92 461
92 465
92 468
92 475
92 476
92 477
92 478
92 482
92 487
92 491
92 492
92 493
92 494
92 495
92 496
92 497
92 498
92 499
92 500
92 501
92 502
92 503
92 504
92 505
92 506
92 507
92 508
92 509
92 510
92 512
92 514
93 94
93 95
93 96
93 97
93 98
93 99
93 100
93 103
93 113
93 122
93 127
93 130
93 131
93 132
93 133
93 134
93 135
93 136
93 137
93 138
93 139
93 140
93 141
93 142
93 143
93 144
93 145
93 147
93 148
93 149
93 150
93 151
93 152
93 153
93 154
93 155
93 156
93 157
93 158
93 166
93 176
93 178
93 182
93 186
93 195
93 210
93 213
93 216
93 218
93 222
93 225
93 234
93 252
93 255
93 259
93 272
93 275
93 277
93 278
93 279
93 280
93 281
93 287
93 292
93 296
93 297
93 299
93 300
93 302
93 304
93 305
93 306
93 307
93 308
93 309
93 310
93 311
93 312
93 314
93 315
93 316
93 317
93 318
93 319
93 320
93 321
93 322
93 323
93 324
93 328
93 334
93 336
93 346
93 348
93 360
93 363
93 365
93 367
93 368
93 369
93 370
93 371
93 374
93 377
93 384
93 387
93 395
93 396
93 397
93 398
93 399
93 400
93 401
93 402
93 403
93 404
93 406
93 407
93 408
93 409
93 410
93 411
93 412
93 413
93 415
93 416
93 417
93 418
93 419
93 420
93 421
93 422
93 423
93 424
93 425
93 426
93 427
93 428
93 429
93 430
93 432
93 434
93 436
93 437
93 445
93 450
93 452
93 453
93 454
93 455
93 456
93 457
93 458
93 459
93 460
93 461
93 462
93 463
93 468
93 473
93 476
93 477
93 478
93 479
93 480
93 481
93 483
93 484
93 485
93 486
93 487
93 488
93 489
93 490
93 496
93 505
93 513
93 514
93 515
93 516
93 517
93 518
94 95
94 96
94 97
94 98
94 99
94 100
94 101
94 102
94 104
94 105
94 106
94 107
94 108
94 109
94 110
94 111
94 112
94 113
94 114
94 115
94 116
94 117
94 122
94 127
94 129
94 134
94 146
94 148
94 149
94 150
94 151
94 152
94 153
94 154
94 155
94 156
94 157
94 158
94 166
94 176
94 177
94 179
94 180
94 181
94 182
94 183
94 184
94 185
94 186
94 195
94 210
94 213
94 216
94 218
94 222
94 225
94 234
94 252
94 253
94 254
94 256
94 257
94 258
94 259
94 260
94 261
94 262
94 263
94 264
94 265
94 266
94 267
94 268
94 269
94 272
94 275
94 276
94 278
94 279
94 280
94 281
94 287
94 292
94 295
94 297
94 298
94 299
94 300
94 301
94 302
94 303
94 305
94 306
94 307
94 308
94 309
94 310
94 311
94 312
94 313
94 315
94 316
94 317
94 318
94 319
94 320
94 321
94 322
94 323
94 324
94 328
94 334
94 336
94 346
94 347
94 349
94 350
94 351
94 352
94 353
94 354
94 355
94 356
94 357
94 360
94 363
94 365
94 366
94 368
94 371
94 374
94 377
94 384
94 387
94 394
94 405
94 407
94 408
94 409
94 410
94 411
94 412
94 413
94 414
94 426
94 431
94 433
94 434
94 435
94 436
94 437
94 438
94 439
94 440
94 441
94 442
94 443
94 444
94 446
94 447
94 448
94 449
94 450
94 451
94 454
94 455
94 457
94 468
94 473
94 475
94 477
94 478
94 479
94 480
94 481
94 482
94 484
94 496
94 505
94 512
94 518
95 96
95 97
95 98
95 99
95 100
95 103
95 113
95 122
95 127
95 129
95 134
95 146
95 147
95 148
95 150
95 151
95 152
95 153
95 154
95 155
95 156
95 157
95 158
95 166
95 176
95 178
95 182
95 186
95 195
95 210
95 211
95 212
95 214
95 215
95 216
95 217
95 218
95 219
95 220
95 221
95 223
95 224
95 225
95 226
95 227
95 228
95 229
95 230
95 231
95 232
95 233
95 235
95 236
95 237
95 238
95 239
95 240
95 252
95 255
95 259
95 270
95 271
95 273
95 274
95 275
95 276
95 277
95 279
95 280
95 281
95 287
95 292
95 295
95 296
95 298
95 299
95 300
95 301
95 302
95 303
95 304
95 307
95 308
95 312
95 313
95 314
95 324
95 328
95 334
95 336
95 346
95 348
95 358
95 359
95 361
95 362
95 363
95 364
95 365
95 366
95 367
95 369
95 370
95 371
95 372
95 373
95 375
95 376
95 377
95 384
95 385
95 386
95 388
95 389
95 390
95 391
95 392
95 393
95 394
95 405
95 406
95 408
95 409
95 410
95 411
95 412
95 413
95 414
95 426
95 431
95 432
95 433
95 435
95 436
95 437
95 438
95 439
95 440
95 441
95 442
95 443
95 445
95 450
95 451
95 452
95 453
95 455
95 456
95 457
95 458
95 459
95 460
95 461
95 462
95 463
95 468
95 473
95 475
95 476
95 481
95 482
95 483
95 485
95 486
95 487
95 488
95 489
95 490
95 491
95 492
95 493
95 494
95 495
95 497
95 498
95 499
95 500
95 501
95 502
95 503
95 504
95 505
95 506
95 507
95 508
95 509
95 510
95 511
95 512
95 518
96 97
96 98
96 99
96 100
96 103
96 113
96 122
96 127
96 129
96 130
96 131
96 132
96 133
96 135
96 136
96 137
96 138
96 139
96 140
96 141
96 142
96 143
96 144
96 145
96 146
96 147
96 148
96 149
96 151
96 152
96 153
96 154
96 155
96 156
96 157
96 158
96 166
96 176
96 178
96 182
96 186
96 195
96 210
96 213
96 216
96 218
96 222
96 225
96 234
96 252
96 255
96 259
96 272
96 275
96 276
96 277
96 278
96 281
96 287
96 292
96 296
96 297
96 299
96 300
96 302
96 303
96 304
96 305
96 306
96 308
96 309
96 310
96 311
96 312
96 313
96 314
96 325
96 326
96 327
96 328
96 329
96 330
96 331
96 332
96 333
96 334
96 335
96 336
96 346
96 348
96 360
96 363
96 365
96 366
96 368
96 371
96 374
96 377
96 384
96 387
96 394
96 405
96 406
96 407
96 414
96 426
96 432
96 434
96 436
96 437
96 445
96 450
96 451
96 452
96 453
96 454
96 456
96 457
96 458
96 459
96 460
96 461
96 462
96 463
96 464
96 465
96 466
96 467
96 469
96 470
96 471
96 472
96 473
96 474
96 475
96 476
96 481
96 482
96 484
96 496
96 505
96 512
96 518
97 98
97 99
97 100
97 103
97 113
97 118
97 119
97 120
97 121
97 123
97 124
97 125
97 126
97 127
97 128
97 129
97 134
97 146
97 147
97 148
97 149
97 150
97 152
97 153
97 154
97 155
97 156
97 157
97 158
97 166
97 176
97 177
97 178
97 179
97 180
97 181
97 183
97 184
97 185
97 186
97 195
97 210
97 213
97 216
97 218
97 222
97 225
97 234
97 252
97 253
97 254
97 255
97 256
97 257
97 258
97 260
97 261
97 262
97 263
97 264
97 265
97 266
97 267
97 268
97 269
97 272
97 275
97 276
97 277
97 278
97 281
97 287
97 292
97 295
97 296
97 297
97 298
97 300
97 301
97 302
97 303
97 304
97 305
97 306
97 307
97 309
97 310
97 311
97 312
97 313
97 314
97 324
97 325
97 326
97 327
97 329
97 330
97 331
97 332
97 333
97 334
97 335
97 336
97 346
97 348
97 360
97 363
97 365
97 366
97 368
97 371
97 374
97 377
97 384
97 387
97 394
97 405
97 406
97 407
97 414
97 426
97 431
97 432
97 433
97 434
97 435
97 437
97 438
97 439
97 440
97 441
97 442
97 443
97 445
97 450
97 451
97 454
97 455
97 457
97 468
97 473
97 475
97 476
97 481
97 482
97 484
97 496
97 505
97 512
97 518
98 99
98 100
98 103
98 113
98 122
98 127
98 129
98 134
98 146
98 147
98 148
98 149
98 150
98 151
98 153
98 154
98 155
98 156
98 157
98 158
98 166
98 176
98 178
98 182
98 186
98 195
98 210
98 211
98 212
98 213
98 214
98 215
98 217
98 218
98 219
98 220
98 221
98 222
98 223
98 224
98 226
98 227
98 228
98 229
98 230
98 231
98 234
98 252
98 255
98 259
98 272
98 275
98 276
98 277
98 278
98 281
98 282
98 283
98 284
98 285
98 286
98 288
98 289
98 290
98 291
98 292
98 293
98 294
98 295
98 296
98 297
98 298
98 299
98 301
98 302
98 303
98 304
98 307
98 308
98 312
98 313
98 314
98 324
98 325
98 326
98 327
98 328
98 329
98 330
98 331
98 332
98 333
98 335
98 336
98 346
98 348
98 358
98 359
98 360
98 361
98 362
98 364
98 365
98 366
98 368
98 371
98 374
98 377
98 384
98 387
98 394
98 405
98 406
98 407
98 414
98 426
98 431
98 432
98 433
98 434
98 435
98 436
98 438
98 439
98 440
98 441
98 442
98 443
98 445
98 450
98 451
98 452
98 453
98 454
98 455
98 456
98 458
98 459
98 460
98 461
98 462
98 463
98 468
98 473
98 475
98 476
98 481
98 482
98 484
98 496
98 505
98 512
98 518
99 100
99 101
99 102
99 103
99 104
99 105
99 106
99 107
99 108
99 109
99 110
99 111
99 112
99 114
99 115
99 116
99 117
99 118
99 119
99 120
99 121
99 122
99 123
99 124
99 125
99 126
99 128
99 129
99 134
99 146
99 147
99 149
99 150
99 151
99 152
99 166
99 176
99 178
99 182
99 186
99 187
99 188
99 189
99 190
99 191
99 192
99 193
99 194
99 196
99 197
99 198
99 199
99 200
99 201
99 202
99 203
99 204
99 205
99 206
99 207
99 208
99 209
99 210
99 213
99 216
99 218
99 222
99 225
99 234
99 252
99 255
99 259
99 272
99 275
99 276
99 277
99 278
99 281
99 282
99 283
99 284
99 285
99 286
99 287
99 288
99 289
99 290
99 291
99 293
99 294
99 296
99 297
99 299
99 300
99 302
99 303
99 304
99 307
99 308
99 312
99 313
99 314
99 324
99 328
99 334
99 336
99 346
99 348
99 360
99 363
99 365
99 366
99 368
99 371
99 374
99 377
99 384
99 387
99 394
99 405
99 406
99 407
99 414
99 415
99 416
99 417
99 418
99 419
99 420
99 421
99 422
99 423
99 424
99 425
99 427
99 428
99 429
99 430
99 432
99 434
99 436
99 437
99 445
99 450
99 451
99 454
99 455
99 457
99 464
99 465
99 466
99 467
99 468
99 469
99 470
99 471
99 472
99 474
99 475
99 476
99 481
99 482
99 484
99 491
99 492
99 493
99 494
99 495
99 496
99 497
99 498
99 499
99 500
99 501
99 502
99 503
99 504
99 506
99 507
99 508
99 509
99 510
99 511
99 512
99 518
100 103
100 113
100 122
100 127
100 129
100 134
100 146
100 147
100 149
100 150
100 151
100 152
100 159
100 160
100 161
100 162
100 163
100 164
100 165
100 167
100 168
100 169
100 170
100 171
100 172
100 173
100 174
100 175
100 177
100 178
100 179
100 180
100 181
100 182
100 183
100 184
100 185
100 187
100 188
100 189
100 190
100 191
100 192
100 193
100 194
100 195
100 196
100 197
100 198
100 199
100 200
100 201
100 202
100 203
100 204
100 205
100 206
100 207
100 208
100 209
100 211
100 212
100 213
100 214
100 215
100 216
100 217
100 222
100 225
100 234
100 241
100 242
100 243
100 244
100 245
100 246
100 247
100 248
100 249
100 250
100 251
100 255
100 259
100 270
100 271
100 272
100 273
100 274
100 276
100 277
100 278
100 279
100 280
100 287
100 292
100 295
100 296
100 297
100 298
100 299
100 300
100 301
100 303
100 304
100 305
100 306
100 307
100 308
100 309
100 310
100 311
100 313
100 314
100 324
100 325
100 326
100 327
100 328
100 329
100 330
100 331
100 332
100 333
100 334
100 335
100 337
100 338
100 339
100 340
100 341
100 342
100 343
100 344
100 345
100 348
100 358
100 359
100 360
100 361
100 362
100 363
100 364
100 366
100 367
100 368
100 369
100 370
100 372
100 373
100 374
100 375
100 376
100 378
100 379
100 380
100 381
100 382
100 383
100 387
100 394
100 405
100 406
100 407
100 414
100 426
100 432
100 434
100 436
100 437
100 444
100 445
100 446
100 447
100 448
100 449
100 451
100 454
100 455
100 457
100 468
100 473
100 475
100 476
100 477
100 478
100 479
100 480
100 482
100 484
100 496
100 505
100 512
100 513
100 514
100 515
100 516
100 517
101 102
101 103
101 104
101 105
101 106
101 107
101 108
101 109
101 110
101 111
101 112
101 113
101 114
101 115
101 116
101 117
101 119
101 120
101 121
101 122
101 123
101 124
101 125
101 126
101 127
101 128
101 129
101 130
101 132
101 133
101 134
101 135
101 136
101 137
101 138
101 139
101 140
101 141
101 142
101 143
101 144
101 145
101 147
101 148
101 161
101 162
101 168
101 169
101 170
101 171
101 172
101 173
101 174
101 175
101 176
101 178
101 185
101 189
101 190
101 194
101 195
101 200
101 201
101 205
101 206
101 212
101 213
101 214
101 215
101 216
101 217
101 218
101 220
101 224
101 227
101 230
101 233
101 238
101 243
101 244
101 248
101 249
101 253
101 255
101 256
101 257
101 258
101 259
101 260
101 261
101 262
101 263
101 264
101 265
101 266
101 267
101 268
101 269
101 271
101 277
101 280
101 284
101 285
101 291
101 292
101 296
101 301
101 304
101 311
101 314
101 317
101 326
101 327
101 331
101 332
101 338
101 340
101 342
101 344
101 348
101 351
101 359
101 362
101 366
101 368
101 369
101 370
101 371
101 373
101 374
101 375
101 376
101 377
101 379
101 381
101 386
101 387
101 388
101 389
101 390
101 391
101 392
101 393
101 394
101 396
101 397
101 398
101 399
101 400
101 401
101 402
101 403
101 404
101 406
101 408
101 416
101 418
101 420
101 422
101 424
101 426
101 428
101 430
101 432
101 433
101 445
101 449
101 451
101 453
101 454
101 455
101 456
101 457
101 458
101 459
101 460
101 461
101 462
101 463
101 465
101 467
101 471
101 473
101 476
101 480
101 482
101 484
101 485
101 486
101 487
101 488
101 489
101 490
101 493
101 494
101 499
101 500
101 504
101 505
101 509
101 510
101 512
101 514
101 515
101 516
101 517
101 518
102 103
102 104
102 105
102 106
102 107
102 108
102 109
102 110
102 111
102 112
102 113
102 114
102 115
102 116
102 117
102 118
102 120
102 121
102 122
102 123
102 124
102 125
102 126
102 127
102 128
102 131
102 133
102 135
102 137
102 139
102 141
102 143
102 145
102 147
102 148
102 161
102 162
102 167
102 169
102 170
102 171
102 172
102 173
102 174
102 175
102 176
102 178
102 185
102 189
102 190
102 194
102 195
102 200
102 201
102 205
102 206
102 211
102 213
102 214
102 215
102 216
102 217
102 218
102 219
102 221
102 222
102 223
102 224
102 225
102 226
102 227
102 228
102 229
102 230
102 231
102 232
102 234
102 235
102 236
102 237
102 238
102 239
102 240
102 243
102 244
102 248
102 249
102 254
102 255
102 270
102 272
102 273
102 274
102 275
102 277
102 280
102 284
102 285
102 291
102 292
102 296
102 301
102 304
102 311
102 314
102 317
102 326
102 327
102 331
102 332
102 337
102 339
102 340
102 341
102 342
102 343
102 344
102 345
102 346
102 348
102 351
102 358
102 360
102 361
102 362
102 363
102 364
102 365
102 367
102 372
102 374
102 375
102 376
102 377
102 378
102 380
102 381
102 382
102 383
102 384
102 385
102 387
102 388
102 389
102 390
102 391
102 392
102 393
102 395
102 397
102 401
102 403
102 406
102 408
102 414
102 415
102 417
102 418
102 419
102 420
102 421
102 422
102 423
102 424
102 425
102 426
102 427
102 428
102 429
102 430
102 432
102 433
102 445
102 449
102 452
102 456
102 459
102 462
102 464
102 466
102 467
102 468
102 469
102 470
102 471
102 472
102 473
102 474
102 476
102 480
102 483
102 488
102 493
102 494
102 499
102 500
102 504
102 505
102 509
102 510
102 513
102 515
103 104
103 105
103 106
103 107
103 108
103 109
103 110
103 111
103 112
103 113
103 114
103 115
103 116
103 117
103 118
103 119
103 120
103 121
103 124
103 125
103 126
103 127
103 131
103 133
103 135
103 137
103 139
103 141
103 143
103 145
103 146
103 148
103 149
103 150
103 151
103 152
103 153
103 154
103 155
103 156
103 157
103 158
103 161
103 162
103 167
103 168
103 169
103 170
103 171
103 172
103 173
103 174
103 177
103 179
103 180
103 181
103 182
103 183
103 184
103 185
103 186
103 189
103 190
103 194
103 195
103 200
103 201
103 205
103 206
103 211
103 212
103 214
103 215
103 220
103 224
103 227
103 230
103 233
103 238
103 243
103 244
103 248
103 249
103 253
103 254
103 256
103 257
103 258
103 259
103 260
103 261
103 262
103 263
103 264
103 265
103 266
103 267
103 268
103 269
103 271
103 276
103 278
103 279
103 280
103 281
103 284
103 285
103 291
103 292
103 295
103 297
103 298
103 299
103 300
103 301
103 302
103 303
103 305
103 306
103 307
103 308
103 309
103 310
103 311
103 312
103 313
103 315
103 316
103 317
103 318
103 319
103 320
103 321
103 322
103 323
103 326
103 327
103 331
103 332
103 338
103 340
103 342
103 344
103 347
103 349
103 350
103 351
103 352
103 353
103 354
103 355
103 356
103 357
103 359
103 362
103 367
103 372
103 373
103 379
103 381
103 385
103 386
103 390
103 391
103 395
103 397
103 401
103 403
103 405
103 407
103 408
103 409
103 410
103 411
103 412
103 413
103 416
103 418
103 420
103 422
103 424
103 426
103 428
103 430
103 431
103 433
103 434
103 435
103 436
103 437
103 438
103 439
103 440
103 441
103 442
103 443
103 444
103 446
103 447
103 448
103 449
103 450
103 452
103 456
103 459
103 462
103 465
103 467
103 471
103 473
103 475
103 477
103 478
103 479
103 480
103 481
103 483
103 488
103 493
103 494
103 499
103 500
103 504
103 505
103 509
103 510
103 513
103 515
104 105
104 106
104 107
104 108
104 109
104 110
104 111
104 112
104 113
104 114
104 115
104 116
104 117
104 118
104 119
104 121
104 122
104 123
104 124
104 125
104 126
104 127
104 128
104 129
104 130
104 131
104 132
104 134
104 135
104 136
104 137
104 138
104 139
104 140
104 141
104 142
104 143
104 144
104 145
104 147
104 148
104 159
104 160
104 162
104 163
104 164
104 165
104 166
104 167
104 168
104 170
104 171
104 172
104 173
104 174
104 175
104 176
104 178
104 185
104 189
104 190
104 194
104 195
104 200
104 201
104 205
104 206
104 211
104 212
104 214
104 215
104 220
104 224
104 227
104 230
104 233
104 238
104 241
104 242
104 244
104 245
104 246
104 247
104 248
104 249
104 250
104 251
104 252
104 254
104 255
104 271
104 277
104 280
104 282
104 283
104 285
104 286
104 287
104 288
104 289
104 290
104 291
104 292
104 293
104 294
104 296
104 301
104 304
104 311
104 314
104 317
104 326
104 327
104 331
104 332
104 338
104 340
104 342
104 344
104 348
104 351
104 359
104 362
104 367
104 372
104 373
104 379
104 381
104 385
104 386
104 390
104 391
104 394
104 395
104 396
104 398
104 399
104 400
104 401
104 402
104 403
104 404
104 406
104 408
104 416
104 418
104 420
104 422
104 424
104 426
104 428
104 430
104 431
104 432
104 434
104 435
104 436
104 437
104 438
104 439
104 440
104 441
104 442
104 443
104 445
104 449
104 452
104 456
104 459
104 462
104 465
104 467
104 471
104 473
104 476
104 480
104 483
104 488
104 491
104 492
104 494
104 495
104 496
104 497
104 498
104 499
104 500
104 501
104 502
104 503
104 504
104 505
104 506
104 507
104 508
104 509
104 510
104 511
104 512
104 513
104 514
104 516
104 517
104 518
105 106
105 107
105 108
105 109
105 110
105 111
105 112
105 113
105 114
105 115
105 116
105 117
105 118
105 119
105 120
105 122
105 123
105 124
105 125
105 126
105 127
105 128
105 131
105 133
105 135
105 137
105 139
105 141
105 143
105 145
105 146
105 147
105 149
105 150
105 151
105 152
105 153
105 154
105 155
105 156
105 157
105 158
105 159
105 160
105 161
105 163
105 164
105 165
105 166
105 167
105 168
105 169
105 171
105 172
105 173
105 174
105 175
105 176
105 178
105 185
105 189
105 190
105 194
105 195
105 200
105 201
105 205
105 206
105 211
105 212
105 214
105 215
105 220
105 224
105 227
105 230
105 233
105 238
105 241
105 242
105 243
105 245
105 246
105 247
105 248
105 249
105 250
105 251
105 252
105 254
105 255
105 271
105 277
105 280
105 282
105 283
105 284
105 286
105 287
105 288
105 289
105 290
105 291
105 292
105 293
105 294
105 296
105 301
105 304
105 311
105 314
105 317
105 326
105 327
105 331
105 332
105 337
105 338
105 339
105 341
105 342
105 343
105 344
105 345
105 346
105 348
105 351
105 359
105 362
105 367
105 372
105 373
105 378
105 379
105 380
105 382
105 383
105 384
105 385
105 386
105 390
105 391
105 395
105 397
105 401
105 403
105 406
105 408
105 414
105 415
105 416
105 417
105 419
105 420
105 421
105 422
105 423
105 424
105 425
105 426
105 427
105 428
105 429
105 430
105 432
105 433
105 445
105 449
105 452
105 456
105 459
105 462
105 464
105 465
105 466
105 468
105 469
105 470
105 471
105 472
105 473
105 474
105 476
105 480
105 483
105 488
105 491
105 492
105 493
105 495
105 496
105 497
105 498
105 499
105 500
105 501
105 502
105 503
105 504
105 505
105 506
105 507
105 508
105 509
105 510
105 511
105 513
105 515
106 107
106 108
106 109
106 110
106 111
106 112
106 113
106 114
106 115
106 116
106 117
106 118
106 119
106 120
106 121
106 124
106 125
106 126
106 127
106 129
106 130
106 131
106 132
106 133
106 134
106 136
106 137
106 138
106 139
106 140
106 141
106 142
106 143
106 144
106 145
106 147
106 148
106 161
106 162
106 167
106 168
106 169
106 170
106 172
106 173
106 174
106 175
106 176
106 178
106 185
106 189
106 190
106 194
106 195
106 200
106 201
106 205
106 206
106 211
106 212
106 213
106 215
106 216
106 217
106 218
106 220
106 224
106 227
106 230
106 233
106 238
106 243
106 244
106 248
106 249
106 254
106 255
106 271
106 277
106 280
106 284
106 285
106 291
106 292
106 296
106 301
106 304
106 311
106 314
106 317
106 324
106 325
106 327
106 328
106 329
106 330
106 331
106 332
106 333
106 334
106 335
106 336
106 338
106 340
106 342
106 344
106 347
106 348
106 349
106 350
106 352
106 353
106 354
106 355
106 356
106 357
106 359
106 362
106 367
106 372
106 373
106 379
106 381
106 385
106 386
106 390
106 391
106 395
106 397
106 401
106 403
106 406
106 408
106 416
106 418
106 420
106 422
106 424
106 426
106 428
106 430
106 432
106 433
106 445
106 449
106 451
106 452
106 453
106 454
106 455
106 457
106 458
106 459
106 460
106 461
106 462
106 463
106 465
106 467
106 471
106 473
106 476
106 480
106 483
106 488
106 493
106 494
106 499
106 500
106 504
106 505
106 509
106 510
106 513
106 515
107 108
107 109
107 110
107 111
107 112
107 113
107 114
107 115
107 116
107 117
107 118
107 119
107 120
107 121
107 124
107 125
107 126
107 127
107 131
107 133
107 135
107 137
107 139
107 141
107 143
107 145
107 147
107 148
107 161
107 162
107 167
107 168
107 169
107 170
107 171
107 173
107 174
107 175
107 176
107 178
107 185
107 189
107 190
107 194
107 195
107 200
107 201
107 205
107 206
107 211
107 212
107 213
107 214
107 216
107 217
107 218
107 219
107 220
107 221
107 222
107 223
107 225
107 226
107 227
107 228
107 229
107 230
107 231
107 233
107 238
107 243
107 244
107 248
107 249
107 254
107 255
107 271
107 277
107 280
107 284
107 285
107 291
107 292
107 296
107 301
107 304
107 311
107 313
107 314
107 315
107 316
107 318
107 319
107 320
107 321
107 322
107 323
107 324
107 325
107 326
107 328
107 329
107 330
107 331
107 332
107 333
107 334
107 335
107 336
107 337
107 338
107 339
107 340
107 341
107 343
107 344
107 345
107 346
107 348
107 351
107 358
107 359
107 360
107 361
107 363
107 364
107 365
107 367
107 372
107 373
107 379
107 381
107 385
107 386
107 390
107 391
107 395
107 397
107 401
107 403
107 406
107 408
107 414
107 415
107 416
107 417
107 418
107 419
107 421
107 422
107 423
107 424
107 425
107 426
107 427
107 428
107 429
107 430
107 432
107 433
107 445
107 449
107 452
107 456
107 459
107 462
107 465
107 467
107 471
107 473
107 476
107 480
107 483
107 488
107 493
107 494
107 499
107 500
107 504
107 505
107 509
107 510
107 513
107 515
108 109
108 110
108 111
108 112
108 113
108 114
108 115
108 116
108 117
108 118
108 119
108 120
108 121
108 124
108 125
108 126
108 127
108 129
108 130
108 131
108 132
108 133
108 134
108 135
108 136
108 138
108 139
108 140
108 141
108 142
108 143
108 144
108 145
108 147
108 148
108 161
108 162
108 167
108 168
108 169
108 170
108 171
108 172
108 174
108 175
108 176
108 178
108 185
108 189
108 190
108 194
108 195
108 200
108 201
108 205
108 206
108 211
108 212
108 214
108 215
108 220
108 224
108 227
108 230
108 233
108 238
108 241
108 242
108 243
108 244
108 245
108 246
108 247
108 249
108 250
108 251
108 252
108 254
108 255
108 271
108 277
108 280
108 284
108 285
108 291
108 292
108 296
108 301
108 304
108 311
108 314
108 317
108 324
108 325
108 326
108 327
108 328
108 329
108 330
108 332
108 333
108 334
108 335
108 336
108 338
108 340
108 342
108 344
108 348
108 351
108 359
108 362
108 367
108 372
108 373
108 379
108 381
108 385
108 386
108 390
108 391
108 395
108 397
108 401
108 403
108 406
108 408
108 416
108 418
108 420
108 422
108 424
108 426
108 428
108 430
108 432
108 433
108 445
108 449
108 452
108 456
108 459
108 462
108 465
108 467
108 471
108 473
108 476
108 480
108 483
108 488
108 491
108 492
108 493
108 494
108 495
108 496
108 497
108 498
108 500
108 501
108 502
108 503
108 504
108 505
108 506
108 507
108 508
108 509
108 510
108 511
108 513
108 515
109 110
109 111
109 112
109 113
109 114
109 115
109 116
109 117
109 118
109 119
109 120
109 121
109 124
109 125
109 126
109 127
109 131
109 133
109 135
109 137
109 139
109 141
109 143
109 145
109 147
109 148
109 161
109 162
109 167
109 168
109 169
109 170
109 171
109 172
109 173
109 175
109 176
109 178
109 185
109 189
109 190
109 194
109 195
109 200
109 201
109 205
109 206
109 211
109 212
109 214
109 215
109 220
109 224
109 227
109 230
109 233
109 238
109 241
109 242
109 243
109 244
109 245
109 246
109 247
109 248
109 250
109 251
109 252
109 254
109 255
109 271
109 277
109 280
109 284
109 285
109 291
109 292
109 296
109 301
109 304
109 311
109 314
109 317
109 324
109 325
109 326
109 327
109 328
109 329
109 330
109 331
109 333
109 334
109 335
109 336
109 337
109 338
109 339
109 340
109 341
109 342
109 343
109 345
109 346
109 348
109 351
109 359
109 362
109 367
109 372
109 373
109 379
109 381
109 385
109 386
109 390
109 391
109 395
109 397
109 401
109 403
109 405
109 406
109 407
109 409
109 410
109 411
109 412
109 413
109 414
109 415
109 416
109 417
109 418
109 419
109 420
109 421
109 423
109 424
109 425
109 426
109 427
109 428
109 429
109 430
109 432
109 433
109 445
109 449
109 452
109 456
109 459
109 462
109 465
109 467
109 471
109 473
109 476
109 480
109 483
109 488
109 491
109 492
109 493
109 494
109 495
109 496
109 497
109 498
109 499
109 501
109 502
109 503
109 504
109 505
109 506
109 507
109 508
109 509
109 510
109 511
109 513
109 515
110 111
110 112
110 113
110 114
110 115
110 116
110 117
110 118
110 119
110 120
110 121
110 122
110 123
110 125
110 126
110 127
110 128
110 129
110 130
110 131
110 132
110 133
110 134
110 135
110 136
110 137
110 138
110 140
110 141
110 142
110 143
110 144
110 145
110 147
110 148
110 161
110 162
110 167
110 168
110 169
110 170
110 171
110 172
110 173
110 174
110 177
110 178
110 179
110 180
110 181
110 182
110 183
110 184
110 186
110 187
110 188
110 190
110 191
110 192
110 193
110 194
110 195
110 196
110 197
110 198
110 199
110 200
110 201
110 202
110 203
110 204
110 205
110 206
110 207
110 208
110 209
110 210
110 211
110 212
110 214
110 215
110 220
110 224
110 227
110 230
110 233
110 238
110 243
110 244
110 248
110 249
110 254
110 255
110 271
110 277
110 280
110 284
110 285
110 291
110 292
110 296
110 301
110 304
110 311
110 314
110 317
110 326
110 327
110 331
110 332
110 338
110 340
110 342
110 344
110 348
110 351
110 359
110 362
110 367
110 372
110 373
110 379
110 381
110 385
110 386
110 387
110 388
110 389
110 391
110 392
110 393
110 394
110 395
110 396
110 397
110 398
110 399
110 400
110 402
110 403
110 404
110 406
110 408
110 416
110 418
110 420
110 422
110 424
110 426
110 428
110 430
110 432
110 433
110 445
110 449
110 451
110 452
110 453
110 454
110 455
110 456
110 457
110 458
110 460
110 461
110 462
110 463
110 465
110 467
110 471
110 473
110 476
110 480
110 482
110 483
110 484
110 485
110 486
110 487
110 489
110 490
110 493
110 494
110 499
110 500
110 504
110 505
110 509
110 510
110 513
110 515
111 112
111 113
111 114
111 115
111 116
111 117
111 118
111 119
111 120
111 121
111 122
111 123
111 124
111 126
111 127
111 128
111 131
111 133
111 135
111 137
111 139
111 141
111 143
111 145
111 147
111 148
111 161
111 162
111 167
111 168
111 169
111 170
111 171
111 172
111 173
111 174
111 178
111 185
111 187
111 188
111 189
111 191
111 192
111 193
111 194
111 195
111 196
111 197
111 198
111 199
111 200
111 201
111 202
111 203
111 204
111 205
111 206
111 207
111 208
111 209
111 210
111 211
111 212
111 214
111 215
111 219
111 220
111 221
111 222
111 223
111 224
111 225
111 226
111 228
111 229
111 230
111 231
111 232
111 233
111 234
111 235
111 236
111 237
111 239
111 240
111 243
111 244
111 248
111 249
111 254
111 255
111 271
111 277
111 280
111 284
111 285
111 291
111 292
111 296
111 301
111 303
111 304
111 305
111 306
111 307
111 308
111 309
111 310
111 312
111 314
111 317
111 326
111 327
111 331
111 332
111 338
111 340
111 342
111 344
111 348
111 351
111 359
111 362
111 367
111 372
111 373
111 379
111 381
111 385
111 386
111 387
111 388
111 389
111 390
111 392
111 393
111 395
111 397
111 401
111 403
111 406
111 408
111 414
111 415
111 416
111 417
111 418
111 419
111 420
111 421
111 422
111 423
111 425
111 426
111 427
111 428
111 429
111 430
111 432
111 433
111 445
111 449
111 452
111 456
111 459
111 462
111 464
111 465
111 466
111 467
111 468
111 469
111 470
111 472
111 473
111 474
111 476
111 480
111 483
111 488
111 493
111 494
111 499
111 500
111 504
111 505
111 509
111 510
111 513
111 515
112 113
112 114
112 115
112 116
112 117
112 118
112 119
112 120
112 121
112 122
112 123
112 124
112 125
112 127
112 128
112 129
112 130
112 131
112 132
112 133
112 134
112 135
112 136
112 137
112 138
112 139
112 140
112 142
112 143
112 144
112 145
112 147
112 148
112 161
112 162
112 167
112 168
112 169
112 170
112 171
112 172
112 173
112 174
112 178
112 185
112 187
112 188
112 189
112 190
112 191
112 192
112 193
112 195
112 196
112 197
112 198
112 199
112 200
112 201
112 202
112 203
112 204
112 205
112 206
112 207
112 208
112 209
112 210
112 211
112 212
112 214
112 215
112 220
112 224
112 227
112 230
112 233
112 238
112 243
112 244
112 248
112 249
112 254
112 255
112 271
112 277
112 280
112 282
112 283
112 284
112 285
112 286
112 287
112 288
112 289
112 290
112 292
112 293
112 294
112 295
112 296
112 297
112 298
112 299
112 300
112 302
112 304
112 311
112 314
112 317
112 326
112 327
112 331
112 332
112 338
112 340
112 342
112 344
112 348
112 351
112 359
112 362
112 367
112 372
112 373
112 379
112 381
112 385
112 386
112 390
112 391
112 394
112 395
112 396
112 397
112 398
112 399
112 400
112 401
112 402
112 404
112 406
112 408
112 416
112 418
112 420
112 422
112 424
112 426
112 428
112 430
112 432
112 433
112 445
112 449
112 452
112 456
112 459
112 462
112 465
112 467
112 471
112 473
112 476
112 480
112 483
112 488
112 491
112 492
112 493
112 494
112 495
112 496
112 497
112 498
112 499
112 500
112 501
112 502
112 503
112 505
112 506
112 507
112 508
112 509
112 510
112 511
112 513
112 515
113 114
113 115
113 116
113 117
113 118
113 119
113 120
113 121
113 122
113 123
113 124
113 125
113 126
113 128
113 131
113 133
113 135
113 137
113 139
113 141
113 143
113 145
113 147
113 148
113 161
113 162
113 167
113 168
113 169
113 170
113 171
113 172
113 173
113 174
113 178
113 185
113 187
113 188
113 189
113 190
113 191
113 192
113 193
113 194
113 196
113 197
113 198
113 199
113 200
113 201
113 202
113 203
113 204
113 205
113 206
113 207
113 208
113 209
113 210
113 211
113 212
113 214
113 215
113 220
113 224
113 227
113 230
113 233
113 238
113 243
113 244
113 248
113 249
113 254
113 255
113 271
113 277
113 280
113 282
113 283
113 284
113 285
113 286
113 287
113 288
113 289
113 290
113 291
113 293
113 294
113 296
113 301
113 304
113 311
113 314
113 317
113 326
113 327
113 331
113 332
113 338
113 340
113 342
113 344
113 348
113 351
113 359
113 362
113 367
113 372
113 373
113 379
113 381
113 385
113 386
113 390
113 391
113 395
113 397
113 401
113 403
113 406
113 408
113 414
113 415
113 416
113 417
113 418
113 419
113 420
113 421
113 422
113 423
113 424
113 425
113 427
113 428
113 429
113 430
113 432
113 433
113 445
113 449
113 452
113 456
113 459
113 462
113 464
113 465
113 466
113 467
113 468
113 469
113 470
113 471
113 472
113 474
113 476
113 480
113 483
113 488
113 491
113 492
113 493
113 494
113 495
113 496
113 497
113 498
113 499
113 500
113 501
113 502
113 503
113 504
113 506
113 507
113 508
113 509
113 510
113 511
113 513
113 515
114 115
114 116
114 117
114 118
114 119
114 120
114 121
114 124
114 125
114 126
114 127
114 129
114 130
114 131
114 132
114 133
114 134
114 135
114 136
114 137
114 138
114 139
114 140
114 141
114 142
114 144
114 145
114 147
114 148
114 161
114 162
114 167
114 168
114 169
114 170
114 171
114 172
114 173
114 174
114 178
114 185
114 187
114 188
114 189
114 190
114 191
114 192
114 193
114 194
114 195
114 196
114 197
114 198
114 199
114 201
114 202
114 203
114 204
114 205
114 206
114 207
114 208
114 209
114 210
114 211
114 212
114 214
114 215
114 220
114 224
114 227
114 230
114 233
114 238
114 243
114 244
114 248
114 249
114 254
114 255
114 271
114 277
114 280
114 284
114 285
114 291
114 292
114 296
114 301
114 304
114 311
114 314
114 317
114 326
114 327
114 331
114 332
114 338
114 340
114 342
114 344
114 348
114 351
114 359
114 362
114 367
114 372
114 373
114 379
114 381
114 385
114 386
114 390
114 391
114 395
114 397
114 401
114 403
114 406
114 408
114 416
114 418
114 420
114 422
114 424
114 426
114 428
114 430
114 432
114 433
114 444
114 445
114 446
114 447
114 448
114 450
114 451
114 452
114 453
114 454
114 455
114 456
114 457
114 458
114 459
114 460
114 461
114 463
114 465
114 467
114 471
114 473
114 476
114 480
114 483
114 488
114 493
114 494
114 499
114 500
114 504
114 505
114 509
114 510
114 513
114 515
115 116
115 117
115 118
115 119
115 120
115 121
115 124
115 125
115 126
115 127
115 131
115 133
115 135
115 137
115 139
115 141
115 143
115 145
115 147
115 148
115 161
115 162
115 167
115 168
115 169
115 170
115 171
115 172
115 173
115 174
115 178
115 185
115 187
115 188
115 189
115 190
115 191
115 192
115 193
115 194
115 195
115 196
115 197
115 198
115 199
115 200
115 202
115 203
115 204
115 205
115 206
115 207
115 208
115 209
115 210
115 211
115 212
115 214
115 215
115 219
115 220
115 221
115 222
115 223
115 224
115 225
115 226
115 227
115 228
115 229
115 231
115 233
115 238
115 243
115 244
115 248
115 249
115 254
115 255
115 271
115 277
115 280
115 284
115 285
115 291
115 292
115 296
115 301
115 304
115 311
115 314
115 317
115 326
115 327
115 331
115 332
115 338
115 340
115 342
115 344
115 348
115 351
115 359
115 362
115 367
115 372
115 373
115 379
115 381
115 385
115 386
115 390
115 391
115 395
115 397
115 401
115 403
115 406
115 408
115 414
115 415
115 416
115 417
115 418
115 419
115 420
115 421
115 422
115 423
115 424
115 425
115 426
115 427
115 429
115 430
115 432
115 433
115 445
115 449
115 452
115 456
115 459
115 462
115 465
115 467
115 471
115 473
115 475
115 476
115 477
115 478
115 479
115 481
115 483
115 488
115 493
115 494
115 499
115 500
115 504
115 505
115 509
115 510
115 513
115 515
116 117
116 118
116 119
116 120
116 121
116 124
116 125
116 126
116 127
116 129
116 130
116 131
116 132
116 133
116 134
116 135
116 136
116 137
116 138
116 139
116 140
116 141
116 142
116 143
116 144
116 147
116 148
116 161
116 162
116 167
116 168
116 169
116 170
116 171
116 172
116 173
116 174
116 178
116 185
116 187
116 188
116 189
116 190
116 191
116 192
116 193
116 194
116 195
116 196
116 197
116 198
116 199
116 200
116 201
116 202
116 203
116 204
116 206
116 207
116 208
116 209
116 210
116 211
116 212
116 214
116 215
116 220
116 224
116 227
116 230
116 233
116 238
116 243
116 244
116 248
116 249
116 254
116 255
116 271
116 277
116 280
116 284
116 285
116 291
116 292
116 296
116 301
116 304
116 311
116 314
116 317
116 326
116 327
116 331
116 332
116 338
116 340
116 342
116 344
116 348
116 351
116 359
116 362
116 367
116 372
116 373
116 379
116 381
116 385
116 386
116 390
116 391
116 395
116 397
116 401
116 403
116 406
116 408
116 416
116 418
116 420
116 422
116 424
116 426
116 428
116 430
116 432
116 433
116 445
116 449
116 452
116 456
116 459
116 462
116 465
116 467
116 471
116 473
116 476
116 480
116 483
116 488
116 491
116 492
116 493
116 494
116 495
116 496
116 497
116 498
116 499
116 500
116 501
116 502
116 503
116 504
116 505
116 506
116 507
116 508
116 510
116 511
116 513
116 515
117 118
117 119
117 120
117 121
117 124
117 125
117 126
117 127
117 131
117 133
117 135
117 137
117 139
117 141
117 143
117 145
117 147
117 148
117 161
117 162
117 167
117 168
117 169
117 170
117 171
117 172
117 173
117 174
117 178
117 185
117 187
117 188
117 189
117 190
117 191
117 192
117 193
117 194
117 195
117 196
117 197
117 198
117 199
117 200
117 201
117 202
117 203
117 204
117 205
117 207
117 208
117 209
117 210
117 211
117 212
117 214
117 215
117 220
117 224
117 227
117 230
117 233
117 238
117 243
117 244
117 248
117 249
117 254
117 255
117 271
117 276
117 277
117 278
117 279
117 281
117 284
117 285
117 291
117 292
117 296
117 301
117 304
117 311
117 314
117 317
117 326
117 327
117 331
117 332
117 338
117 340
117 342
117 344
117 348
117 351
117 359
117 362
117 367
117 372
117 373
117 379
117 381
117 385
117 386
117 390
117 391
117 395
117 397
117 401
117 403
117 406
117 408
117 414
117 415
117 416
117 417
117 418
117 419
117 420
117 421
117 422
117 423
117 424
117 425
117 426
117 427
117 428
117 429
117 432
117 433
117 445
117 449
117 452
117 456
117 459
117 462
117 465
117 467
117 471
117 473
117 476
117 480
117 483
117 488
117 491
117 492
117 493
117 494
117 495
117 496
117 497
117 498
117 499
117 500
117 501
117 502
117 503
117 504
117 505
117 506
117 507
117 508
117 509
117 511
117 513
117 515
118 119
118 120
118 121
118 122
118 123
118 124
118 125
118 126
118 127
118 128
118 129
118 130
118 132
118 133
118 134
118 135
118 136
118 137
118 138
118 139
118 140
118 141
118 142
118 143
118 144
118 145
118 148
118 151
118 161
118 162
118 164
118 168
118 169
118 170
118 171
118 172
118 173
118 174
118 175
118 176
118 182
118 185
118 189
118 190
118 194
118 195
118 209
118 212
118 213
118 214
118 215
118 216
118 217
118 218
118 220
118 227
118 233
118 236
118 238
118 240
118 243
118 244
118 253
118 255
118 256
118 257
118 258
118 259
118 260
118 261
118 262
118 263
118 264
118 265
118 266
118 267
118 268
118 269
118 271
118 273
118 279
118 284
118 285
118 288
118 291
118 292
118 294
118 299
118 301
118 308
118 311
118 318
118 323
118 328
118 335
118 338
118 340
118 352
118 357
118 359
118 366
118 368
118 369
118 370
118 371
118 373
118 374
118 375
118 376
118 377
118 379
118 381
118 382
118 386
118 387
118 388
118 389
118 390
118 391
118 392
118 393
118 394
118 396
118 397
118 398
118 399
118 400
118 401
118 402
118 403
118 404
118 409
118 413
118 416
118 418
118 424
118 426
118 433
118 436
118 448
118 451
118 453
118 454
118 455
118 456
118 457
118 458
118 459
118 460
118 461
118 462
118 463
118 465
118 467
118 469
118 471
118 473
118 474
118 479
118 482
118 484
118 485
118 486
118 487
118 488
118 489
118 490
118 493
118 494
118 504
118 505
118 512
118 514
118 515
118 516
118 517
118 518
119 120
119 121
119 122
119 123
119 124
119 125
119 126
119 127
119 128
119 131
119 133
119 139
119 141
119 148
119 151
119 161
119 162
119 164
119 167
119 169
119 170
119 171
119 172
119 173
119 174
119 175
119 176
119 182
119 185
119 189
119 190
119 194
119 195
119 209
119 211
119 213
119 214
119 215
119 216
119 217
119 218
119 219
119 221
119 222
119 223
119 224
119 225
119 226
119 227
119 228
119 229
119 230
119 231
119 232
119 234
119 235
119 236
119 237
119 238
119 239
119 240
119 243
119 244
119 254
119 259
119 270
119 272
119 273
119 274
119 275
119 279
119 284
119 285
119 288
119 291
119 292
119 294
119 299
119 301
119 308
119 311
119 318
119 323
119 328
119 335
119 337
119 339
119 340
119 341
119 342
119 343
119 344
119 345
119 346
119 352
119 357
119 358
119 360
119 361
119 362
119 363
119 364
119 365
119 367
119 369
119 372
119 374
119 375
119 376
119 377
119 378
119 380
119 381
119 382
119 383
119 384
119 385
119 387
119 388
119 389
119 390
119 391
119 392
119 393
119 395
119 397
119 399
119 401
119 403
119 404
119 409
119 413
119 414
119 415
119 417
119 418
119 419
119 420
119 421
119 422
119 423
119 424
119 425
119 426
119 427
119 428
119 429
119 430
119 433
119 436
119 448
119 452
119 459
119 464
119 466
119 467
119 468
119 469
119 470
119 471
119 472
119 473
119 474
119 479
119 483
119 486
119 488
119 490
119 493
119 494
119 504
119 505
119 513
119 515
119 516
120 121
120 122
120 123
120 124
120 125
120 126
120 127
120 128
120 129
120 130
120 131
120 132
120 134
120 135
120 136
120 137
120 138
120 139
120 140
120 141
120 142
120 143
120 144
120 145
120 148
120 151
120 159
120 160
120 162
120 163
120 164
120 165
120 166
120 167
120 168
120 170
120 171
120 172
120 173
120 174
120 175
120 176
120 182
120 185
120 189
120 190
120 194
120 195
120 209
120 211
120 212
120 220
120 227
120 233
120 236
120 238
120 240
120 241
120 242
120 244
120 245
120 246
120 247
120 248
120 249
120 250
120 251
120 252
120 254
120 259
120 271
120 273
120 279
120 282
120 283
120 285
120 286
120 287
120 288
120 289
120 290
120 291
120 292
120 293
120 294
120 299
120 301
120 308
120 311
120 318
120 323
120 328
120 335
120 338
120 340
120 352
120 357
120 359
120 367
120 369
120 372
120 373
120 375
120 379
120 381
120 382
120 385
120 386
120 389
120 390
120 391
120 393
120 394
120 395
120 396
120 398
120 399
120 400
120 401
120 402
120 403
120 404
120 409
120 413
120 416
120 418
120 424
120 426
120 431
120 432
120 434
120 435
120 436
120 437
120 438
120 439
120 440
120 441
120 442
120 443
120 448
120 452
120 459
120 465
120 467
120 469
120 471
120 473
120 474
120 479
120 483
120 486
120 488
120 490
120 491
120 492
120 494
120 495
120 496
120 497
120 498
120 499
120 500
120 501
120 502
120 503
120 504
120 505
120 506
120 507
120 508
120 509
120 510
120 511
120 512
120 513
120 514
120 516
120 517
120 518
121 122
121 123
121 124
121 125
121 126
121 127
121 128
121 131
121 133
121 139
121 141
121 146
121 147
121 149
121 150
121 151
121 152
121 153
121 154
121 155
121 156
121 157
121 158
121 159
121 160
121 161
121 163
121 164
121 165
121 166
121 167
121 168
121 169
121 171
121 172
121 173
121 174
121 175
121 176
121 182
121 185
121 189
121 190
121 194
121 195
121 209
121 211
121 212
121 220
121 227
121 233
121 236
121 238
121 240
121 241
121 242
121 243
121 245
121 246
121 247
121 248
121 249
121 250
121 251
121 252
121 254
121 259
121 271
121 273
121 279
121 282
121 283
121 284
121 286
121 287
121 288
121 289
121 290
121 291
121 292
121 293
121 294
121 299
121 301
121 308
121 311
121 318
121 323
121 328
121 335
121 337
121 338
121 339
121 341
121 342
121 343
121 344
121 345
121 346
121 352
121 357
121 359
121 367
121 369
121 372
121 373
121 375
121 378
121 379
121 380
121 382
121 383
121 384
121 385
121 386
121 389
121 390
121 391
121 393
121 395
121 397
121 399
121 401
121 403
121 404
121 409
121 413
121 414
121 415
121 416
121 417
121 419
121 420
121 421
121 422
121 423
121 424
121 425
121 426
121 427
121 428
121 429
121 430
121 433
121 436
121 448
121 452
121 459
121 464
121 465
121 466
121 468
121 469
121 470
121 471
121 472
121 473
121 474
121 479
121 483
121 486
121 488
121 490
121 491
121 492
121 493
121 495
121 496
121 497
121 498
121 499
121 500
121 501
121 502
121 503
121 504
121 505
121 506
121 507
121 508
121 509
121 510
121 511
121 513
121 515
121 516
122 123
122 124
122 125
122 126
122 127
122 128
122 131
122 133
122 139
122 141
122 146
122 147
122 148
122 149
122 150
122 152
122 153
122 154
122 155
122 156
122 157
122 158
122 161
122 162
122 164
122 167
122 168
122 169
122 170
122 177
122 178
122 179
122 180
122 181
122 183
122 184
122 185
122 186
122 189
122 190
122 194
122 195
122 209
122 211
122 212
122 220
122 227
122 233
122 236
122 238
122 240
122 243
122 244
122 253
122 254
122 255
122 256
122 257
122 258
122 260
122 261
122 262
122 263
122 264
122 265
122 266
122 267
122 268
122 269
122 271
122 273
122 279
122 284
122 285
122 288
122 291
122 292
122 294
122 295
122 296
122 297
122 298
122 300
122 301
122 302
122 303
122 304
122 305
122 306
122 307
122 309
122 310
122 311
122 312
122 318
122 323
122 324
122 325
122 326
122 327
122 329
122 330
122 331
122 332
122 333
122 334
122 335
122 336
122 338
122 340
122 352
122 357
122 359
122 367
122 369
122 372
122 373
122 375
122 379
122 381
122 382
122 385
122 386
122 389
122 390
122 391
122 393
122 395
122 397
122 399
122 401
122 403
122 404
122 409
122 413
122 416
122 418
122 424
122 426
122 431
122 432
122 433
122 434
122 435
122 437
122 438
122 439
122 440
122 441
122 442
122 443
122 448
122 452
122 459
122 465
122 467
122 469
122 471
122 473
122 474
122 479
122 483
122 486
122 488
122 490
122 493
122 494
122 504
122 505
122 513
122 515
122 516
123 124
123 125
123 126
123 127
123 128
123 131
123 133
123 139
123 141
123 148
123 151
123 159
123 160
123 161
123 162
123 163
123 165
123 166
123 167
123 168
123 169
123 170
123 182
123 185
123 189
123 190
123 194
123 195
123 209
123 211
123 212
123 220
123 227
123 232
123 233
123 234
123 235
123 237
123 238
123 239
123 240
123 243
123 244
123 254
123 259
123 270
123 271
123 272
123 274
123 275
123 276
123 277
123 278
123 280
123 281
123 282
123 283
123 284
123 285
123 286
123 287
123 289
123 290
123 291
123 292
123 293
123 294
123 299
123 301
123 308
123 311
123 313
123 314
123 315
123 316
123 317
123 319
123 320
123 321
123 322
123 323
123 328
123 335
123 338
123 340
123 347
123 348
123 349
123 350
123 351
123 353
123 354
123 355
123 356
123 357
123 359
123 366
123 367
123 368
123 370
123 371
123 372
123 373
123 374
123 376
123 377
123 378
123 379
123 380
123 381
123 383
123 384
123 385
123 386
123 387
123 388
123 390
123 391
123 392
123 393
123 394
123 395
123 396
123 397
123 398
123 400
123 401
123 402
123 403
123 404
123 405
123 406
123 407
123 408
123 410
123 411
123 412
123 413
123 416
123 418
123 424
123 426
123 433
123 436
123 444
123 445
123 446
123 447
123 449
123 450
123 452
123 459
123 464
123 465
123 466
123 467
123 468
123 470
123 471
123 472
123 473
123 474
123 475
123 476
123 477
123 478
123 480
123 481
123 482
123 483
123 484
123 485
123 487
123 488
123 489
123 490
123 493
123 494
123 504
123 505
123 512
123 513
123 514
123 515
123 517
123 518
124 125
124 126
124 127
124 128
124 129
124 130
124 131
124 132
124 133
124 134
124 135
124 136
124 137
124 138
124 140
124 141
124 142
124 143
124 144
124 145
124 148
124 151
124 161
124 162
124 164
124 167
124 168
124 169
124 170
124 177
124 178
124 179
124 180
124 181
124 182
124 183
124 184
124 186
124 187
124 188
124 190
124 191
124 192
124 193
124 194
124 195
124 196
124 197
124 198
124 199
124 200
124 201
124 202
124 203
124 204
124 205
124 206
124 207
124 208
124 209
124 210
124 211
124 212
124 220
124 227
124 233
124 236
124 238
124 240
124 243
124 244
124 254
124 259
124 271
124 273
124 279
124 284
124 285
124 288
124 291
124 292
124 294
124 299
124 301
124 308
124 311
124 318
124 323
124 328
124 335
124 338
124 340
124 352
124 357
124 359
124 367
124 369
124 372
124 373
124 375
124 379
124 381
124 382
124 385
124 386
124 387
124 388
124 389
124 391
124 392
124 393
124 394
124 395
124 396
124 397
124 398
124 399
124 400
124 402
124 403
124 404
124 409
124 413
124 416
124 418
124 424
124 426
124 433
124 436
124 448
124 451
124 452
124 453
124 454
124 455
124 456
124 457
124 458
124 460
124 461
124 462
124 463
124 465
124 467
124 469
124 471
124 473
124 474
124 479
124 482
124 483
124 484
124 485
124 486
124 487
124 489
124 490
124 493
124 494
124 504
124 505
124 513
124 515
124 516
125 126
125 127
125 128
125 131
125 133
125 139
125 141
125 148
125 151
125 161
125 162
125 164
125 167
125 168
125 169
125 170
125 182
125 185
125 187
125 188
125 189
125 191
125 192
125 193
125 194
125 195
125 196
125 197
125 198
125 199
125 200
125 201
125 202
125 203
125 204
125 205
125 206
125 207
125 208
125 209
125 210
125 211
125 212
125 219
125 220
125 221
125 222
125 223
125 224
125 225
125 226
125 228
125 229
125 230
125 231
125 232
125 233
125 234
125 235
125 236
125 237
125 239
125 240
125 243
125 244
125 254
125 259
125 271
125 273
125 279
125 284
125 285
125 288
125 291
125 292
125 294
125 299
125 301
125 303
125 304
125 305
125 306
125 307
125 308
125 309
125 310
125 312
125 318
125 323
125 328
125 335
125 338
125 340
125 352
125 357
125 359
125 367
125 369
125 372
125 373
125 375
125 379
125 381
125 382
125 385
125 386
125 387
125 388
125 389
125 390
125 392
125 393
125 395
125 397
125 399
125 401
125 403
125 404
125 409
125 413
125 414
125 415
125 416
125 417
125 418
125 419
125 420
125 421
125 422
125 423
125 425
125 426
125 427
125 428
125 429
125 430
125 433
125 436
125 448
125 452
125 459
125 464
125 465
125 466
125 467
125 468
125 469
125 470
125 472
125 473
125 474
125 479
125 483
125 486
125 488
125 490
125 493
125 494
125 504
125 505
125 513
125 515
125 516
126 127
126 128
126 129
126 130
126 131
126 132
126 133
126 134
126 135
126 136
126 137
126 138
126 139
126 140
126 142
126 143
126 144
126 145
126 148
126 151
126 161
126 162
126 164
126 167
126 168
126 169
126 170
126 182
126 185
126 187
126 188
126 189
126 190
126 191
126 192
126 193
126 195
126 196
126 197
126 198
126 199
126 200
126 201
126 202
126 203
126 204
126 205
126 206
126 207
126 208
126 209
126 210
126 211
126 212
126 220
126 227
126 233
126 236
126 238
126 240
126 243
126 244
126 254
126 259
126 271
126 273
126 279
126 282
126 283
126 284
126 285
126 286
126 287
126 288
126 289
126 290
126 292
126 293
126 294
126 295
126 296
126 297
126 298
126 299
126 300
126 302
126 308
126 311
126 318
126 323
126 328
126 335
126 338
126 340
126 352
126 357
126 359
126 367
126 369
126 372
126 373
126 375
126 379
126 381
126 382
126 385
126 386
126 389
126 390
126 391
126 393
126 394
126 395
126 396
126 397
126 398
126 399
126 400
126 401
126 402
126 404
126 409
126 413
126 416
126 418
126 424
126 426
126 433
126 436
126 448
126 452
126 459
126 465
126 467
126 469
126 471
126 473
126 474
126 479
126 483
126 486
126 488
126 490
126 491
126 492
126 493
126 494
126 495
126 496
126 497
126 498
126 499
126 500
126 501
126 502
126 503
126 505
126 506
126 507
126 508
126 509
126 510
126 511
126 513
126 515
126 516
127 128
127 131
127 133
127 139
127 141
127 148
127 151
127 161
127 162
127 164
127 167
127 168
127 169
127 170
127 182
127 185
127 187
127 188
127 189
127 190
127 191
127 192
127 193
127 194
127 196
127 197
127 198
127 199
127 200
127 201
127 202
127 203
127 204
127 205
127 206
127 207
127 208
127 209
127 210
127 211
127 212
127 220
127 227
127 233
127 236
127 238
127 240
127 243
127 244
127 254
127 259
127 271
127 273
127 279
127 282
127 283
127 284
127 285
127 286
127 287
127 288
127 289
127 290
127 291
127 293
127 294
127 299
127 301
127 308
127 311
127 318
127 323
127 328
127 335
127 338
127 340
127 352
127 357
127 359
127 367
127 369
127 372
127 373
127 375
127 379
127 381
127 382
127 385
127 386
127 389
127 390
127 391
127 393
127 395
127 397
127 399
127 401
127 403
127 404
127 409
127 413
127 414
127 415
127 416
127 417
127 418
127 419
127 420
127 421
127 422
127 423
127 424
127 425
127 427
127 428
127 429
127 430
127 433
127 436
127 448
127 452
127 459
127 464
127 465
127 466
127 467
127 468
127 469
127 470
127 471
127 472
127 474
127 479
127 483
127 486
127 488
127 490
127 491
127 492
127 493
127 494
127 495
127 496
127 497
127 498
127 499
127 500
127 501
127 502
127 503
127 504
127 506
127 507
127 508
127 509
127 510
127 511
127 513
127 515
127 516
128 131
128 133
128 139
128 141
128 148
128 151
128 161
128 162
128 164
128 167
128 168
128 169
128 170
128 182
128 185
128 187
128 188
128 189
128 190
128 191
128 192
128 193
128 194
128 195
128 196
128 197
128 198
128 199
128 200
128 201
128 202
128 203
128 204
128 205
128 206
128 207
128 208
128 210
128 211
128 212
128 220
128 227
128 232
128 233
128 234
128 235
128 236
128 237
128 238
128 239
128 243
128 244
128 254
128 259
128 271
128 273
128 279
128 282
128 283
128 284
128 285
128 286
128 287
128 288
128 289
128 290
128 291
128 292
128 293
128 299
128 301
128 308
128 311
128 313
128 314
128 315
128 316
128 317
128 318
128 319
128 320
128 321
128 322
128 324
128 325
128 326
128 327
128 328
128 329
128 330
128 331
128 332
128 333
128 334
128 336
128 338
128 340
128 347
128 348
128 349
128 350
128 351
128 352
128 353
128 354
128 355
128 356
128 359
128 367
128 369
128 372
128 373
128 375
128 379
128 381
128 382
128 385
128 386
128 387
128 388
128 389
128 390
128 391
128 392
128 394
128 395
128 396
128 397
128 398
128 399
128 400
128 401
128 402
128 403
128 405
128 406
128 407
128 408
128 409
128 410
128 411
128 412
128 416
128 418
128 424
128 426
128 433
128 436
128 448
128 452
128 459
128 464
128 465
128 466
128 467
128 468
128 469
128 470
128 471
128 472
128 473
128 479
128 482
128 483
128 484
128 485
128 486
128 487
128 488
128 489
128 493
128 494
128 504
128 505
128 513
128 515
128 516
129 130
129 131
129 132
129 133
129 134
129 135
129 136
129 137
129 138
129 139
129 140
129 141
129 142
129 143
129 144
129 145
129 147
129 148
129 149
129 150
129 151
129 152
129 153
129 154
129 155
129 156
129 157
129 158
129 159
129 161
129 167
129 169
129 171
129 173
129 177
129 185
129 187
129 189
129 192
129 194
129 198
129 200
129 203
129 205
129 211
129 214
129 219
129 221
129 232
129 235
129 241
129 243
129 246
129 248
129 253
129 254
129 270
129 274
129 277
129 278
129 279
129 280
129 281
129 282
129 284
129 289
129 291
129 295
129 301
129 304
129 305
129 306
129 307
129 308
129 309
129 310
129 311
129 312
129 314
129 315
129 316
129 317
129 318
129 319
129 320
129 321
129 322
129 323
129 324
129 326
129 329
129 331
129 337
129 345
129 347
129 351
129 358
129 364
129 367
129 368
129 369
129 370
129 371
129 372
129 378
129 383
129 385
129 390
129 395
129 396
129 397
129 398
129 399
129 400
129 401
129 402
129 403
129 404
129 406
129 407
129 408
129 409
129 410
129 411
129 412
129 413
129 415
129 416
129 417
129 418
129 419
129 420
129 421
129 422
129 423
129 424
129 425
129 426
129 427
129 428
129 429
129 430
129 431
129 433
129 444
129 449
129 452
129 453
129 454
129 455
129 456
129 457
129 458
129 459
129 460
129 461
129 462
129 463
129 464
129 468
129 476
129 477
129 478
129 479
129 480
129 481
129 483
129 484
129 485
129 486
129 487
129 488
129 489
129 490
129 491
129 493
129 497
129 499
129 502
129 504
129 507
129 509
129 513
129 514
129 515
129 516
129 517
129 518
130 131
130 132
130 133
130 134
130 135
130 136
130 137
130 138
130 139
130 140
130 141
130 142
130 143
130 144
130 145
130 146
130 150
130 153
130 156
130 159
130 161
130 167
130 169
130 171
130 173
130 178
130 179
130 180
130 181
130 182
130 183
130 184
130 185
130 186
130 187
130 189
130 192
130 194
130 198
130 200
130 203
130 205
130 211
130 214
130 220
130 221
130 222
130 223
130 224
130 225
130 226
130 227
130 228
130 229
130 230
130 231
130 233
130 234
130 235
130 236
130 237
130 238
130 239
130 240
130 241
130 243
130 246
130 248
130 254
130 255
130 256
130 257
130 258
130 259
130 260
130 261
130 262
130 263
130 264
130 265
130 266
130 267
130 268
130 269
130 271
130 272
130 273
130 274
130 275
130 276
130 282
130 284
130 289
130 291
130 296
130 297
130 298
130 299
130 300
130 301
130 302
130 303
130 305
130 307
130 309
130 313
130 315
130 319
130 321
130 324
130 326
130 329
130 331
130 338
130 339
130 340
130 341
130 342
130 343
130 344
130 345
130 346
130 348
130 349
130 350
130 351
130 352
130 353
130 354
130 355
130 356
130 357
130 359
130 360
130 361
130 362
130 363
130 364
130 365
130 366
130 367
130 372
130 379
130 380
130 381
130 382
130 383
130 384
130 385
130 390
130 394
130 395
130 396
130 397
130 400
130 401
130 402
130 403
130 405
130 410
130 414
130 416
130 417
130 418
130 419
130 420
130 421
130 422
130 423
130 424
130 425
130 426
130 427
130 428
130 429
130 430
130 432
130 433
130 434
130 435
130 436
130 437
130 438
130 439
130 440
130 441
130 442
130 443
130 445
130 446
130 447
130 448
130 449
130 450
130 451
130 452
130 455
130 456
130 458
130 459
130 461
130 462
130 465
130 466
130 467
130 468
130 469
130 470
130 471
130 472
130 473
130 474
130 475
130 477
130 482
130 483
130 487
130 488
130 491
130 493
130 497
130 499
130 502
130 504
130 507
130 509
130 512
130 513
130 514
130 515
131 132
131 133
131 134
131 135
131 136
131 137
131 138
131 139
131 140
131 141
131 142
131 143
131 144
131 145
131 146
131 150
131 153
131 156
131 159
131 161
131 168
131 169
131 170
131 171
131 172
131 173
131 174
131 175
131 176
131 177
131 185
131 187
131 189
131 192
131 194
131 198
131 200
131 203
131 205
131 212
131 213
131 214
131 215
131 216
131 217
131 218
131 219
131 221
131 232
131 235
131 241
131 243
131 246
131 248
131 253
131 255
131 256
131 257
131 258
131 259
131 260
131 261
131 262
131 263
131 264
131 265
131 266
131 267
131 268
131 269
131 270
131 274
131 276
131 282
131 284
131 289
131 291
131 295
131 301
131 303
131 305
131 307
131 309
131 313
131 315
131 319
131 321
131 324
131 326
131 329
131 331
131 337
131 345
131 347
131 351
131 358
131 364
131 366
131 368
131 369
131 370
131 371
131 373
131 374
131 375
131 376
131 377
131 378
131 383
131 386
131 387
131 388
131 389
131 390
131 391
131 392
131 393
131 394
131 396
131 397
131 398
131 399
131 400
131 401
131 402
131 403
131 404
131 405
131 410
131 414
131 415
131 431
131 433
131 444
131 449
131 451
131 453
131 454
131 455
131 456
131 457
131 458
131 459
131 460
131 461
131 462
131 463
131 464
131 468
131 475
131 477
131 482
131 484
131 485
131 486
131 487
131 488
131 489
131 490
131 491
131 493
131 497
131 499
131 502
131 504
131 507
131 509
131 512
131 514
131 515
131 516
131 517
131 518
132 133
132 134
132 135
132 136
132 137
132 138
132 139
132 140
132 141
132 142
132 143
132 144
132 145
132 146
132 150
132 153
132 156
132 160
132 161
132 162
132 163
132 164
132 165
132 166
132 167
132 169
132 171
132 173
132 177
132 185
132 187
132 189
132 192
132 194
132 198
132 200
132 203
132 205
132 211
132 214
132 219
132 220
132 222
132 223
132 224
132 225
132 226
132 227
132 228
132 229
132 230
132 231
132 232
132 235
132 242
132 243
132 244
132 245
132 246
132 247
132 248
132 249
132 250
132 251
132 252
132 253
132 254
132 270
132 274
132 276
132 283
132 284
132 285
132 286
132 287
132 288
132 289
132 290
132 291
132 292
132 293
132 294
132 295
132 301
132 303
132 304
132 306
132 307
132 308
132 309
132 310
132 311
132 312
132 313
132 314
132 316
132 317
132 318
132 319
132 320
132 321
132 322
132 323
132 324
132 326
132 329
132 331
132 337
132 345
132 347
132 351
132 358
132 364
132 366
132 367
132 372
132 378
132 383
132 385
132 390
132 394
132 395
132 397
132 398
132 399
132 400
132 401
132 402
132 403
132 404
132 405
132 410
132 414
132 415
132 431
132 433
132 444
132 449
132 451
132 452
132 455
132 456
132 458
132 459
132 461
132 462
132 464
132 468
132 475
132 476
132 478
132 479
132 480
132 481
132 482
132 483
132 487
132 488
132 492
132 493
132 494
132 495
132 496
132 497
132 498
132 499
132 500
132 501
132 502
132 503
132 504
132 505
132 506
132 507
132 508
132 509
132 510
132 511
132 512
132 513
132 515
132 516
132 517
132 518
133 134
133 135
133 136
133 137
133 138
133 139
133 140
133 141
133 142
133 143
133 144
133 145
133 146
133 150
133 153
133 156
133 159
133 160
133 162
133 163
133 164
133 165
133 166
133 167
133 168
133 170
133 171
133 172
133 173
133 174
133 175
133 176
133 177
133 185
133 187
133 189
133 192
133 194
133 198
133 200
133 203
133 205
133 211
133 214
133 219
133 221
133 232
133 235
133 241
133 242
133 244
133 245
133 246
133 247
133 248
133 249
133 250
133 251
133 252
133 253
133 254
133 270
133 274
133 276
133 282
133 283
133 285
133 286
133 287
133 288
133 289
133 290
133 291
133 292
133 293
133 294
133 295
133 301
133 303
133 305
133 307
133 309
133 313
133 315
133 319
133 321
133 324
133 326
133 329
133 331
133 337
133 345
133 347
133 351
133 358
133 364
133 366
133 367
133 372
133 378
133 383
133 385
133 390
133 394
133 395
133 396
133 398
133 399
133 400
133 401
133 402
133 403
133 404
133 405
133 410
133 414
133 415
133 431
133 432
133 434
133 435
133 436
133 437
133 438
133 439
133 440
133 441
133 442
133 443
133 444
133 449
133 451
133 452
133 455
133 456
133 458
133 459
133 461
133 462
133 464
133 468
133 475
133 477
133 482
133 483
133 487
133 488
133 491
133 492
133 494
133 495
133 496
133 497
133 498
133 499
133 500
133 501
133 502
133 503
133 504
133 505
133 506
133 507
133 508
133 509
133 510
133 511
133 512
133 513
133 514
133 516
133 517
133 518
134 135
134 136
134 137
134 138
134 139
134 140
134 141
134 142
134 143
134 144
134 145
134 146
134 147
134 148
134 149
134 151
134 152
134 153
134 154
134 155
134 156
134 157
134 158
134 159
134 161
134 167
134 169
134 171
134 173
134 177
134 185
134 187
134 189
134 192
134 194
134 198
134 200
134 203
134 205
134 211
134 214
134 219
134 221
134 232
134 235
134 241
134 243
134 246
134 248
134 253
134 254
134 270
134 274
134 276
134 282
134 284
134 289
134 291
134 295
134 301
134 303
134 304
134 305
134 306
134 308
134 309
134 310
134 311
134 312
134 313
134 315
134 319
134 321
134 325
134 326
134 327
134 328
134 329
134 330
134 331
134 332
134 333
134 334
134 335
134 336
134 337
134 345
134 347
134 351
134 358
134 364
134 366
134 367
134 372
134 378
134 383
134 385
134 390
134 394
134 395
134 396
134 397
134 400
134 401
134 402
134 403
134 405
134 410
134 414
134 415
134 431
134 433
134 444
134 449
134 451
134 452
134 453
134 454
134 456
134 457
134 458
134 459
134 460
134 461
134 462
134 463
134 464
134 465
134 466
134 467
134 469
134 470
134 471
134 472
134 473
134 474
134 475
134 477
134 482
134 483
134 487
134 488
134 491
134 493
134 497
134 499
134 502
134 504
134 507
134 509
134 512
134 513
134 514
134 515
135 136
135 137
135 138
135 139
135 140
135 141
135 142
135 143
135 144
135 145
135 146
135 150
135 153
135 156
135 159
135 161
135 167
135 168
135 169
135 170
135 172
135 173
135 174
135 175
135 176
135 177
135 185
135 187
135 189
135 192
135 194
135 198
135 200
135 203
135 205
135 211
135 212
135 213
135 215
135 216
135 217
135 218
135 219
135 221
135 232
135 235
135 241
135 243
135 246
135 248
135 253
135 254
135 270
135 274
135 276
135 282
135 284
135 289
135 291
135 295
135 301
135 303
135 305
135 307
135 309
135 313
135 315
135 319
135 321
135 324
135 325
135 327
135 328
135 329
135 330
135 331
135 332
135 333
135 334
135 335
135 336
135 337
135 345
135 347
135 348
135 349
135 350
135 352
135 353
135 354
135 355
135 356
135 357
135 358
135 364
135 366
135 367
135 372
135 378
135 383
135 385
135 390
135 394
135 395
135 396
135 397
135 400
135 401
135 402
135 403
135 405
135 410
135 414
135 415
135 431
135 433
135 444
135 449
135 451
135 452
135 453
135 454
135 455
135 457
135 458
135 459
135 460
135 461
135 462
135 463
135 464
135 468
135 475
135 477
135 482
135 483
135 487
135 488
135 491
135 493
135 497
135 499
135 502
135 504
135 507
135 509
135 512
135 513
135 514
135 515
136 137
136 138
136 139
136 140
136 141
136 142
136 143
136 144
136 145
136 146
136 150
136 153
136 156
136 159
136 161
136 167
136 169
136 171
136 173
136 177
136 185
136 187
136 189
136 192
136 194
136 198
136 200
136 203
136 205
136 211
136 214
136 219
136 221
136 232
136 233
136 234
136 236
136 237
136 238
136 239
136 240
136 241
136 242
136 243
136 244
136 245
136 247
136 248
136 249
136 250
136 251
136 252
136 253
136 254
136 270
136 274
136 276
136 282
136 284
136 289
136 291
136 295
136 301
136 303
136 304
136 305
136 306
136 307
136 308
136 310
136 311
136 312
136 313
136 315
136 319
136 321
136 324
136 325
136 326
136 327
136 328
136 330
136 331
136 332
136 333
136 334
136 335
136 336
136 337
136 345
136 347
136 351
136 358
136 364
136 366
136 367
136 372
136 378
136 383
136 385
136 390
136 394
136 395
136 396
136 397
136 400
136 401
136 402
136 403
136 405
136 410
136 414
136 415
136 431
136 433
136 444
136 449
136 451
136 452
136 455
136 456
136 458
136 459
136 461
136 462
136 464
136 468
136 475
136 477
136 482
136 483
136 487
136 488
136 491
136 492
136 493
136 494
136 495
136 496
136 498
136 499
136 500
136 501
136 502
136 503
136 504
136 505
136 506
136 507
136 508
136 509
136 510
136 511
136 512
136 513
136 514
136 515
137 138
137 139
137 140
137 141
137 142
137 143
137 144
137 145
137 146
137 150
137 153
137 156
137 159
137 161
137 167
137 168
137 169
137 170
137 171
137 172
137 174
137 175
137 176
137 177
137 185
137 187
137 189
137 192
137 194
137 198
137 200
137 203
137 205
137 211
137 214
137 219
137 221
137 232
137 235
137 241
137 242
137 243
137 244
137 245
137 246
137 247
137 249
137 250
137 251
137 252
137 253
137 254
137 270
137 274
137 276
137 282
137 284
137 289
137 291
137 295
137 301
137 303
137 305
137 307
137 309
137 313
137 315
137 319
137 321
137 324
137 325
137 326
137 327
137 328
137 329
137 330
137 332
137 333
137 334
137 335
137 336
137 337
137 345
137 347
137 351
137 358
137 364
137 366
137 367
137 372
137 378
137 383
137 385
137 390
137 394
137 395
137 396
137 397
137 400
137 401
137 402
137 403
137 405
137 410
137 414
137 415
137 431
137 433
137 444
137 449
137 451
137 452
137 455
137 456
137 458
137 459
137 461
137 462
137 464
137 468
137 475
137 477
137 482
137 483
137 487
137 488
137 491
137 492
137 493
137 494
137 495
137 496
137 497
137 498
137 500
137 501
137 502
137 503
137 504
137 505
137 506
137 507
137 508
137 509
137 510
137 511
137 512
137 513
137 514
137 515
138 139
138 140
138 141
138 142
138 143
138 144
138 145
138 146
138 147
138 148
138 149
138 150
138 151
138 152
138 154
138 155
138 156
138 157
138 158
138 159
138 161
138 167
138 169
138 171
138 173
138 177
138 185
138 188
138 189
138 190
138 191
138 192
138 193
138 194
138 195
138 196
138 197
138 198
138 199
138 200
138 201
138 202
138 203
138 204
138 205
138 206
138 207
138 208
138 209
138 210
138 211
138 214
138 219
138 221
138 232
138 235
138 241
138 243
138 246
138 248
138 253
138 254
138 270
138 274
138 276
138 282
138 284
138 289
138 291
138 295
138 301
138 303
138 305
138 307
138 309
138 313
138 314
138 315
138 316
138 317
138 318
138 320
138 321
138 322
138 323
138 324
138 326
138 329
138 331
138 337
138 338
138 339
138 340
138 341
138 342
138 343
138 344
138 346
138 347
138 351
138 358
138 364
138 366
138 367
138 372
138 378
138 383
138 385
138 390
138 394
138 395
138 396
138 397
138 398
138 399
138 401
138 402
138 403
138 404
138 405
138 406
138 407
138 408
138 409
138 411
138 412
138 413
138 414
138 415
138 431
138 433
138 444
138 449
138 451
138 452
138 453
138 454
138 455
138 456
138 457
138 459
138 460
138 461
138 462
138 463
138 464
138 468
138 475
138 477
138 482
138 483
138 484
138 485
138 486
138 488
138 489
138 490
138 491
138 493
138 497
138 499
138 502
138 504
138 507
138 509
138 512
138 513
138 514
138 515
139 140
139 141
139 142
139 143
139 144
139 145
139 146
139 150
139 153
139 156
139 159
139 161
139 167
139 169
139 171
139 173
139 177
139 178
139 179
139 180
139 181
139 182
139 183
139 184
139 186
139 187
139 188
139 190
139 191
139 192
139 193
139 194
139 195
139 196
139 197
139 198
139 199
139 200
139 201
139 202
139 203
139 204
139 205
139 206
139 207
139 208
139 209
139 210
139 211
139 214
139 219
139 221
139 232
139 235
139 241
139 243
139 246
139 248
139 253
139 254
139 270
139 274
139 276
139 282
139 284
139 289
139 291
139 295
139 301
139 303
139 305
139 307
139 309
139 313
139 315
139 319
139 321
139 324
139 326
139 329
139 331
139 337
139 345
139 347
139 351
139 358
139 364
139 366
139 367
139 372
139 378
139 383
139 385
139 386
139 387
139 388
139 389
139 391
139 392
139 393
139 394
139 395
139 396
139 397
139 398
139 399
139 400
139 402
139 403
139 404
139 405
139 410
139 414
139 415
139 431
139 433
139 444
139 449
139 451
139 452
139 453
139 454
139 455
139 456
139 457
139 458
139 460
139 461
139 462
139 463
139 464
139 468
139 475
139 477
139 482
139 483
139 484
139 485
139 486
139 487
139 489
139 490
139 491
139 493
139 497
139 499
139 502
139 504
139 507
139 509
139 512
139 513
139 514
139 515
140 141
140 142
140 143
140 144
140 145
140 146
140 150
140 153
140 156
140 159
140 161
140 167
140 169
140 171
140 173
140 177
140 185
140 187
140 188
140 189
140 190
140 191
140 193
140 194
140 195
140 196
140 197
140 198
140 199
140 200
140 201
140 202
140 203
140 204
140 205
140 206
140 207
140 208
140 209
140 210
140 211
140 214
140 219
140 221
140 232
140 235
140 241
140 243
140 246
140 248
140 253
140 254
140 270
140 274
140 276
140 282
140 283
140 284
140 285
140 286
140 287
140 288
140 290
140 291
140 292
140 293
140 294
140 295
140 301
140 303
140 305
140 307
140 309
140 313
140 314
140 315
140 316
140 317
140 318
140 319
140 320
140 322
140 323
140 324
140 326
140 329
140 331
140 337
140 345
140 347
140 351
140 358
140 359
140 360
140 361
140 362
140 363
140 365
140 366
140 367
140 372
140 378
140 383
140 385
140 390
140 394
140 395
140 396
140 397
140 398
140 399
140 400
140 401
140 403
140 404
140 405
140 410
140 414
140 415
140 431
140 433
140 444
140 449
140 451
140 452
140 455
140 456
140 458
140 459
140 461
140 462
140 464
140 468
140 475
140 477
140 482
140 483
140 487
140 488
140 491
140 492
140 493
140 494
140 495
140 496
140 497
140 498
140 499
140 500
140 501
140 503
140 504
140 505
140 506
140 507
140 508
140 509
140 510
140 511
140 512
140 513
140 514
140 515
141 142
141 143
141 144
141 145
141 146
141 150
141 153
141 156
141 159
141 161
141 167
141 169
141 171
141 173
141 177
141 185
141 187
141 188
141 189
141 190
141 191
141 192
141 193
141 195
141 196
141 197
141 198
141 199
141 200
141 201
141 202
141 203
141 204
141 205
141 206
141 207
141 208
141 209
141 210
141 211
141 214
141 219
141 221
141 232
141 235
141 241
141 243
141 246
141 248
141 253
141 254
141 270
141 274
141 276
141 282
141 283
141 284
141 285
141 286
141 287
141 288
141 289
141 290
141 292
141 293
141 294
141 295
141 296
141 297
141 298
141 299
141 300
141 302
141 303
141 305
141 307
141 309
141 313
141 315
141 319
141 321
141 324
141 326
141 329
141 331
141 337
141 345
141 347
141 351
141 358
141 364
141 366
141 367
141 372
141 378
141 383
141 385
141 390
141 394
141 395
141 396
141 397
141 398
141 399
141 400
141 401
141 402
141 404
141 405
141 410
141 414
141 415
141 431
141 433
141 444
141 449
141 451
141 452
141 455
141 456
141 458
141 459
141 461
141 462
141 464
141 468
141 475
141 477
141 482
141 483
141 487
141 488
141 491
141 492
141 493
141 494
141 495
141 496
141 497
141 498
141 499
141 500
141 501
141 502
141 503
141 505
141 506
141 507
141 508
141 509
141 510
141 511
141 512
141 513
141 514
141 515
142 143
142 144
142 145
142 146
142 147
142 148
142 149
142 150
142 151
142 152
142 153
142 154
142 155
142 157
142 158
142 159
142 161
142 167
142 169
142 171
142 173
142 177
142 185
142 187
142 188
142 189
142 190
142 191
142 192
142 193
142 194
142 195
142 196
142 197
142 199
142 200
142 201
142 202
142 203
142 204
142 205
142 206
142 207
142 208
142 209
142 210
142 211
142 214
142 219
142 221
142 232
142 235
142 241
142 243
142 246
142 248
142 253
142 254
142 270
142 274
142 276
142 282
142 284
142 289
142 291
142 295
142 301
142 303
142 305
142 307
142 309
142 313
142 315
142 319
142 321
142 324
142 326
142 329
142 331
142 337
142 345
142 347
142 351
142 358
142 364
142 366
142 367
142 372
142 378
142 379
142 380
142 381
142 382
142 384
142 385
142 390
142 394
142 395
142 396
142 397
142 400
142 401
142 402
142 403
142 405
142 410
142 414
142 415
142 431
142 433
142 444
142 449
142 451
142 452
142 453
142 454
142 455
142 456
142 457
142 458
142 459
142 460
142 462
142 463
142 464
142 468
142 475
142 477
142 482
142 483
142 487
142 488
142 491
142 493
142 497
142 499
142 502
142 504
142 507
142 509
142 512
142 513
142 514
142 515
143 144
143 145
143 146
143 150
143 153
143 156
143 159
143 161
143 167
143 169
143 171
143 173
143 177
143 185
143 187
143 188
143 189
143 190
143 191
143 192
143 193
143 194
143 195
143 196
143 197
143 198
143 199
143 201
143 202
143 203
143 204
143 205
143 206
143 207
143 208
143 209
143 210
143 211
143 214
143 219
143 221
143 232
143 235
143 241
143 243
143 246
143 248
143 253
143 254
143 270
143 274
143 276
143 282
143 284
143 289
143 291
143 295
143 301
143 303
143 305
143 307
143 309
143 313
143 315
143 319
143 321
143 324
143 326
143 329
143 331
143 337
143 345
143 347
143 351
143 358
143 364
143 366
143 367
143 372
143 378
143 383
143 385
143 390
143 394
143 395
143 396
143 397
143 400
143 401
143 402
143 403
143 405
143 410
143 414
143 415
143 431
143 433
143 444
143 445
143 446
143 447
143 448
143 450
143 451
143 452
143 453
143 454
143 455
143 456
143 457
143 458
143 459
143 460
143 461
143 463
143 464
143 468
143 475
143 477
143 482
143 483
143 487
143 488
143 491
143 493
143 497
143 499
143 502
143 504
143 507
143 509
143 512
143 513
143 514
143 515
144 145
144 146
144 150
144 153
144 156
144 159
144 161
144 167
144 169
144 171
144 173
144 177
144 185
144 187
144 188
144 189
144 190
144 191
144 192
144 193
144 194
144 195
144 196
144 197
144 198
144 199
144 200
144 201
144 202
144 204
144 205
144 206
144 207
144 208
144 209
144 210
144 211
144 214
144 219
144 221
144 232
144 235
144 241
144 243
144 246
144 248
144 253
144 254
144 270
144 271
144 272
144 273
144 275
144 276
144 282
144 284
144 289
144 291
144 295
144 301
144 303
144 305
144 307
144 309
144 313
144 315
144 319
144 321
144 324
144 326
144 329
144 331
144 337
144 345
144 347
144 351
144 358
144 364
144 366
144 367
144 372
144 378
144 383
144 385
144 390
144 394
144 395
144 396
144 397
144 400
144 401
144 402
144 403
144 405
144 410
144 414
144 415
144 431
144 433
144 444
144 449
144 451
144 452
144 455
144 456
144 458
144 459
144 461
144 462
144 464
144 468
144 475
144 477
144 482
144 483
144 487
144 488
144 491
144 492
144 493
144 494
144 495
144 496
144 497
144 498
144 499
144 500
144 501
144 502
144 503
144 504
144 505
144 506
144 508
144 509
144 510
144 511
144 512
144 513
144 514
144 515
145 146
145 150
145 153
145 156
145 159
145 161
145 167
145 169
145 171
145 173
145 177
145 185
145 187
145 188
145 189
145 190
145 191
145 192
145 193
145 194
145 195
145 196
145 197
145 198
145 199
145 200
145 201
145 202
145 203
145 204
145 206
145 207
145 208
145 209
145 210
145 211
145 214
145 219
145 221
145 232
145 235
145 241
145 243
145 246
145 248
145 253
145 254
145 270
145 274
145 276
145 282
145 284
145 289
145 291
145 295
145 301
145 303
145 305
145 307
145 309
145 313
145 315
145 319
145 321
145 324
145 326
145 329
145 331
145 337
145 345
145 347
145 351
145 358
145 364
145 366
145 367
145 372
145 378
145 383
145 385
145 390
145 394
145 395
145 396
145 397
145 400
145 401
145 402
145 403
145 405
145 410
145 414
145 415
145 431
145 433
145 444
145 449
145 451
145 452
145 455
145 456
145 458
145 459
145 461
145 462
145 464
145 468
145 475
145 477
145 482
145 483
145 487
145 488
145 491
145 492
145 493
145 494
145 495
145 496
145 497
145 498
145 499
145 500
145 501
145 502
145 503
145 504
145 505
145 506
145 507
145 508
145 510
145 511
145 512
145 513
145 514
145 515
146 147
146 148
146 149
146 150
146 151
146 152
146 153
146 154
146 155
146 156
146 157
146 158
146 162
146 165
146 170
146 175
146 178
146 182
146 187
146 191
146 197
146 198
146 202
146 208
146 213
146 216
146 222
146 225
146 228
146 231
146 234
146 239
146 244
146 251
146 255
146 259
146 263
146 267
146 272
146 277
146 278
146 279
146 280
146 281
146 285
146 287
146 296
146 297
146 299
146 300
146 304
146 305
146 306
146 307
146 308
146 309
146 310
146 311
146 312
146 314
146 315
146 316
146 317
146 318
146 319
146 320
146 321
146 322
146 323
146 324
146 328
146 334
146 340
146 345
146 348
146 354
146 360
146 363
146 367
146 368
146 369
146 370
146 371
146 374
146 381
146 383
146 387
146 392
146 395
146 396
146 397
146 398
146 399
146 400
146 401
146 402
146 403
146 404
146 406
146 407
146 408
146 409
146 410
146 411
146 412
146 413
146 415
146 416
146 417
146 418
146 419
146 420
146 421
146 422
146 423
146 424
146 425
146 426
146 427
146 428
146 429
146 430
146 432
146 434
146 436
146 437
146 439
146 440
146 442
146 443
146 445
146 452
146 453
146 454
146 455
146 456
146 457
146 458
146 459
146 460
146 461
146 462
146 463
146 467
146 468
146 476
146 477
146 478
146 479
146 480
146 481
146 483
146 484
146 485
146 486
146 487
146 488
146 489
146 490
146 494
146 496
146 513
146 514
146 515
146 516
146 517
146 518
147 148
147 149
147 150
147 151
147 152
147 153
147 154
147 155
147 156
147 157
147 158
147 162
147 165
147 170
147 175
147 177
147 179
147 180
147 181
147 182
147 183
147 184
147 185
147 186
147 187
147 191
147 197
147 198
147 202
147 208
147 213
147 216
147 222
147 225
147 228
147 231
147 234
147 239
147 244
147 251
147 253
147 254
147 256
147 257
147 258
147 259
147 260
147 261
147 262
147 263
147 264
147 265
147 266
147 267
147 268
147 269
147 272
147 276
147 278
147 279
147 280
147 281
147 285
147 287
147 295
147 297
147 298
147 299
147 300
147 301
147 302
147 303
147 305
147 306
147 307
147 308
147 309
147 310
147 311
147 312
147 313
147 315
147 316
147 317
147 318
147 319
147 320
147 321
147 322
147 323
147 324
147 328
147 334
147 340
147 345
147 347
147 349
147 350
147 351
147 352
147 353
147 354
147 355
147 356
147 357
147 360
147 363
147 366
147 368
147 374
147 381
147 383
147 387
147 392
147 394
147 400
147 405
147 407
147 408
147 409
147 410
147 411
147 412
147 413
147 414
147 418
147 431
147 433
147 434
147 435
147 436
147 437
147 438
147 439
147 440
147 441
147 442
147 443
147 444
147 446
147 447
147 448
147 449
147 450
147 451
147 454
147 455
147 457
147 458
147 460
147 461
147 463
147 467
147 468
147 475
147 477
147 478
147 479
147 480
147 481
147 482
147 484
147 487
147 489
147 494
147 496
147 512
148 149
148 150
148 151
148 152
148 153
148 154
148 155
148 156
148 157
148 158
148 159
148 160
148 161
148 163
148 164
148 165
148 166
148 167
148 168
148 169
148 171
148 172
148 173
148 174
148 175
148 176
148 178
148 182
148 187
148 191
148 197
148 198
148 202
148 208
148 213
148 216
148 222
148 225
148 228
148 231
148 234
148 239
148 241
148 242
148 243
148 245
148 246
148 247
148 248
148 249
148 250
148 251
148 252
148 255
148 259
148 263
148 267
148 272
148 276
148 277
148 278
148 282
148 283
148 284
148 286
148 287
148 288
148 289
148 290
148 291
148 292
148 293
148 294
148 296
148 297
148 299
148 300
148 303
148 304
148 307
148 308
148 313
148 314
148 319
148 320
148 324
148 328
148 334
148 337
148 338
148 339
148 341
148 342
148 343
148 344
148 345
148 346
148 348
148 354
148 360
148 363
148 366
148 368
148 374
148 378
148 379
148 380
148 382
148 383
148 384
148 387
148 392
148 394
148 400
148 405
148 406
148 407
148 410
148 411
148 412
148 414
148 415
148 416
148 417
148 419
148 420
148 421
148 422
148 423
148 424
148 425
148 426
148 427
148 428
148 429
148 430
148 432
148 434
148 436
148 437
148 439
148 440
148 442
148 443
148 445
148 451
148 454
148 455
148 457
148 458
148 460
148 461
148 463
148 464
148 465
148 466
148 468
148 469
148 470
148 471
148 472
148 473
148 474
148 475
148 476
148 482
148 484
148 487
148 489
148 491
148 492
148 493
148 495
148 496
148 497
148 498
148 499
148 500
148 501
148 502
148 503
148 504
148 505
148 506
148 507
148 508
148 509
148 510
148 511
148 512
149 150
149 151
149 152
149 153
149 154
149 155
149 156
149 157
149 158
149 162
149 165
149 170
149 175
149 178
149 182
149 187
149 191
149 197
149 198
149 202
149 208
149 211
149 212
149 214
149 215
149 216
149 217
149 218
149 219
149 220
149 221
149 223
149 224
149 225
149 226
149 227
149 228
149 229
149 230
149 231
149 232
149 233
149 235
149 236
149 237
149 238
149 239
149 240
149 244
149 251
149 255
149 259
149 263
149 267
149 270
149 271
149 273
149 274
149 275
149 276
149 277
149 279
149 280
149 281
149 285
149 287
149 295
149 296
149 298
149 299
149 300
149 301
149 302
149 303
149 304
149 307
149 308
149 313
149 314
149 319
149 320
149 324
149 328
149 334
149 340
149 345
149 348
149 354
149 358
149 359
149 361
149 362
149 363
149 364
149 365
149 366
149 367
149 369
149 370
149 371
149 372
149 373
149 375
149 376
149 377
149 381
149 383
149 385
149 386
149 388
149 389
149 390
149 391
149 392
149 393
149 394
149 400
149 405
149 406
149 408
149 409
149 410
149 411
149 412
149 413
149 414
149 418
149 431
149 432
149 433
149 435
149 436
149 437
149 438
149 439
149 440
149 441
149 442
149 443
149 445
149 451
149 452
149 453
149 455
149 456
149 457
149 458
149 459
149 460
149 461
149 462
149 463
149 467
149 468
149 475
149 476
149 482
149 483
149 485
149 486
149 487
149 488
149 489
149 490
149 491
149 492
149 493
149 494
149 495
149 497
149 498
149 499
149 500
149 501
149 502
149 503
149 504
149 505
149 506
149 507
149 508
149 509
149 510
149 511
149 512
150 151
150 152
150 153
150 154
150 155
150 156
150 157
150 158
150 162
150 165
150 170
150 175
150 178
150 182
150 187
150 191
150 197
150 198
150 202
150 208
150 213
150 216
150 222
150 225
150 228
150 231
150 234
150 239
150 244
150 251
150 255
150 259
150 263
150 267
150 272
150 276
150 277
150 278
150 285
150 287
150 296
150 297
150 299
150 300
150 303
150 304
150 305
150 306
150 308
150 309
150 310
150 311
150 312
150 313
150 314
150 319
150 320
150 325
150 326
150 327
150 328
150 329
150 330
150 331
150 332
150 333
150 334
150 335
150 336
150 340
150 345
150 348
150 354
150 360
150 363
150 366
150 368
150 374
150 381
150 383
150 387
150 392
150 394
150 400
150 405
150 406
150 407
150 410
150 411
150 412
150 414
150 418
150 432
150 434
150 436
150 437
150 439
150 440
150 442
150 443
150 445
150 451
150 452
150 453
150 454
150 456
150 457
150 458
150 459
150 460
150 461
150 462
150 463
150 464
150 465
150 466
150 467
150 469
150 470
150 471
150 472
150 473
150 474
150 475
150 476
150 482
150 484
150 487
150 489
150 494
150 496
150 512
151 152
151 153
151 154
151 155
151 156
151 157
151 158
151 162
151 165
151 170
151 175
151 177
151 178
151 179
151 180
151 181
151 183
151 184
151 185
151 186
151 187
151 191
151 197
151 198
151 202
151 208
151 213
151 216
151 222
151 225
151 228
151 231
151 234
151 239
151 244
151 251
151 253
151 254
151 255
151 256
151 257
151 258
151 260
151 261
151 262
151 263
151 264
151 265
151 266
151 267
151 268
151 269
151 272
151 276
151 277
151 278
151 285
151 287
151 295
151 296
151 297
151 298
151 300
151 301
151 302
151 303
151 304
151 305
151 306
151 307
151 309
151 310
151 311
151 312
151 313
151 314
151 319
151 320
151 324
151 325
151 326
151 327
151 329
151 330
151 331
151 332
151 333
151 334
151 335
151 336
151 340
151 345
151 348
151 354
151 360
151 363
151 366
151 368
151 374
151 381
151 383
151 387
151 392
151 394
151 400
151 405
151 406
151 407
151 410
151 411
151 412
151 414
151 418
151 431
151 432
151 433
151 434
151 435
151 437
151 438
151 439
151 440
151 441
151 442
151 443
151 445
151 451
151 454
151 455
151 457
151 458
151 460
151 461
151 463
151 467
151 468
151 475
151 476
151 482
151 484
151 487
151 489
151 494
151 496
151 512
152 153
152 154
152 155
152 156
152 157
152 158
152 162
152 165
152 170
152 175
152 178
152 182
152 187
152 191
152 197
152 198
152 202
152 208
152 211
152 212
152 213
152 214
152 215
152 217
152 218
152 219
152 220
152 221
152 222
152 223
152 224
152 226
152 227
152 228
152 229
152 230
152 231
152 234
152 239
152 244
152 251
152 255
152 259
152 263
152 267
152 272
152 276
152 277
152 278
152 282
152 283
152 284
152 285
152 286
152 288
152 289
152 290
152 291
152 292
152 293
152 294
152 295
152 296
152 297
152 298
152 299
152 301
152 302
152 303
152 304
152 307
152 308
152 313
152 314
152 319
152 320
152 324
152 325
152 326
152 327
152 328
152 329
152 330
152 331
152 332
152 333
152 335
152 336
152 340
152 345
152 348
152 354
152 358
152 359
152 360
152 361
152 362
152 364
152 365
152 366
152 368
152 374
152 381
152 383
152 387
152 392
152 394
152 400
152 405
152 406
152 407
152 410
152 411
152 412
152 414
152 418
152 431
152 432
152 433
152 434
152 435
152 436
152 438
152 439
152 440
152 441
152 442
152 443
152 445
152 451
152 452
152 453
152 454
152 455
152 456
152 458
152 459
152 460
152 461
152 462
152 463
152 467
152 468
152 475
152 476
152 482
152 484
152 487
152 489
152 494
152 496
152 512
153 154
153 155
153 156
153 157
153 158
153 162
153 165
153 170
153 175
153 178
153 182
153 188
153 189
153 190
153 191
153 192
153 193
153 194
153 195
153 196
153 197
153 198
153 199
153 200
153 201
153 202
153 203
153 204
153 205
153 206
153 207
153 208
153 209
153 210
153 213
153 216
153 222
153 225
153 228
153 231
153 234
153 239
153 244
153 251
153 255
153 259
153 263
153 267
153 272
153 276
153 277
153 278
153 285
153 287
153 296
153 297
153 299
153 300
153 303
153 304
153 307
153 308
153 313
153 314
153 315
153 316
153 317
153 318
153 320
153 321
153 322
153 323
153 324
153 328
153 334
153 337
153 338
153 339
153 340
153 341
153 342
153 343
153 344
153 346
153 348
153 354
153 360
153 363
153 366
153 368
153 374
153 381
153 383
153 387
153 392
153 394
153 395
153 396
153 397
153 398
153 399
153 401
153 402
153 403
153 404
153 405
153 406
153 407
153 408
153 409
153 411
153 412
153 413
153 414
153 418
153 432
153 434
153 436
153 437
153 439
153 440
153 442
153 443
153 445
153 451
153 452
153 453
153 454
153 455
153 456
153 457
153 459
153 460
153 461
153 462
153 463
153 467
153 468
153 475
153 476
153 482
153 483
153 484
153 485
153 486
153 488
153 489
153 490
153 494
153 496
153 512
154 155
154 156
154 157
154 158
154 162
154 165
154 167
154 168
154 169
154 170
154 171
154 172
154 173
154 174
154 176
154 178
154 182
154 187
154 188
154 189
154 190
154 192
154 193
154 194
154 195
154 196
154 197
154 198
154 199
154 200
154 201
154 202
154 203
154 204
154 205
154 206
154 207
154 208
154 209
154 210
154 213
154 216
154 222
154 225
154 228
154 231
154 234
154 239
154 244
154 251
154 253
154 254
154 255
154 256
154 257
154 258
154 259
154 260
154 261
154 262
154 264
154 265
154 266
154 267
154 268
154 269
154 272
154 276
154 277
154 278
154 285
154 287
154 296
154 297
154 299
154 300
154 303
154 304
154 307
154 308
154 313
154 314
154 315
154 316
154 317
154 318
154 319
154 321
154 322
154 323
154 324
154 328
154 334
154 340
154 345
154 347
154 348
154 349
154 350
154 351
154 352
154 353
154 355
154 356
154 357
154 360
154 363
154 366
154 368
154 374
154 381
154 383
154 387
154 392
154 394
154 400
154 405
154 406
154 407
154 408
154 409
154 410
154 412
154 413
154 414
154 418
154 431
154 432
154 433
154 434
154 435
154 436
154 437
154 438
154 440
154 441
154 442
154 443
154 445
154 451
154 454
154 455
154 457
154 458
154 460
154 461
154 463
154 467
154 468
154 475
154 476
154 482
154 484
154 487
154 489
154 494
154 496
154 512
155 156
155 157
155 158
155 162
155 165
155 170
155 175
155 178
155 182
155 187
155 188
155 189
155 190
155 191
155 192
155 193
155 194
155 195
155 196
155 198
155 199
155 200
155 201
155 202
155 203
155 204
155 205
155 206
155 207
155 208
155 209
155 210
155 213
155 216
155 219
155 220
155 221
155 222
155 223
155 224
155 225
155 226
155 227
155 229
155 230
155 231
155 232
155 233
155 234
155 235
155 236
155 237
155 238
155 240
155 241
155 242
155 243
155 244
155 245
155 246
155 247
155 248
155 249
155 250
155 252
155 255
155 259
155 263
155 267
155 272
155 276
155 277
155 278
155 285
155 287
155 296
155 297
155 299
155 300
155 303
155 304
155 307
155 308
155 313
155 314
155 319
155 320
155 324
155 328
155 334
155 340
155 345
155 348
155 354
155 360
155 363
155 366
155 368
155 374
155 381
155 383
155 385
155 386
155 387
155 388
155 389
155 390
155 391
155 393
155 394
155 400
155 405
155 406
155 407
155 408
155 409
155 410
155 411
155 413
155 414
155 418
155 431
155 432
155 433
155 434
155 435
155 436
155 437
155 438
155 439
155 441
155 442
155 443
155 445
155 451
155 452
155 453
155 454
155 455
155 456
155 457
155 458
155 459
155 461
155 462
155 463
155 467
155 468
155 475
155 476
155 482
155 483
155 484
155 485
155 486
155 487
155 488
155 490
155 494
155 496
155 512
156 157
156 158
156 162
156 165
156 170
156 175
156 178
156 182
156 187
156 188
156 189
156 190
156 191
156 192
156 193
156 194
156 195
156 196
156 197
156 199
156 200
156 201
156 202
156 203
156 204
156 205
156 206
156 207
156 208
156 209
156 210
156 213
156 216
156 222
156 225
156 228
156 231
156 234
156 239
156 244
156 251
156 255
156 259
156 263
156 267
156 272
156 276
156 277
156 278
156 285
156 287
156 296
156 297
156 299
156 300
156 303
156 304
156 307
156 308
156 313
156 314
156 319
156 320
156 324
156 328
156 334
156 340
156 345
156 348
156 354
156 360
156 363
156 366
156 368
156 374
156 378
156 379
156 380
156 381
156 382
156 384
156 387
156 392
156 394
156 400
156 405
156 406
156 407
156 410
156 411
156 412
156 414
156 418
156 432
156 434
156 436
156 437
156 439
156 440
156 442
156 443
156 445
156 451
156 452
156 453
156 454
156 455
156 456
156 457
156 458
156 459
156 460
156 462
156 463
156 467
156 468
156 475
156 476
156 482
156 484
156 487
156 489
156 494
156 496
156 512
157 158
157 162
157 165
157 170
157 175
157 178
157 182
157 187
157 188
157 189
157 190
157 191
157 192
157 193
157 194
157 195
157 196
157 197
157 198
157 199
157 200
157 201
157 203
157 204
157 205
157 206
157 207
157 208
157 209
157 210
157 213
157 216
157 222
157 225
157 228
157 231
157 234
157 239
157 244
157 251
157 253
157 254
157 255
157 256
157 257
157 258
157 259
157 260
157 261
157 262
157 263
157 264
157 265
157 266
157 268
157 269
157 272
157 276
157 277
157 278
157 285
157 287
157 296
157 297
157 299
157 300
157 303
157 304
157 307
157 308
157 313
157 314
157 319
157 320
157 324
157 328
157 334
157 340
157 345
157 348
157 354
157 360
157 363
157 366
157 368
157 374
157 381
157 383
157 387
157 392
157 394
157 400
157 405
157 406
157 407
157 410
157 411
157 412
157 414
157 418
157 431
157 432
157 433
157 434
157 435
157 436
157 437
157 438
157 439
157 440
157 441
157 443
157 445
157 451
157 454
157 455
157 457
157 458
157 460
157 461
157 463
157 467
157 468
157 475
157 476
157 482
157 484
157 487
157 489
157 494
157 496
157 512
158 159
158 160
158 161
158 162
158 163
158 164
158 166
158 170
158 175
158 178
158 182
158 187
158 188
158 189
158 190
158 191
158 192
158 193
158 194
158 195
158 196
158 197
158 198
158 199
158 200
158 201
158 202
158 203
158 204
158 205
158 206
158 207
158 209
158 210
158 213
158 216
158 219
158 220
158 221
158 222
158 223
158 224
158 225
158 226
158 227
158 228
158 229
158 230
158 234
158 239
158 244
158 251
158 255
158 259
158 263
158 267
158 272
158 276
158 277
158 278
158 285
158 287
158 296
158 297
158 299
158 300
158 303
158 304
158 307
158 308
158 313
158 314
158 319
158 320
158 324
158 328
158 334
158 340
158 345
158 348
158 354
158 360
158 363
158 366
158 368
158 374
158 381
158 383
158 387
158 392
158 394
158 400
158 405
158 406
158 407
158 410
158 411
158 412
158 414
158 418
158 431
158 432
158 433
158 434
158 435
158 436
158 437
158 438
158 439
158 440
158 441
158 442
158 445
158 451
158 452
158 453
158 454
158 455
158 456
158 457
158 458
158 459
158 460
158 461
158 462
158 467
158 468
158 475
158 476
158 482
158 484
158 487
158 489
158 494
158 496
158 512
159 160
159 161
159 162
159 163
159 164
159 165
159 166
159 169
159 170
159 176
159 179
159 180
159 186
159 208
159 210
159 218
159 219
159 220
159 222
159 223
159 224
159 225
159 226
159 227
159 228
159 229
159 230
159 231
159 236
159 242
159 243
159 244
159 245
159 246
159 247
159 248
159 249
159 250
159 251
159 252
159 256
159 257
159 273
159 275
159 279
159 281
159 283
159 284
159 285
159 286
159 287
159 288
159 289
159 290
159 291
159 292
159 293
159 294
159 302
159 303
159 304
159 306
159 307
159 308
159 309
159 310
159 311
159 312
159 313
159 314
159 316
159 317
159 318
159 319
159 320
159 321
159 322
159 323
159 336
159 339
159 340
159 346
159 349
159 350
159 352
159 365
159 369
159 371
159 375
159 377
159 380
159 381
159 382
159 384
159 389
159 394
159 395
159 397
159 398
159 399
159 400
159 401
159 402
159 403
159 404
159 409
159 417
159 418
159 433
159 443
159 446
159 447
159 448
159 450
159 453
159 463
159 466
159 467
159 469
159 475
159 476
159 478
159 479
159 480
159 481
159 486
159 492
159 493
159 494
159 495
159 496
159 497
159 498
159 499
159 500
159 501
159 502
159 503
159 504
159 505
159 506
159 507
159 508
159 509
159 510
159 511
159 512
159 513
159 515
159 516
159 517
159 518
160 161
160 162
160 163
160 164
160 165
160 166
160 169
160 170
160 176
160 177
160 178
160 180
160 181
160 182
160 183
160 184
160 185
160 186
160 208
160 210
160 218
160 221
160 231
160 236
160 241
160 243
160 244
160 245
160 246
160 247
160 248
160 249
160 250
160 251
160 252
160 253
160 254
160 255
160 257
160 258
160 259
160 260
160 261
160 262
160 263
160 264
160 265
160 266
160 267
160 268
160 269
160 273
160 275
160 279
160 281
160 282
160 284
160 285
160 286
160 287
160 288
160 289
160 290
160 291
160 292
160 293
160 294
160 302
160 305
160 306
160 312
160 315
160 316
160 318
160 336
160 337
160 338
160 340
160 341
160 342
160 343
160 344
160 345
160 346
160 347
160 348
160 350
160 351
160 352
160 353
160 354
160 355
160 356
160 357
160 365
160 369
160 371
160 375
160 377
160 378
160 379
160 381
160 382
160 383
160 384
160 389
160 396
160 397
160 399
160 409
160 414
160 415
160 416
160 418
160 419
160 420
160 421
160 422
160 423
160 424
160 425
160 426
160 427
160 428
160 429
160 430
160 433
160 443
160 444
160 445
160 447
160 448
160 449
160 450
160 451
160 452
160 454
160 455
160 456
160 457
160 458
160 459
160 460
160 461
160 462
160 463
160 464
160 465
160 467
160 468
160 469
160 470
160 471
160 472
160 473
160 474
160 477
160 478
160 479
160 481
160 486
160 491
160 493
160 494
160 495
160 496
160 497
160 498
160 499
160 500
160 501
160 502
160 503
160 504
160 505
160 506
160 507
160 508
160 509
160 510
160 511
160 514
160 515
160 516
160 518
161 162
161 163
161 164
161 165
161 166
161 167
161 168
161 170
161 171
161 172
161 173
161 174
161 175
161 176
161 179
161 180
161 186
161 208
161 210
161 218
161 221
161 231
161 236
161 241
161 242
161 244
161 245
161 246
161 247
161 248
161 249
161 250
161 251
161 252
161 256
161 257
161 273
161 275
161 279
161 281
161 282
161 283
161 285
161 286
161 287
161 288
161 289
161 290
161 291
161 292
161 293
161 294
161 302
161 305
161 306
161 312
161 315
161 316
161 318
161 336
161 339
161 340
161 346
161 349
161 350
161 352
161 365
161 369
161 371
161 375
161 377
161 380
161 381
161 382
161 384
161 389
161 394
161 395
161 396
161 398
161 399
161 400
161 401
161 402
161 403
161 404
161 409
161 417
161 418
161 431
161 432
161 434
161 435
161 436
161 437
161 438
161 439
161 440
161 441
161 442
161 443
161 446
161 447
161 448
161 450
161 453
161 463
161 466
161 467
161 469
161 477
161 478
161 479
161 481
161 486
161 491
161 492
161 494
161 495
161 496
161 497
161 498
161 499
161 500
161 501
161 502
161 503
161 504
161 505
161 506
161 507
161 508
161 509
161 510
161 511
161 512
161 513
161 514
161 516
161 517
161 518
162 163
162 164
162 165
162 166
162 167
162 168
162 169
162 171
162 172
162 173
162 174
162 175
162 176
162 179
162 180
162 186
162 208
162 210
162 218
162 221
162 231
162 236
162 241
162 242
162 243
162 245
162 246
162 247
162 248
162 249
162 250
162 251
162 252
162 256
162 257
162 273
162 275
162 279
162 281
162 282
162 283
162 284
162 286
162 287
162 288
162 289
162 290
162 291
162 292
162 293
162 294
162 302
162 305
162 306
162 312
162 315
162 316
162 318
162 336
162 337
162 338
162 339
162 341
162 342
162 343
162 344
162 345
162 346
162 349
162 350
162 352
162 365
162 369
162 371
162 375
162 377
162 378
162 379
162 380
162 382
162 383
162 384
162 389
162 396
162 397
162 399
162 409
162 414
162 415
162 416
162 417
162 419
162 420
162 421
162 422
162 423
162 424
162 425
162 426
162 427
162 428
162 429
162 430
162 433
162 443
162 446
162 447
162 448
162 450
162 453
162 463
162 464
162 465
162 466
162 468
162 469
162 470
162 471
162 472
162 473
162 474
162 477
162 478
162 479
162 481
162 486
162 491
162 492
162 493
162 495
162 496
162 497
162 498
162 499
162 500
162 501
162 502
162 503
162 504
162 505
162 506
162 507
162 508
162 509
162 510
162 511
162 514
162 515
162 516
162 518
163 164
163 165
163 166
163 169
163 170
163 176
163 177
163 178
163 179
163 181
163 182
163 183
163 184
163 185
163 186
163 208
163 210
163 218
163 221
163 231
163 236
163 241
163 242
163 243
163 244
163 246
163 247
163 248
163 249
163 250
163 251
163 252
163 253
163 254
163 255
163 256
163 258
163 259
163 260
163 261
163 262
163 263
163 264
163 265
163 266
163 267
163 268
163 269
163 273
163 275
163 279
163 281
163 282
163 283
163 284
163 285
163 287
163 288
163 289
163 290
163 291
163 292
163 293
163 294
163 302
163 303
163 304
163 305
163 307
163 308
163 309
163 310
163 311
163 312
163 313
163 314
163 315
163 317
163 318
163 319
163 320
163 321
163 322
163 323
163 336
163 339
163 340
163 346
163 347
163 348
163 349
163 351
163 352
163 353
163 354
163 355
163 356
163 357
163 365
163 369
163 371
163 375
163 377
163 380
163 381
163 382
163 384
163 389
163 396
163 397
163 399
163 409
163 417
163 418
163 433
163 443
163 444
163 445
163 446
163 448
163 449
163 450
163 453
163 463
163 466
163 467
163 469
163 475
163 476
163 477
163 479
163 480
163 481
163 486
163 491
163 492
163 493
163 494
163 496
163 497
163 498
163 499
163 500
163 501
163 502
163 503
163 504
163 505
163 506
163 507
163 508
163 509
163 510
163 511
163 514
163 515
163 516
163 518
164 165
164 166
164 169
164 170
164 176
164 179
164 180
164 186
164 208
164 210
164 218
164 221
164 231
164 232
164 233
164 234
164 235
164 237
164 238
164 239
164 240
164 241
164 242
164 243
164 244
164 245
164 252
164 256
164 257
164 270
164 271
164 272
164 274
164 275
164 276
164 277
164 278
164 280
164 281
164 282
164 283
164 284
164 285
164 286
164 287
164 289
164 290
164 291
164 292
164 293
164 294
164 302
164 305
164 306
164 312
164 313
164 314
164 315
164 316
164 317
164 319
164 320
164 321
164 322
164 323
164 336
164 339
164 340
164 346
164 347
164 348
164 349
164 350
164 351
164 353
164 354
164 355
164 356
164 357
164 365
164 366
164 367
164 368
164 370
164 371
164 372
164 373
164 374
164 376
164 377
164 378
164 379
164 380
164 381
164 383
164 384
164 385
164 386
164 387
164 388
164 390
164 391
164 392
164 393
164 394
164 395
164 396
164 397
164 398
164 400
164 401
164 402
164 403
164 404
164 405
164 406
164 407
164 408
164 410
164 411
164 412
164 413
164 417
164 418
164 433
164 443
164 444
164 445
164 446
164 447
164 449
164 450
164 453
164 463
164 464
164 465
164 466
164 467
164 468
164 470
164 471
164 472
164 473
164 474
164 475
164 476
164 477
164 478
164 480
164 481
164 482
164 483
164 484
164 485
164 487
164 488
164 489
164 490
164 491
164 492
164 493
164 494
164 495
164 512
164 513
164 514
164 515
164 517
164 518
165 166
165 169
165 170
165 176
165 179
165 180
165 186
165 187
165 188
165 189
165 190
165 191
165 192
165 193
165 194
165 195
165 196
165 197
165 198
165 199
165 200
165 201
165 202
165 203
165 204
165 205
165 206
165 207
165 209
165 210
165 218
165 219
165 220
165 221
165 222
165 223
165 224
165 225
165 226
165 227
165 228
165 229
165 230
165 236
165 241
165 242
165 243
165 244
165 245
165 252
165 256
165 257
165 273
165 275
165 279
165 281
165 282
165 283
165 284
165 285
165 286
165 288
165 302
165 305
165 306
165 312
165 315
165 316
165 318
165 336
165 339
165 340
165 346
165 349
165 350
165 352
165 365
165 369
165 371
165 375
165 377
165 380
165 381
165 382
165 384
165 389
165 396
165 397
165 399
165 409
165 417
165 418
165 431
165 432
165 433
165 434
165 435
165 436
165 437
165 438
165 439
165 440
165 441
165 442
165 446
165 447
165 448
165 450
165 451
165 452
165 453
165 454
165 455
165 456
165 457
165 458
165 459
165 460
165 461
165 462
165 466
165 467
165 469
165 477
165 478
165 479
165 481
165 486
165 491
165 492
165 493
165 494
165 495
165 514
165 515
165 516
165 518
166 167
166 168
166 169
166 170
166 171
166 172
166 173
166 174
166 175
166 177
166 178
166 179
166 180
166 181
166 182
166 183
166 184
166 185
166 187
166 188
166 189
166 190
166 191
166 192
166 193
166 194
166 195
166 196
166 197
166 198
166 199
166 200
166 201
166 202
166 203
166 204
166 205
166 206
166 207
166 208
166 209
166 211
166 212
166 213
166 214
166 215
166 216
166 217
166 221
166 231
166 236
166 241
166 242
166 243
166 244
166 245
166 246
166 247
166 248
166 249
166 250
166 251
166 256
166 257
166 270
166 271
166 272
166 273
166 274
166 276
166 277
166 278
166 279
166 280
166 282
166 283
166 284
166 285
166 286
166 288
166 295
166 296
166 297
166 298
166 299
166 300
166 301
166 303
166 304
166 305
166 306
166 307
166 308
166 309
166 310
166 311
166 315
166 316
166 318
166 324
166 325
166 326
166 327
166 328
166 329
166 330
166 331
166 332
166 333
166 334
166 335
166 337
166 338
166 339
166 340
166 341
166 342
166 343
166 344
166 345
166 349
166 350
166 352
166 358
166 359
166 360
166 361
166 362
166 363
166 364
166 366
166 367
166 368
166 369
166 370
166 372
166 373
166 374
166 375
166 376
166 378
166 379
166 380
166 381
166 382
166 383
166 389
166 396
166 397
166 399
166 409
166 417
166 418
166 433
166 443
166 444
166 445
166 446
166 447
166 448
166 449
166 453
166 463
166 466
166 467
166 469
166 475
166 476
166 477
166 478
166 479
166 480
166 486
166 491
166 492
166 493
166 494
166 495
166 512
166 513
166 514
166 515
166 516
166 517
167 168
167 169
167 170
167 171
167 172
167 173
167 174
167 175
167 176
167 186
167 191
167 210
167 212
167 213
167 214
167 215
167 216
167 217
167 218
167 220
167 224
167 233
167 243
167 244
167 248
167 249
167 252
167 253
167 255
167 256
167 257
167 258
167 259
167 260
167 261
167 262
167 263
167 264
167 265
167 266
167 267
167 268
167 269
167 271
167 275
167 281
167 284
167 285
167 302
167 312
167 317
167 320
167 326
167 327
167 331
167 332
167 336
167 338
167 340
167 342
167 344
167 346
167 351
167 354
167 359
167 362
167 365
167 366
167 368
167 369
167 370
167 371
167 373
167 374
167 375
167 376
167 377
167 379
167 381
167 384
167 386
167 387
167 388
167 389
167 390
167 391
167 392
167 393
167 394
167 396
167 397
167 398
167 399
167 400
167 401
167 402
167 403
167 404
167 408
167 411
167 416
167 418
167 420
167 422
167 433
167 439
167 450
167 451
167 453
167 454
167 455
167 456
167 457
167 458
167 459
167 460
167 461
167 462
167 463
167 465
167 467
167 481
167 482
167 484
167 485
167 486
167 487
167 488
167 489
167 490
167 493
167 494
167 499
167 500
167 512
167 514
167 515
167 516
167 517
167 518
168 169
168 170
168 171
168 172
168 173
168 174
168 175
168 176
168 186
168 191
168 210
168 211
168 213
168 214
168 215
168 216
168 217
168 218
168 219
168 221
168 222
168 223
168 224
168 225
168 226
168 227
168 228
168 229
168 230
168 231
168 232
168 234
168 235
168 236
168 237
168 238
168 239
168 240
168 243
168 244
168 248
168 249
168 252
168 254
168 263
168 270
168 272
168 273
168 274
168 275
168 281
168 284
168 285
168 302
168 312
168 317
168 320
168 326
168 327
168 331
168 332
168 336
168 337
168 339
168 340
168 341
168 342
168 343
168 344
168 345
168 346
168 351
168 354
168 358
168 360
168 361
168 362
168 363
168 364
168 365
168 367
168 371
168 372
168 374
168 375
168 376
168 377
168 378
168 380
168 381
168 382
168 383
168 384
168 385
168 387
168 388
168 389
168 390
168 391
168 392
168 393
168 395
168 397
168 408
168 411
168 414
168 415
168 417
168 418
168 419
168 420
168 421
168 422
168 423
168 424
168 425
168 426
168 427
168 428
168 429
168 430
168 433
168 439
168 450
168 452
168 456
168 464
168 466
168 467
168 468
168 469
168 470
168 471
168 472
168 473
168 474
168 481
168 483
168 493
168 494
168 499
168 500
168 513
168 515
168 518
169 170
169 171
169 172
169 173
169 174
169 175
169 176
169 186
169 191
169 210
169 211
169 212
169 214
169 215
169 218
169 220
169 224
169 233
169 241
169 242
169 244
169 245
169 246
169 247
169 248
169 249
169 250
169 251
169 252
169 254
169 263
169 271
169 275
169 281
169 282
169 283
169 285
169 286
169 287
169 288
169 289
169 290
169 291
169 292
169 293
169 294
169 302
169 312
169 317
169 320
169 326
169 327
169 331
169 332
169 336
169 338
169 340
169 342
169 344
169 346
169 351
169 354
169 359
169 362
169 365
169 367
169 371
169 372
169 373
169 377
169 379
169 381
169 384
169 385
169 386
169 394
169 395
169 396
169 398
169 399
169 400
169 401
169 402
169 403
169 404
169 408
169 411
169 416
169 418
169 420
169 422
169 431
169 432
169 434
169 435
169 436
169 437
169 438
169 439
169 440
169 441
169 442
169 443
169 450
169 452
169 456
169 465
169 467
169 481
169 483
169 491
169 492
169 494
169 495
169 496
169 497
169 498
169 499
169 500
169 501
169 502
169 503
169 504
169 505
169 506
169 507
169 508
169 509
169 510
169 511
169 512
169 513
169 514
169 516
169 517
169 518
170 171
170 172
170 173
170 174
170 175
170 176
170 186
170 191
170 210
170 211
170 212
170 214
170 215
170 218
170 220
170 224
170 233
170 241
170 242
170 243
170 245
170 246
170 247
170 248
170 249
170 250
170 251
170 252
170 254
170 263
170 271
170 275
170 281
170 282
170 283
170 284
170 286
170 287
170 288
170 289
170 290
170 291
170 292
170 293
170 294
170 302
170 312
170 317
170 320
170 326
170 327
170 331
170 332
170 336
170 337
170 338
170 339
170 341
170 342
170 343
170 344
170 345
170 346
170 351
170 354
170 359
170 362
170 365
170 367
170 371
170 372
170 373
170 377
170 378
170 379
170 380
170 382
170 383
170 384
170 385
170 386
170 395
170 397
170 408
170 411
170 414
170 415
170 416
170 417
170 419
170 420
170 421
170 422
170 423
170 424
170 425
170 426
170 427
170 428
170 429
170 430
170 433
170 439
170 450
170 452
170 456
170 464
170 465
170 466
170 468
170 469
170 470
170 471
170 472
170 473
170 474
170 481
170 483
170 491
170 492
170 493
170 495
170 496
170 497
170 498
170 499
170 500
170 501
170 502
170 503
170 504
170 505
170 506
170 507
170 508
170 509
170 510
170 511
170 513
170 515
170 518
171 172
171 173
171 174
171 175
171 176
171 186
171 191
171 210
171 211
171 212
171 213
171 215
171 216
171 217
171 218
171 220
171 224
171 233
171 243
171 244
171 248
171 249
171 252
171 254
171 263
171 271
171 275
171 281
171 284
171 285
171 302
171 312
171 317
171 320
171 324
171 325
171 327
171 328
171 329
171 330
171 331
171 332
171 333
171 334
171 335
171 336
171 338
171 340
171 342
171 344
171 346
171 347
171 348
171 349
171 350
171 352
171 353
171 354
171 355
171 356
171 357
171 359
171 362
171 365
171 367
171 371
171 372
171 373
171 377
171 379
171 381
171 384
171 385
171 386
171 395
171 397
171 408
171 411
171 416
171 418
171 420
171 422
171 433
171 439
171 450
171 451
171 452
171 453
171 454
171 455
171 457
171 458
171 459
171 460
171 461
171 462
171 463
171 465
171 467
171 481
171 483
171 493
171 494
171 499
171 500
171 513
171 515
171 518
172 173
172 174
172 175
172 176
172 186
172 191
172 210
172 211
172 212
172 213
172 214
172 216
172 217
172 218
172 219
172 220
172 221
172 222
172 223
172 225
172 226
172 227
172 228
172 229
172 230
172 231
172 233
172 243
172 244
172 248
172 249
172 252
172 254
172 263
172 271
172 275
172 281
172 284
172 285
172 302
172 312
172 313
172 314
172 315
172 316
172 318
172 319
172 320
172 321
172 322
172 323
172 324
172 325
172 326
172 328
172 329
172 330
172 331
172 332
172 333
172 334
172 335
172 336
172 337
172 338
172 339
172 340
172 341
172 343
172 344
172 345
172 346
172 351
172 354
172 358
172 359
172 360
172 361
172 363
172 364
172 365
172 367
172 371
172 372
172 373
172 377
172 379
172 381
172 384
172 385
172 386
172 395
172 397
172 408
172 411
172 414
172 415
172 416
172 417
172 418
172 419
172 421
172 422
172 423
172 424
172 425
172 426
172 427
172 428
172 429
172 430
172 433
172 439
172 450
172 452
172 456
172 465
172 467
172 481
172 483
172 493
172 494
172 499
172 500
172 513
172 515
172 518
173 174
173 175
173 176
173 186
173 191
173 210
173 211
173 212
173 214
173 215
173 218
173 220
173 224
173 233
173 241
173 242
173 243
173 244
173 245
173 246
173 247
173 249
173 250
173 251
173 252
173 254
173 263
173 271
173 275
173 281
173 284
173 285
173 302
173 312
173 317
173 320
173 324
173 325
173 326
173 327
173 328
173 329
173 330
173 332
173 333
173 334
173 335
173 336
173 338
173 340
173 342
173 344
173 346
173 351
173 354
173 359
173 362
173 365
173 367
173 371
173 372
173 373
173 377
173 379
173 381
173 384
173 385
173 386
173 395
173 397
173 408
173 411
173 416
173 418
173 420
173 422
173 433
173 439
173 450
173 452
173 456
173 465
173 467
173 481
173 483
173 491
173 492
173 493
173 494
173 495
173 496
173 497
173 498
173 500
173 501
173 502
173 503
173 504
173 505
173 506
173 507
173 508
173 509
173 510
173 511
173 513
173 515
173 518
174 175
174 176
174 186
174 191
174 210
174 211
174 212
174 214
174 215
174 218
174 220
174 224
174 233
174 241
174 242
174 243
174 244
174 245
174 246
174 247
174 248
174 250
174 251
174 252
174 254
174 263
174 271
174 275
174 281
174 284
174 285
174 302
174 312
174 317
174 320
174 324
174 325
174 326
174 327
174 328
174 329
174 330
174 331
174 333
174 334
174 335
174 336
174 337
174 338
174 339
174 340
174 341
174 342
174 343
174 345
174 346
174 351
174 354
174 359
174 362
174 365
174 367
174 371
174 372
174 373
174 377
174 379
174 381
174 384
174 385
174 386
174 395
174 397
174 405
174 406
174 407
174 409
174 410
174 411
174 412
174 413
174 414
174 415
174 416
174 417
174 418
174 419
174 420
174 421
174 423
174 424
174 425
174 426
174 427
174 428
174 429
174 430
174 433
174 439
174 450
174 452
174 456
174 465
174 467
174 481
174 483
174 491
174 492
174 493
174 494
174 495
174 496
174 497
174 498
174 499
174 501
174 502
174 503
174 504
174 505
174 506
174 507
174 508
174 509
174 510
174 511
174 513
174 515
174 518
175 176
175 186
175 187
175 188
175 189
175 190
175 192
175 193
175 194
175 195
175 196
175 197
175 198
175 199
175 200
175 201
175 202
175 203
175 204
175 205
175 206
175 207
175 208
175 209
175 210
175 211
175 212
175 214
175 215
175 218
175 220
175 224
175 233
175 243
175 244
175 248
175 249
175 252
175 253
175 254
175 255
175 256
175 257
175 258
175 259
175 260
175 261
175 262
175 264
175 265
175 266
175 267
175 268
175 269
175 271
175 275
175 281
175 284
175 285
175 302
175 312
175 313
175 314
175 315
175 316
175 317
175 318
175 319
175 321
175 322
175 323
175 326
175 327
175 331
175 332
175 336
175 338
175 340
175 342
175 344
175 346
175 347
175 348
175 349
175 350
175 351
175 352
175 353
175 355
175 356
175 357
175 359
175 362
175 365
175 367
175 371
175 372
175 373
175 377
175 379
175 381
175 384
175 385
175 386
175 395
175 397
175 405
175 406
175 407
175 408
175 409
175 410
175 412
175 413
175 416
175 418
175 420
175 422
175 431
175 432
175 433
175 434
175 435
175 436
175 437
175 438
175 440
175 441
175 442
175 443
175 450
175 452
175 456
175 465
175 467
175 481
175 483
175 493
175 494
175 499
175 500
175 513
175 515
175 518
176 177
176 178
176 179
176 180
176 181
176 182
176 183
176 184
176 185
176 187
176 188
176 189
176 190
176 191
176 192
176 193
176 194
176 195
176 196
176 197
176 198
176 199
176 200
176 201
176 202
176 203
176 204
176 205
176 206
176 207
176 208
176 209
176 211
176 212
176 213
176 214
176 215
176 216
176 217
176 220
176 224
176 233
176 241
176 242
176 243
176 244
176 245
176 246
176 247
176 248
176 249
176 250
176 251
176 254
176 263
176 270
176 271
176 272
176 273
176 274
176 276
176 277
176 278
176 279
176 280
176 284
176 285
176 295
176 296
176 297
176 298
176 299
176 300
176 301
176 303
176 304
176 305
176 306
176 307
176 308
176 309
176 310
176 311
176 317
176 320
176 324
176 325
176 326
176 327
176 328
176 329
176 330
176 331
176 332
176 333
176 334
176 335
176 337
176 338
176 339
176 340
176 341
176 342
176 343
176 344
176 345
176 351
176 354
176 358
176 359
176 360
176 361
176 362
176 363
176 364
176 366
176 367
176 368
176 369
176 370
176 372
176 373
176 374
176 375
176 376
176 378
176 379
176 380
176 381
176 382
176 383
176 385
176 386
176 395
176 397
176 408
176 411
176 416
176 418
176 420
176 422
176 433
176 439
176 444
176 445
176 446
176 447
176 448
176 449
176 452
176 456
176 465
176 467
176 475
176 476
176 477
176 478
176 479
176 480
176 483
176 493
176 494
176 499
176 500
176 512
176 513
176 514
176 515
176 516
176 517
177 178
177 179
177 180
177 181
177 182
177 183
177 184
177 185
177 186
177 189
177 210
177 218
177 220
177 221
177 222
177 223
177 224
177 225
177 226
177 227
177 228
177 229
177 230
177 231
177 233
177 234
177 235
177 236
177 237
177 238
177 239
177 240
177 242
177 245
177 247
177 250
177 252
177 254
177 255
177 256
177 257
177 258
177 259
177 260
177 261
177 262
177 263
177 264
177 265
177 266
177 267
177 268
177 269
177 271
177 272
177 273
177 274
177 275
177 277
177 281
177 283
177 286
177 296
177 297
177 298
177 299
177 300
177 301
177 302
177 304
177 306
177 308
177 310
177 312
177 314
177 316
177 325
177 328
177 330
177 333
177 336
177 338
177 339
177 340
177 341
177 342
177 343
177 344
177 345
177 346
177 348
177 349
177 350
177 351
177 352
177 353
177 354
177 355
177 356
177 357
177 359
177 360
177 361
177 362
177 363
177 364
177 365
177 371
177 377
177 379
177 380
177 381
177 382
177 383
177 384
177 388
177 390
177 398
177 401
177 406
177 414
177 416
177 417
177 418
177 419
177 420
177 421
177 422
177 423
177 424
177 425
177 426
177 427
177 428
177 429
177 430
177 432
177 433
177 434
177 435
177 436
177 437
177 438
177 439
177 440
177 441
177 442
177 443
177 445
177 446
177 447
177 448
177 449
177 450
177 453
177 459
177 465
177 466
177 467
177 468
177 469
177 470
177 471
177 472
177 473
177 474
177 476
177 478
177 481
177 485
177 488
177 492
177 495
177 498
177 501
177 518
178 179
178 180
178 181
178 182
178 183
178 184
178 185
178 186
178 189
178 210
178 218
178 219
178 223
178 232
178 242
178 245
178 247
178 250
178 252
178 253
178 254
178 256
178 257
178 258
178 259
178 260
178 261
178 262
178 263
178 264
178 265
178 266
178 267
178 268
178 269
178 270
178 275
178 276
178 278
178 279
178 280
178 281
178 283
178 286
178 295
178 297
178 298
178 299
178 300
178 301
178 302
178 303
178 305
178 306
178 307
178 308
178 309
178 310
178 311
178 312
178 313
178 315
178 316
178 317
178 318
178 319
178 320
178 321
178 322
178 323
178 325
178 328
178 330
178 333
178 336
178 337
178 339
178 341
178 343
178 346
178 347
178 349
178 350
178 351
178 352
178 353
178 354
178 355
178 356
178 357
178 358
178 361
178 365
178 371
178 377
178 378
178 380
178 384
178 388
178 390
178 398
178 401
178 405
178 407
178 408
178 409
178 410
178 411
178 412
178 413
178 415
178 417
178 419
178 421
178 431
178 433
178 434
178 435
178 436
178 437
178 438
178 439
178 440
178 441
178 442
178 443
178 444
178 446
178 447
178 448
178 449
178 450
178 453
178 459
178 464
178 466
178 475
178 477
178 478
178 479
178 480
178 481
178 485
178 488
178 492
178 495
178 498
178 501
178 518
179 180
179 181
179 182
179 183
179 184
179 185
179 186
179 189
179 210
179 218
179 219
179 223
179 232
179 241
179 243
179 244
179 245
179 246
179 247
179 248
179 249
179 250
179 251
179 252
179 253
179 254
179 255
179 257
179 258
179 259
179 260
179 261
179 262
179 263
179 264
179 265
179 266
179 267
179 268
179 269
179 270
179 275
179 277
179 281
179 282
179 284
179 285
179 286
179 287
179 288
179 289
179 290
179 291
179 292
179 293
179 294
179 295
179 296
179 298
179 299
179 302
179 304
179 306
179 308
179 310
179 312
179 314
179 316
179 325
179 328
179 330
179 333
179 336
179 337
179 338
179 340
179 341
179 342
179 343
179 344
179 345
179 346
179 347
179 348
179 350
179 351
179 352
179 353
179 354
179 355
179 356
179 357
179 358
179 361
179 365
179 371
179 377
179 378
179 379
179 381
179 382
179 383
179 384
179 388
179 390
179 398
179 401
179 406
179 414
179 415
179 416
179 418
179 419
179 420
179 421
179 422
179 423
179 424
179 425
179 426
179 427
179 428
179 429
179 430
179 431
179 432
179 435
179 436
179 444
179 445
179 447
179 448
179 449
179 450
179 451
179 452
179 454
179 455
179 456
179 457
179 458
179 459
179 460
179 461
179 462
179 463
179 464
179 465
179 467
179 468
179 469
179 470
179 471
179 472
179 473
179 474
179 476
179 478
179 481
179 485
179 488
179 491
179 493
179 494
179 495
179 496
179 497
179 498
179 499
179 500
179 501
179 502
179 503
179 504
179 505
179 506
179 507
179 508
179 509
179 510
179 511
179 518
180 181
180 182
180 183
180 184
180 185
180 186
180 189
180 210
180 218
180 219
180 223
180 232
180 241
180 242
180 243
180 244
180 246
180 247
180 248
180 249
180 250
180 251
180 252
180 253
180 254
180 255
180 256
180 258
180 259
180 260
180 261
180 262
180 263
180 264
180 265
180 266
180 267
180 268
180 269
180 270
180 275
180 277
180 281
180 282
180 283
180 284
180 285
180 287
180 288
180 289
180 290
180 291
180 292
180 293
180 294
180 295
180 296
180 298
180 299
180 302
180 303
180 304
180 305
180 307
180 308
180 309
180 310
180 311
180 312
180 313
180 314
180 315
180 317
180 318
180 319
180 320
180 321
180 322
180 323
180 325
180 328
180 330
180 333
180 336
180 337
180 339
180 341
180 343
180 346
180 347
180 348
180 349
180 351
180 352
180 353
180 354
180 355
180 356
180 357
180 358
180 361
180 365
180 371
180 377
180 378
180 380
180 384
180 388
180 390
180 398
180 401
180 406
180 415
180 417
180 419
180 421
180 431
180 432
180 435
180 436
180 444
180 445
180 446
180 448
180 449
180 450
180 453
180 459
180 464
180 466
180 475
180 476
180 477
180 479
180 480
180 481
180 485
180 488
180 491
180 492
180 493
180 494
180 496
180 497
180 498
180 499
180 500
180 501
180 502
180 503
180 504
180 505
180 506
180 507
180 508
180 509
180 510
180 511
180 518
181 182
181 183
181 184
181 185
181 186
181 189
181 210
181 218
181 219
181 220
181 221
181 222
181 224
181 225
181 226
181 227
181 228
181 229
181 230
181 231
181 232
181 242
181 245
181 247
181 250
181 252
181 253
181 254
181 255
181 256
181 257
181 259
181 260
181 261
181 262
181 263
181 264
181 265
181 266
181 267
181 268
181 269
181 270
181 275
181 277
181 281
181 283
181 286
181 295
181 296
181 297
181 299
181 300
181 301
181 302
181 304
181 306
181 308
181 310
181 312
181 314
181 316
181 324
181 326
181 327
181 328
181 329
181 330
181 331
181 332
181 333
181 334
181 335
181 336
181 337
181 338
181 339
181 340
181 342
181 343
181 344
181 345
181 346
181 347
181 348
181 349
181 350
181 358
181 359
181 360
181 362
181 363
181 364
181 365
181 371
181 377
181 378
181 380
181 384
181 388
181 390
181 394
181 395
181 396
181 397
181 399
181 400
181 401
181 402
181 403
181 404
181 406
181 414
181 415
181 416
181 417
181 418
181 420
181 421
181 422
181 423
181 424
181 425
181 426
181 427
181 428
181 429
181 430
181 431
181 432
181 433
181 434
181 436
181 437
181 438
181 439
181 440
181 441
181 442
181 443
181 444
181 445
181 446
181 447
181 450
181 453
181 459
181 464
181 466
181 476
181 478
181 481
181 485
181 488
181 492
181 495
181 498
181 501
181 518
182 183
182 184
182 185
182 186
182 189
182 210
182 218
182 219
182 223
182 232
182 242
182 245
182 247
182 250
182 252
182 253
182 254
182 255
182 256
182 257
182 258
182 260
182 261
182 262
182 263
182 264
182 265
182 266
182 267
182 268
182 269
182 270
182 275
182 277
182 281
182 283
182 286
182 295
182 296
182 297
182 298
182 300
182 301
182 302
182 303
182 304
182 305
182 306
182 307
182 309
182 310
182 311
182 312
182 314
182 316
182 324
182 325
182 326
182 327
182 329
182 330
182 331
182 332
182 333
182 334
182 335
182 336
182 337
182 339
182 341
182 343
182 346
182 347
182 348
182 349
182 350
182 358
182 361
182 365
182 371
182 377
182 378
182 380
182 384
182 388
182 390
182 398
182 401
182 406
182 415
182 417
182 419
182 421
182 431
182 432
182 433
182 434
182 435
182 437
182 438
182 439
182 440
182 441
182 442
182 443
182 444
182 445
182 446
182 447
182 450
182 453
182 459
182 464
182 466
182 476
182 478
182 481
182 485
182 488
182 492
182 495
182 498
182 501
182 518
183 184
183 185
183 186
183 189
183 210
183 218
183 219
183 223
183 232
183 241
183 242
183 243
183 244
183 245
183 246
183 248
183 249
183 250
183 251
183 252
183 253
183 254
183 255
183 256
183 257
183 258
183 259
183 261
183 262
183 263
183 264
183 265
183 266
183 267
183 268
183 269
183 270
183 275
183 277
183 281
183 283
183 286
183 295
183 296
183 298
183 299
183 302
183 304
183 306
183 308
183 310
183 312
183 314
183 316
183 324
183 325
183 326
183 327
183 328
183 329
183 331
183 332
183 333
183 334
183 335
183 336
183 337
183 338
183 339
183 340
183 341
183 342
183 344
183 345
183 346
183 347
183 348
183 349
183 350
183 358
183 361
183 365
183 371
183 377
183 378
183 380
183 384
183 388
183 390
183 398
183 401
183 406
183 414
183 415
183 416
183 417
183 418
183 419
183 420
183 422
183 423
183 424
183 425
183 426
183 427
183 428
183 429
183 430
183 431
183 432
183 435
183 436
183 444
183 445
183 446
183 447
183 450
183 453
183 459
183 464
183 466
183 476
183 478
183 481
183 482
183 483
183 484
183 486
183 487
183 488
183 489
183 490
183 491
183 492
183 493
183 494
183 495
183 496
183 497
183 499
183 500
183 501
183 502
183 503
183 504
183 505
183 506
183 507
183 508
183 509
183 510
183 511
183 518
184 185
184 186
184 189
184 210
184 218
184 219
184 223
184 232
184 241
184 242
184 243
184 244
184 245
184 246
184 247
184 248
184 249
184 251
184 252
184 253
184 254
184 255
184 256
184 257
184 258
184 259
184 260
184 262
184 263
184 264
184 265
184 266
184 267
184 268
184 269
184 270
184 275
184 277
184 281
184 283
184 286
184 295
184 296
184 298
184 299
184 302
184 303
184 304
184 305
184 306
184 307
184 308
184 309
184 311
184 312
184 314
184 316
184 324
184 325
184 326
184 327
184 328
184 329
184 330
184 331
184 332
184 334
184 335
184 336
184 337
184 339
184 341
184 343
184 346
184 347
184 348
184 349
184 350
184 358
184 361
184 365
184 371
184 377
184 378
184 380
184 384
184 385
184 386
184 387
184 389
184 390
184 391
184 392
184 393
184 398
184 401
184 406
184 415
184 417
184 419
184 421
184 431
184 432
184 435
184 436
184 444
184 445
184 446
184 447
184 450
184 453
184 459
184 464
184 466
184 476
184 478
184 481
184 485
184 488
184 491
184 492
184 493
184 494
184 495
184 496
184 497
184 498
184 499
184 500
184 502
184 503
184 504
184 505
184 506
184 507
184 508
184 509
184 510
184 511
184 518
185 186
185 187
185 188
185 190
185 191
185 192
185 193
185 194
185 195
185 196
185 197
185 198
185 199
185 200
185 201
185 202
185 203
185 204
185 205
185 206
185 207
185 208
185 209
185 210
185 218
185 219
185 223
185 232
185 242
185 245
185 247
185 250
185 252
185 253
185 255
185 256
185 257
185 258
185 259
185 260
185 261
185 270
185 275
185 277
185 281
185 283
185 286
185 295
185 296
185 298
185 299
185 302
185 304
185 306
185 308
185 310
185 312
185 314
185 316
185 325
185 328
185 330
185 333
185 336
185 337
185 339
185 341
185 343
185 346
185 347
185 348
185 349
185 350
185 358
185 361
185 365
185 371
185 377
185 378
185 380
185 384
185 385
185 386
185 387
185 388
185 389
185 391
185 392
185 393
185 394
185 395
185 396
185 397
185 398
185 399
185 400
185 402
185 403
185 404
185 406
185 415
185 417
185 419
185 421
185 431
185 432
185 435
185 436
185 444
185 445
185 446
185 447
185 450
185 451
185 452
185 453
185 454
185 455
185 456
185 457
185 458
185 460
185 461
185 462
185 463
185 464
185 466
185 476
185 478
185 481
185 482
185 483
185 484
185 485
185 486
185 487
185 489
185 490
185 492
185 495
185 498
185 501
185 518
186 187
186 188
186 189
186 190
186 191
186 192
186 193
186 194
186 195
186 196
186 197
186 198
186 199
186 200
186 201
186 202
186 203
186 204
186 205
186 206
186 207
186 208
186 209
186 211
186 212
186 213
186 214
186 215
186 216
186 217
186 219
186 223
186 232
186 241
186 242
186 243
186 244
186 245
186 246
186 247
186 248
186 249
186 250
186 251
186 253
186 255
186 256
186 257
186 258
186 259
186 260
186 261
186 270
186 271
186 272
186 273
186 274
186 276
186 277
186 278
186 279
186 280
186 283
186 286
186 295
186 296
186 297
186 298
186 299
186 300
186 301
186 303
186 304
186 305
186 306
186 307
186 308
186 309
186 310
186 311
186 314
186 316
186 324
186 325
186 326
186 327
186 328
186 329
186 330
186 331
186 332
186 333
186 334
186 335
186 337
186 338
186 339
186 340
186 341
186 342
186 343
186 344
186 345
186 347
186 348
186 349
186 350
186 358
186 359
186 360
186 361
186 362
186 363
186 364
186 366
186 367
186 368
186 369
186 370
186 372
186 373
186 374
186 375
186 376
186 378
186 379
186 380
186 381
186 382
186 383
186 388
186 390
186 398
186 401
186 406
186 415
186 417
186 419
186 421
186 431
186 432
186 435
186 436
186 444
186 445
186 446
186 447
186 448
186 449
186 453
186 459
186 464
186 466
186 475
186 476
186 477
186 478
186 479
186 480
186 485
186 488
186 492
186 495
186 498
186 501
186 512
186 513
186 514
186 515
186 516
186 517
187 188
187 189
187 190
187 191
187 192
187 193
187 194
187 195
187 196
187 197
187 198
187 199
187 200
187 201
187 202
187 203
187 204
187 205
187 206
187 207
187 208
187 209
187 210
187 217
187 218
187 226
187 227
187 228
187 229
187 230
187 231
187 237
187 238
187 239
187 240
187 251
187 252
187 262
187 263
187 264
187 265
187 266
187 267
187 268
187 269
187 274
187 275
187 280
187 281
187 289
187 290
187 291
187 292
187 293
187 294
187 301
187 302
187 311
187 312
187 313
187 314
187 315
187 316
187 317
187 318
187 320
187 321
187 322
187 323
187 335
187 336
187 337
187 338
187 339
187 340
187 341
187 342
187 343
187 344
187 346
187 353
187 354
187 355
187 356
187 357
187 364
187 365
187 370
187 371
187 376
187 377
187 383
187 384
187 390
187 391
187 392
187 393
187 394
187 395
187 396
187 397
187 398
187 399
187 401
187 402
187 403
187 404
187 405
187 406
187 407
187 408
187 409
187 411
187 412
187 413
187 423
187 424
187 425
187 426
187 427
187 428
187 429
187 430
187 438
187 439
187 440
187 441
187 442
187 443
187 449
187 450
187 451
187 452
187 453
187 454
187 455
187 456
187 457
187 459
187 460
187 461
187 462
187 463
187 470
187 471
187 472
187 473
187 474
187 480
187 481
187 482
187 483
187 484
187 485
187 486
187 488
187 489
187 490
187 502
187 503
187 504
187 505
187 506
187 507
187 508
187 509
187 510
187 511
187 517
187 518
188 189
188 190
188 191
188 192
188 193
188 194
188 195
188 196
188 197
188 198
188 199
188 200
188 201
188 202
188 203
188 204
188 205
188 206
188 207
188 208
188 209
188 210
188 217
188 218
188 219
188 220
188 221
188 222
188 223
188 224
188 225
188 227
188 228
188 229
188 230
188 231
188 232
188 233
188 234
188 235
188 236
188 238
188 239
188 240
188 251
188 252
188 253
188 254
188 255
188 256
188 257
188 258
188 259
188 260
188 261
188 263
188 264
188 265
188 266
188 267
188 268
188 269
188 274
188 275
188 280
188 281
188 289
188 290
188 291
188 292
188 293
188 294
188 301
188 302
188 311
188 312
188 319
188 320
188 321
188 322
188 323
188 335
188 336
188 345
188 346
188 347
188 348
188 349
188 350
188 351
188 352
188 354
188 355
188 356
188 357
188 364
188 365
188 370
188 371
188 376
188 377
188 383
188 384
188 390
188 391
188 392
188 393
188 400
188 401
188 402
188 403
188 404
188 410
188 411
188 412
188 413
188 414
188 415
188 416
188 417
188 418
188 419
188 420
188 421
188 422
188 424
188 425
188 426
188 427
188 428
188 429
188 430
188 431
188 432
188 433
188 434
188 435
188 436
188 437
188 439
188 440
188 441
188 442
188 443
188 449
188 450
188 458
188 459
188 460
188 461
188 462
188 463
188 464
188 465
188 466
188 467
188 468
188 469
188 471
188 472
188 473
188 474
188 480
188 481
188 487
188 488
188 489
188 490
188 502
188 503
188 504
188 505
188 506
188 507
188 508
188 509
188 510
188 511
188 517
188 518
189 190
189 191
189 192
189 193
189 194
189 195
189 196
189 197
189 198
189 199
189 200
189 201
189 202
189 203
189 204
189 205
189 206
189 207
189 208
189 209
189 210
189 217
189 218
189 226
189 227
189 228
189 229
189 230
189 231
189 237
189 238
189 239
189 240
189 251
189 252
189 262
189 263
189 264
189 265
189 266
189 267
189 268
189 269
189 274
189 275
189 280
189 281
189 289
189 290
189 291
189 292
189 293
189 294
189 301
189 302
189 311
189 312
189 319
189 320
189 321
189 322
189 323
189 335
189 336
189 345
189 346
189 353
189 354
189 355
189 356
189 357
189 364
189 365
189 370
189 371
189 376
189 377
189 383
189 384
189 385
189 386
189 387
189 388
189 389
189 391
189 392
189 393
189 394
189 395
189 396
189 397
189 398
189 399
189 400
189 402
189 403
189 404
189 410
189 411
189 412
189 413
189 423
189 424
189 425
189 426
189 427
189 428
189 429
189 430
189 438
189 439
189 440
189 441
189 442
189 443
189 449
189 450
189 451
189 452
189 453
189 454
189 455
189 456
189 457
189 458
189 460
189 461
189 462
189 463
189 470
189 471
189 472
189 473
189 474
189 480
189 481
189 482
189 483
189 484
189 485
189 486
189 487
189 489
189 490
189 502
189 503
189 504
189 505
189 506
189 507
189 508
189 509
189 510
189 511
189 517
189 518
190 191
190 192
190 193
190 194
190 195
190 196
190 197
190 198
190 199
190 200
190 201
190 202
190 203
190 204
190 205
190 206
190 207
190 208
190 209
190 210
190 217
190 218
190 219
190 220
190 221
190 222
190 223
190 224
190 225
190 226
190 228
190 229
190 230
190 231
190 232
190 233
190 234
190 235
190 236
190 237
190 239
190 240
190 251
190 252
190 262
190 263
190 264
190 265
190 266
190 267
190 268
190 269
190 274
190 275
190 280
190 281
190 289
190 290
190 291
190 292
190 293
190 294
190 301
190 302
190 303
190 304
190 305
190 306
190 307
190 308
190 309
190 310
190 312
190 319
190 320
190 321
190 322
190 323
190 335
190 336
190 345
190 346
190 353
190 354
190 355
190 356
190 357
190 364
190 365
190 370
190 371
190 376
190 377
190 383
190 384
190 385
190 386
190 387
190 388
190 389
190 390
190 392
190 393
190 400
190 401
190 402
190 403
190 404
190 410
190 411
190 412
190 413
190 414
190 415
190 416
190 417
190 418
190 419
190 420
190 421
190 422
190 423
190 425
190 426
190 427
190 428
190 429
190 430
190 438
190 439
190 440
190 441
190 442
190 443
190 449
190 450
190 458
190 459
190 460
190 461
190 462
190 463
190 464
190 465
190 466
190 467
190 468
190 469
190 470
190 472
190 473
190 474
190 480
190 481
190 487
190 488
190 489
190 490
190 502
190 503
190 504
190 505
190 506
190 507
190 508
190 509
190 510
190 511
190 517
190 518
191 192
191 193
191 194
191 195
191 196
191 197
191 198
191 199
191 200
191 201
191 202
191 203
191 204
191 205
191 206
191 207
191 208
191 209
191 210
191 217
191 218
191 226
191 227
191 228
191 229
191 230
191 231
191 237
191 238
191 239
191 240
191 251
191 252
191 253
191 254
191 255
191 256
191 257
191 258
191 259
191 260
191 261
191 262
191 264
191 265
191 266
191 267
191 268
191 269
191 274
191 275
191 280
191 281
191 289
191 290
191 291
191 292
191 293
191 294
191 301
191 302
191 311
191 312
191 313
191 314
191 315
191 316
191 317
191 318
191 319
191 321
191 322
191 323
191 335
191 336
191 345
191 346
191 347
191 348
191 349
191 350
191 351
191 352
191 353
191 355
191 356
191 357
191 364
191 365
191 370
191 371
191 376
191 377
191 383
191 384
191 390
191 391
191 392
191 393
191 400
191 401
191 402
191 403
191 404
191 405
191 406
191 407
191 408
191 409
191 410
191 412
191 413
191 423
191 424
191 425
191 426
191 427
191 428
191 429
191 430
191 431
191 432
191 433
191 434
191 435
191 436
191 437
191 438
191 440
191 441
191 442
191 443
191 449
191 450
191 458
191 459
191 460
191 461
191 462
191 463
191 470
191 471
191 472
191 473
191 474
191 480
191 481
191 487
191 488
191 489
191 490
191 502
191 503
191 504
191 505
191 506
191 507
191 508
191 509
191 510
191 511
191 517
191 518
192 193
192 194
192 195
192 196
192 197
192 198
192 199
192 200
192 201
192 202
192 203
192 204
192 205
192 206
192 207
192 208
192 209
192 210
192 217
192 218
192 226
192 227
192 228
192 229
192 230
192 231
192 237
192 238
192 239
192 240
192 251
192 252
192 262
192 263
192 264
192 265
192 266
192 267
192 268
192 269
192 274
192 275
192 280
192 281
192 282
192 283
192 284
192 285
192 286
192 287
192 288
192 290
192 291
192 292
192 293
192 294
192 301
192 302
192 311
192 312
192 313
192 314
192 315
192 316
192 317
192 318
192 319
192 320
192 322
192 323
192 335
192 336
192 345
192 346
192 353
192 354
192 355
192 356
192 357
192 358
192 359
192 360
192 361
192 362
192 363
192 365
192 370
192 371
192 376
192 377
192 383
192 384
192 390
192 391
192 392
192 393
192 394
192 395
192 396
192 397
192 398
192 399
192 400
192 401
192 403
192 404
192 410
192 411
192 412
192 413
192 423
192 424
192 425
192 426
192 427
192 428
192 429
192 430
192 438
192 439
192 440
192 441
192 442
192 443
192 449
192 450
192 458
192 459
192 460
192 461
192 462
192 463
192 470
192 471
192 472
192 473
192 474
192 480
192 481
192 487
192 488
192 489
192 490
192 491
192 492
192 493
192 494
192 495
192 496
192 497
192 498
192 499
192 500
192 501
192 503
192 504
192 505
192 506
192 507
192 508
192 509
192 510
192 511
192 517
192 518
193 194
193 195
193 196
193 197
193 198
193 199
193 200
193 201
193 202
193 203
193 204
193 205
193 206
193 207
193 208
193 209
193 210
193 217
193 218
193 226
193 227
193 228
193 229
193 230
193 231
193 237
193 238
193 239
193 240
193 251
193 252
193 253
193 254
193 255
193 256
193 257
193 258
193 259
193 260
193 261
193 262
193 263
193 265
193 266
193 267
193 268
193 269
193 274
193 275
193 280
193 281
193 282
193 283
193 284
193 285
193 286
193 287
193 288
193 289
193 291
193 292
193 293
193 294
193 301
193 302
193 311
193 312
193 319
193 320
193 321
193 322
193 323
193 335
193 336
193 345
193 346
193 347
193 348
193 349
193 350
193 351
193 352
193 353
193 354
193 356
193 357
193 364
193 365
193 370
193 371
193 376
193 377
193 383
193 384
193 390
193 391
193 392
193 393
193 400
193 401
193 402
193 403
193 404
193 410
193 411
193 412
193 413
193 414
193 415
193 416
193 417
193 418
193 419
193 420
193 421
193 422
193 423
193 424
193 426
193 427
193 428
193 429
193 430
193 438
193 439
193 440
193 441
193 442
193 443
193 449
193 450
193 458
193 459
193 460
193 461
193 462
193 463
193 464
193 465
193 466
193 467
193 468
193 469
193 470
193 471
193 473
193 474
193 480
193 481
193 487
193 488
193 489
193 490
193 491
193 492
193 493
193 494
193 495
193 496
193 497
193 498
193 499
193 500
193 501
193 502
193 504
193 505
193 506
193 507
193 508
193 509
193 510
193 511
193 517
193 518
194 195
194 196
194 197
194 198
194 199
194 200
194 201
194 202
194 203
194 204
194 205
194 206
194 207
194 208
194 209
194 210
194 217
194 218
194 226
194 227
194 228
194 229
194 230
194 231
194 237
194 238
194 239
194 240
194 251
194 252
194 262
194 263
194 264
194 265
194 266
194 267
194 268
194 269
194 274
194 275
194 280
194 281
194 282
194 283
194 284
194 285
194 286
194 287
194 288
194 289
194 290
194 292
194 293
194 294
194 295
194 296
194 297
194 298
194 299
194 300
194 302
194 311
194 312
194 319
194 320
194 321
194 322
194 323
194 335
194 336
194 345
194 346
194 353
194 354
194 355
194 356
194 357
194 364
194 365
194 370
194 371
194 376
194 377
194 383
194 384
194 390
194 391
194 392
194 393
194 394
194 395
194 396
194 397
194 398
194 399
194 400
194 401
194 402
194 404
194 410
194 411
194 412
194 413
194 423
194 424
194 425
194 426
194 427
194 428
194 429
194 430
194 438
194 439
194 440
194 441
194 442
194 443
194 449
194 450
194 458
194 459
194 460
194 461
194 462
194 463
194 470
194 471
194 472
194 473
194 474
194 480
194 481
194 487
194 488
194 489
194 490
194 491
194 492
194 493
194 494
194 495
194 496
194 497
194 498
194 499
194 500
194 501
194 502
194 503
194 505
194 506
194 507
194 508
194 509
194 510
194 511
194 517
194 518
195 196
195 197
195 198
195 199
195 200
195 201
195 202
195 203
195 204
195 205
195 206
195 207
195 208
195 209
195 210
195 217
195 218
195 226
195 227
195 228
195 229
195 230
195 231
195 237
195 238
195 239
195 240
195 251
195 252
195 262
195 263
195 264
195 265
195 266
195 267
195 268
195 269
195 274
195 275
195 280
195 281
195 282
195 283
195 284
195 285
195 286
195 287
195 288
195 289
195 290
195 291
195 293
195 294
195 301
195 302
195 311
195 312
195 319
195 320
195 321
195 322
195 323
195 335
195 336
195 345
195 346
195 353
195 354
195 355
195 356
195 357
195 364
195 365
195 370
195 371
195 376
195 377
195 383
195 384
195 390
195 391
195 392
195 393
195 400
195 401
195 402
195 403
195 404
195 410
195 411
195 412
195 413
195 414
195 415
195 416
195 417
195 418
195 419
195 420
195 421
195 422
195 423
195 424
195 425
195 427
195 428
195 429
195 430
195 438
195 439
195 440
195 441
195 442
195 443
195 449
195 450
195 458
195 459
195 460
195 461
195 462
195 463
195 464
195 465
195 466
195 467
195 468
195 469
195 470
195 471
195 472
195 474
195 480
195 481
195 487
195 488
195 489
195 490
195 491
195 492
195 493
195 494
195 495
195 496
195 497
195 498
195 499
195 500
195 501
195 502
195 503
195 504
195 506
195 507
195 508
195 509
195 510
195 511
195 517
195 518
196 197
196 198
196 199
196 200
196 201
196 202
196 203
196 204
196 205
196 206
196 207
196 208
196 209
196 210
196 211
196 212
196 213
196 214
196 215
196 216
196 218
196 226
196 227
196 228
196 229
196 230
196 231
196 237
196 238
196 239
196 240
196 251
196 252
196 253
196 254
196 255
196 256
196 257
196 258
196 259
196 260
196 261
196 262
196 263
196 264
196 266
196 267
196 268
196 269
196 274
196 275
196 280
196 281
196 282
196 283
196 284
196 285
196 286
196 287
196 288
196 289
196 290
196 291
196 292
196 294
196 301
196 302
196 311
196 312
196 313
196 314
196 315
196 316
196 317
196 318
196 319
196 320
196 321
196 323
196 335
196 336
196 345
196 346
196 347
196 348
196 349
196 350
196 351
196 352
196 353
196 354
196 355
196 357
196 364
196 365
196 370
196 371
196 376
196 377
196 383
196 384
196 390
196 391
196 392
196 393
196 400
196 401
196 402
196 403
196 404
196 410
196 411
196 412
196 413
196 423
196 424
196 425
196 426
196 427
196 428
196 429
196 430
196 438
196 439
196 440
196 441
196 442
196 443
196 449
196 450
196 458
196 459
196 460
196 461
196 462
196 463
196 470
196 471
196 472
196 473
196 474
196 480
196 481
196 487
196 488
196 489
196 490
196 491
196 492
196 493
196 494
196 495
196 496
196 497
196 498
196 499
196 500
196 501
196 502
196 503
196 504
196 505
196 507
196 508
196 509
196 510
196 511
196 517
196 518
197 198
197 199
197 200
197 201
197 202
197 203
197 204
197 205
197 206
197 207
197 208
197 209
197 210
197 217
197 218
197 219
197 220
197 221
197 222
197 223
197 224
197 225
197 226
197 227
197 229
197 230
197 231
197 232
197 233
197 234
197 235
197 236
197 237
197 238
197 240
197 241
197 242
197 243
197 244
197 245
197 246
197 247
197 248
197 249
197 250
197 252
197 262
197 263
197 264
197 265
197 266
197 267
197 268
197 269
197 274
197 275
197 280
197 281
197 289
197 290
197 291
197 292
197 293
197 294
197 301
197 302
197 311
197 312
197 319
197 320
197 321
197 322
197 323
197 335
197 336
197 345
197 346
197 353
197 354
197 355
197 356
197 357
197 364
197 365
197 370
197 371
197 376
197 377
197 383
197 384
197 385
197 386
197 387
197 388
197 389
197 390
197 391
197 393
197 400
197 401
197 402
197 403
197 404
197 405
197 406
197 407
197 408
197 409
197 410
197 411
197 413
197 423
197 424
197 425
197 426
197 427
197 428
197 429
197 430
197 431
197 432
197 433
197 434
197 435
197 436
197 437
197 438
197 439
197 441
197 442
197 443
197 449
197 450
197 451
197 452
197 453
197 454
197 455
197 456
197 457
197 458
197 459
197 461
197 462
197 463
197 470
197 471
197 472
197 473
197 474
197 480
197 481
197 482
197 483
197 484
197 485
197 486
197 487
197 488
197 490
197 502
197 503
197 504
197 505
197 506
197 507
197 508
197 509
197 510
197 511
197 517
197 518
198 199
198 200
198 201
198 202
198 203
198 204
198 205
198 206
198 207
198 208
198 209
198 210
198 217
198 218
198 226
198 227
198 228
198 229
198 230
198 231
198 237
198 238
198 239
198 240
198 251
198 252
198 262
198 263
198 264
198 265
198 266
198 267
198 268
198 269
198 274
198 275
198 280
198 281
198 289
198 290
198 291
198 292
198 293
198 294
198 301
198 302
198 311
198 312
198 319
198 320
198 321
198 322
198 323
198 335
198 336
198 345
198 346
198 353
198 354
198 355
198 356
198 357
198 364
198 365
198 370
198 371
198 376
198 377
198 378
198 379
198 380
198 381
198 382
198 384
198 390
198 391
198 392
198 393
198 400
198 401
198 402
198 403
198 404
198 410
198 411
198 412
198 413
198 423
198 424
198 425
198 426
198 427
198 428
198 429
198 430
198 438
198 439
198 440
198 441
198 442
198 443
198 449
198 450
198 451
198 452
198 453
198 454
198 455
198 456
198 457
198 458
198 459
198 460
198 462
198 463
198 470
198 471
198 472
198 473
198 474
198 480
198 481
198 487
198 488
198 489
198 490
198 502
198 503
198 504
198 505
198 506
198 507
198 508
198 509
198 510
198 511
198 517
198 518
199 200
199 201
199 202
199 203
199 204
199 205
199 206
199 207
199 208
199 209
199 210
199 217
199 218
199 219
199 220
199 221
199 222
199 223
199 224
199 225
199 226
199 227
199 228
199 230
199 231
199 237
199 238
199 239
199 240
199 251
199 252
199 253
199 254
199 255
199 256
199 257
199 258
199 259
199 260
199 261
199 262
199 263
199 264
199 265
199 267
199 268
199 269
199 274
199 275
199 280
199 281
199 289
199 290
199 291
199 292
199 293
199 294
199 301
199 302
199 311
199 312
199 319
199 320
199 321
199 322
199 323
199 335
199 336
199 345
199 346
199 353
199 354
199 355
199 356
199 357
199 364
199 365
199 370
199 371
199 376
199 377
199 383
199 384
199 390
199 391
199 392
199 393
199 400
199 401
199 402
199 403
199 404
199 410
199 411
199 412
199 413
199 414
199 415
199 416
199 417
199 418
199 419
199 420
199 421
199 422
199 423
199 424
199 425
199 426
199 428
199 429
199 430
199 431
199 432
199 433
199 434
199 435
199 436
199 437
199 438
199 439
199 440
199 442
199 443
199 449
199 450
199 458
199 459
199 460
199 461
199 462
199 463
199 470
199 471
199 472
199 473
199 474
199 480
199 481
199 487
199 488
199 489
199 490
199 502
199 503
199 504
199 505
199 506
199 507
199 508
199 509
199 510
199 511
199 512
199 513
199 514
199 515
199 516
199 518
200 201
200 202
200 203
200 204
200 205
200 206
200 207
200 208
200 209
200 210
200 217
200 218
200 226
200 227
200 228
200 229
200 230
200 231
200 237
200 238
200 239
200 240
200 251
200 252
200 262
200 263
200 264
200 265
200 266
200 267
200 268
200 269
200 274
200 275
200 280
200 281
200 289
200 290
200 291
200 292
200 293
200 294
200 301
200 302
200 311
200 312
200 319
200 320
200 321
200 322
200 323
200 335
200 336
200 345
200 346
200 353
200 354
200 355
200 356
200 357
200 364
200 365
200 370
200 371
200 376
200 377
200 383
200 384
200 390
200 391
200 392
200 393
200 400
200 401
200 402
200 403
200 404
200 410
200 411
200 412
200 413
200 423
200 424
200 425
200 426
200 427
200 428
200 429
200 430
200 438
200 439
200 440
200 441
200 442
200 443
200 444
200 445
200 446
200 447
200 448
200 450
200 451
200 452
200 453
200 454
200 455
200 456
200 457
200 458
200 459
200 460
200 461
200 463
200 470
200 471
200 472
200 473
200 474
200 480
200 481
200 487
200 488
200 489
200 490
200 502
200 503
200 504
200 505
200 506
200 507
200 508
200 509
200 510
200 511
200 517
200 518
201 202
201 203
201 204
201 205
201 206
201 207
201 208
201 209
201 210
201 217
201 218
201 219
201 220
201 221
201 222
201 223
201 224
201 225
201 226
201 227
201 228
201 229
201 231
201 237
201 238
201 239
201 240
201 251
201 252
201 262
201 263
201 264
201 265
201 266
201 267
201 268
201 269
201 274
201 275
201 280
201 281
201 289
201 290
201 291
201 292
201 293
201 294
201 301
201 302
201 311
201 312
201 319
201 320
201 321
201 322
201 323
201 335
201 336
201 345
201 346
201 353
201 354
201 355
201 356
201 357
201 364
201 365
201 370
201 371
201 376
201 377
201 383
201 384
201 390
201 391
201 392
201 393
201 400
201 401
201 402
201 403
201 404
201 410
201 411
201 412
201 413
201 414
201 415
201 416
201 417
201 418
201 419
201 420
201 421
201 422
201 423
201 424
201 425
201 426
201 427
201 429
201 430
201 438
201 439
201 440
201 441
201 442
201 443
201 449
201 450
201 458
201 459
201 460
201 461
201 462
201 463
201 470
201 471
201 472
201 473
201 474
201 475
201 476
201 477
201 478
201 479
201 481
201 487
201 488
201 489
201 490
201 502
201 503
201 504
201 505
201 506
201 507
201 508
201 509
201 510
201 511
201 517
201 518
202 203
202 204
202 205
202 206
202 207
202 208
202 209
202 210
202 217
202 218
202 226
202 227
202 228
202 229
202 230
202 231
202 237
202 238
202 239
202 240
202 251
202 252
202 253
202 254
202 255
202 256
202 257
202 258
202 259
202 260
202 261
202 262
202 263
202 264
202 265
202 266
202 268
202 269
202 274
202 275
202 280
202 281
202 289
202 290
202 291
202 292
202 293
202 294
202 301
202 302
202 311
202 312
202 319
202 320
202 321
202 322
202 323
202 335
202 336
202 345
202 346
202 353
202 354
202 355
202 356
202 357
202 364
202 365
202 370
202 371
202 376
202 377
202 383
202 384
202 390
202 391
202 392
202 393
202 400
202 401
202 402
202 403
202 404
202 410
202 411
202 412
202 413
202 423
202 424
202 425
202 426
202 427
202 428
202 429
202 430
202 431
202 432
202 433
202 434
202 435
202 436
202 437
202 438
202 439
202 440
202 441
202 443
202 449
202 450
202 458
202 459
202 460
202 461
202 462
202 463
202 470
202 471
202 472
202 473
202 474
202 480
202 481
202 487
202 488
202 489
202 490
202 502
202 503
202 504
202 505
202 506
202 507
202 508
202 509
202 510
202 511
202 517
202 518
203 204
203 205
203 206
203 207
203 208
203 209
203 210
203 217
203 218
203 226
203 227
203 228
203 229
203 230
203 231
203 237
203 238
203 239
203 240
203 251
203 252
203 262
203 263
203 264
203 265
203 266
203 267
203 268
203 269
203 270
203 271
203 272
203 273
203 275
203 280
203 281
203 289
203 290
203 291
203 292
203 293
203 294
203 301
203 302
203 311
203 312
203 319
203 320
203 321
203 322
203 323
203 335
203 336
203 345
203 346
203 353
203 354
203 355
203 356
203 357
203 364
203 365
203 370
203 371
203 376
203 377
203 383
203 384
203 390
203 391
203 392
203 393
203 400
203 401
203 402
203 403
203 404
203 410
203 411
203 412
203 413
203 423
203 424
203 425
203 426
203 427
203 428
203 429
203 430
203 438
203 439
203 440
203 441
203 442
203 443
203 449
203 450
203 458
203 459
203 460
203 461
203 462
203 463
203 470
203 471
203 472
203 473
203 474
203 480
203 481
203 487
203 488
203 489
203 490
203 491
203 492
203 493
203 494
203 495
203 496
203 497
203 498
203 499
203 500
203 501
203 502
203 503
203 504
203 505
203 506
203 508
203 509
203 510
203 511
203 517
203 518
204 205
204 206
204 207
204 208
204 209
204 210
204 217
204 218
204 226
204 227
204 228
204 229
204 230
204 231
204 237
204 238
204 239
204 240
204 251
204 252
204 253
204 254
204 255
204 256
204 257
204 258
204 259
204 260
204 261
204 262
204 263
204 264
204 265
204 266
204 267
204 269
204 274
204 275
204 280
204 281
204 289
204 290
204 291
204 292
204 293
204 294
204 301
204 302
204 311
204 312
204 319
204 320
204 321
204 322
204 323
204 335
204 336
204 345
204 346
204 353
204 354
204 355
204 356
204 357
204 364
204 365
204 366
204 367
204 368
204 369
204 371
204 376
204 377
204 383
204 384
204 390
204 391
204 392
204 393
204 400
204 401
204 402
204 403
204 404
204 410
204 411
204 412
204 413
204 414
204 415
204 416
204 417
204 418
204 419
204 420
204 421
204 422
204 423
204 424
204 425
204 426
204 427
204 428
204 430
204 438
204 439
204 440
204 441
204 442
204 443
204 449
204 450
204 458
204 459
204 460
204 461
204 462
204 463
204 470
204 471
204 472
204 473
204 474
204 480
204 481
204 487
204 488
204 489
204 490
204 491
204 492
204 493
204 494
204 495
204 496
204 497
204 498
204 499
204 500
204 501
204 502
204 503
204 504
204 505
204 506
204 507
204 509
204 510
204 511
204 517
204 518
205 206
205 207
205 208
205 209
205 210
205 217
205 218
205 226
205 227
205 228
205 229
205 230
205 231
205 237
205 238
205 239
205 240
205 251
205 252
205 262
205 263
205 264
205 265
205 266
205 267
205 268
205 269
205 274
205 275
205 280
205 281
205 289
205 290
205 291
205 292
205 293
205 294
205 301
205 302
205 311
205 312
205 319
205 320
205 321
205 322
205 323
205 335
205 336
205 345
205 346
205 353
205 354
205 355
205 356
205 357
205 364
205 365
205 370
205 371
205 376
205 377
205 383
205 384
205 390
205 391
205 392
205 393
205 400
205 401
205 402
205 403
205 404
205 410
205 411
205 412
205 413
205 423
205 424
205 425
205 426
205 427
205 428
205 429
205 430
205 438
205 439
205 440
205 441
205 442
205 443
205 449
205 450
205 458
205 459
205 460
205 461
205 462
205 463
205 470
205 471
205 472
205 473
205 474
205 480
205 481
205 487
205 488
205 489
205 490
205 491
205 492
205 493
205 494
205 495
205 496
205 497
205 498
205 499
205 500
205 501
205 502
205 503
205 504
205 505
205 506
205 507
205 508
205 510
205 511
205 517
205 518
206 207
206 208
206 209
206 210
206 217
206 218
206 226
206 227
206 228
206 229
206 230
206 231
206 237
206 238
206 239
206 240
206 251
206 252
206 262
206 263
206 264
206 265
206 266
206 267
206 268
206 269
206 274
206 275
206 276
206 277
206 278
206 279
206 281
206 289
206 290
206 291
206 292
206 293
206 294
206 301
206 302
206 311
206 312
206 319
206 320
206 321
206 322
206 323
206 335
206 336
206 345
206 346
206 353
206 354
206 355
206 356
206 357
206 364
206 365
206 370
206 371
206 376
206 377
206 383
206 384
206 390
206 391
206 392
206 393
206 400
206 401
206 402
206 403
206 404
206 410
206 411
206 412
206 413
206 414
206 415
206 416
206 417
206 418
206 419
206 420
206 421
206 422
206 423
206 424
206 425
206 426
206 427
206 428
206 429
206 438
206 439
206 440
206 441
206 442
206 443
206 449
206 450
206 458
206 459
206 460
206 461
206 462
206 463
206 470
206 471
206 472
206 473
206 474
206 480
206 481
206 487
206 488
206 489
206 490
206 491
206 492
206 493
206 494
206 495
206 496
206 497
206 498
206 499
206 500
206 501
206 502
206 503
206 504
206 505
206 506
206 507
206 508
206 509
206 511
206 517
206 518
207 208
207 209
207 210
207 217
207 218
207 226
207 227
207 228
207 229
207 230
207 231
207 237
207 238
207 239
207 240
207 251
207 252
207 253
207 254
207 255
207 256
207 257
207 258
207 259
207 260
207 261
207 262
207 263
207 264
207 265
207 266
207 267
207 268
207 274
207 275
207 280
207 281
207 289
207 290
207 291
207 292
207 293
207 294
207 301
207 302
207 311
207 312
207 319
207 320
207 321
207 322
207 323
207 335
207 336
207 345
207 346
207 353
207 354
207 355
207 356
207 357
207 364
207 365
207 370
207 371
207 372
207 373
207 374
207 375
207 377
207 383
207 384
207 390
207 391
207 392
207 393
207 400
207 401
207 402
207 403
207 404
207 410
207 411
207 412
207 413
207 423
207 424
207 425
207 426
207 427
207 428
207 429
207 430
207 438
207 439
207 440
207 441
207 442
207 443
207 449
207 450
207 458
207 459
207 460
207 461
207 462
207 463
207 470
207 471
207 472
207 473
207 474
207 480
207 481
207 487
207 488
207 489
207 490
207 491
207 492
207 493
207 494
207 495
207 496
207 497
207 498
207 499
207 500
207 501
207 502
207 503
207 504
207 505
207 506
207 507
207 508
207 509
207 510
207 517
207 518
208 209
208 210
208 217
208 218
208 219
208 220
208 221
208 222
208 223
208 224
208 225
208 226
208 227
208 228
208 229
208 230
208 237
208 238
208 239
208 240
208 251
208 252
208 262
208 263
208 264
208 265
208 266
208 267
208 268
208 269
208 274
208 275
208 280
208 281
208 289
208 290
208 291
208 292
208 293
208 294
208 301
208 302
208 311
208 312
208 319
208 320
208 321
208 322
208 323
208 335
208 336
208 345
208 346
208 353
208 354
208 355
208 356
208 357
208 364
208 365
208 370
208 371
208 376
208 377
208 383
208 384
208 390
208 391
208 392
208 393
208 400
208 401
208 402
208 403
208 404
208 410
208 411
208 412
208 413
208 423
208 424
208 425
208 426
208 427
208 428
208 429
208 430
208 431
208 432
208 433
208 434
208 435
208 436
208 437
208 438
208 439
208 440
208 441
208 442
208 449
208 450
208 451
208 452
208 453
208 454
208 455
208 456
208 457
208 458
208 459
208 460
208 461
208 462
208 470
208 471
208 472
208 473
208 474
208 480
208 481
208 487
208 488
208 489
208 490
208 502
208 503
208 504
208 505
208 506
208 507
208 508
208 509
208 510
208 511
208 517
208 518
209 210
209 217
209 218
209 226
209 227
209 228
209 229
209 230
209 231
209 232
209 233
209 234
209 235
209 236
209 237
209 238
209 239
209 251
209 252
209 262
209 263
209 264
209 265
209 266
209 267
209 268
209 269
209 274
209 275
209 280
209 281
209 282
209 283
209 284
209 285
209 286
209 287
209 288
209 289
209 290
209 291
209 292
209 293
209 301
209 302
209 311
209 312
209 313
209 314
209 315
209 316
209 317
209 318
209 319
209 320
209 321
209 322
209 324
209 325
209 326
209 327
209 328
209 329
209 330
209 331
209 332
209 333
209 334
209 336
209 345
209 346
209 347
209 348
209 349
209 350
209 351
209 352
209 353
209 354
209 355
209 356
209 364
209 365
209 370
209 371
209 376
209 377
209 383
209 384
209 385
209 386
209 387
209 388
209 389
209 390
209 391
209 392
209 394
209 395
209 396
209 397
209 398
209 399
209 400
209 401
209 402
209 403
209 405
209 406
209 407
209 408
209 409
209 410
209 411
209 412
209 423
209 424
209 425
209 426
209 427
209 428
209 429
209 430
209 438
209 439
209 440
209 441
209 442
209 443
209 449
209 450
209 458
209 459
209 460
209 461
209 462
209 463
209 464
209 465
209 466
209 467
209 468
209 469
209 470
209 471
209 472
209 473
209 480
209 481
209 482
209 483
209 484
209 485
209 486
209 487
209 488
209 489
209 502
209 503
209 504
209 505
209 506
209 507
209 508
209 509
209 510
209 511
209 517
209 518
210 211
210 212
210 213
210 214
210 215
210 216
210 217
210 226
210 227
210 228
210 229
210 230
210 231
210 237
210 238
210 239
210 240
210 241
210 242
210 243
210 244
210 245
210 246
210 247
210 248
210 249
210 250
210 251
210 262
210 263
210 264
210 265
210 266
210 267
210 268
210 269
210 270
210 271
210 272
210 273
210 274
210 276
210 277
210 278
210 279
210 280
210 289
210 290
210 291
210 292
210 293
210 294
210 295
210 296
210 297
210 298
210 299
210 300
210 301
210 303
210 304
210 305
210 306
210 307
210 308
210 309
210 310
210 311
210 319
210 320
210 321
210 322
210 323
210 324
210 325
210 326
210 327
210 328
210 329
210 330
210 331
210 332
210 333
210 334
210 335
210 337
210 338
210 339
210 340
210 341
210 342
210 343
210 344
210 345
210 353
210 354
210 355
210 356
210 357
210 358
210 359
210 360
210 361
210 362
210 363
210 364
210 366
210 367
210 368
210 369
210 370
210 372
210 373
210 374
210 375
210 376
210 378
210 379
210 380
210 381
210 382
210 383
210 390
210 391
210 392
210 393
210 400
210 401
210 402
210 403
210 404
210 410
210 411
210 412
210 413
210 423
210 424
210 425
210 426
210 427
210 428
210 429
210 430
210 438
210 439
210 440
210 441
210 442
210 443
210 444
210 445
210 446
210 447
210 448
210 449
210 458
210 459
210 460
210 461
210 462
210 463
210 470
210 471
210 472
210 473
210 474
210 475
210 476
210 477
210 478
210 479
210 480
210 487
210 488
210 489
210 490
210 502
210 503
210 504
210 505
210 506
210 507
210 508
210 509
210 510
210 511
210 512
210 513
210 514
210 515
210 516
210 517
211 212
211 213
211 214
211 215
211 216
211 217
211 218
211 220
211 222
211 224
211 225
211 233
211 234
211 252
211 253
211 255
211 256
211 257
211 258
211 259
211 260
211 261
211 262
211 263
211 264
211 265
211 266
211 267
211 268
211 269
211 271
211 272
211 275
211 278
211 281
211 287
211 293
211 297
211 300
211 302
211 312
211 317
211 322
211 326
211 327
211 334
211 336
211 338
211 342
211 346
211 351
211 356
211 359
211 360
211 362
211 363
211 365
211 366
211 368
211 369
211 370
211 371
211 373
211 374
211 375
211 376
211 377
211 379
211 384
211 386
211 387
211 388
211 389
211 390
211 391
211 392
211 393
211 394
211 396
211 397
211 398
211 399
211 400
211 401
211 402
211 403
211 404
211 407
211 416
211 420
211 434
211 437
211 450
211 451
211 453
211 454
211 455
211 456
211 457
211 458
211 459
211 460
211 461
211 462
211 463
211 465
211 481
211 482
211 484
211 485
211 486
211 487
211 488
211 489
211 490
211 496
211 506
211 512
211 514
211 515
211 516
211 517
211 518
212 213
212 214
212 215
212 216
212 217
212 218
212 219
212 221
212 222
212 223
212 224
212 225
212 226
212 227
212 228
212 229
212 230
212 231
212 232
212 234
212 235
212 236
212 237
212 238
212 239
212 240
212 252
212 254
212 265
212 270
212 272
212 273
212 274
212 275
212 278
212 281
212 287
212 293
212 297
212 300
212 302
212 312
212 317
212 322
212 326
212 327
212 334
212 336
212 337
212 339
212 340
212 341
212 342
212 343
212 344
212 345
212 346
212 351
212 356
212 358
212 360
212 361
212 362
212 363
212 364
212 365
212 367
212 368
212 371
212 372
212 374
212 375
212 376
212 377
212 378
212 380
212 381
212 382
212 383
212 384
212 385
212 387
212 388
212 389
212 390
212 391
212 392
212 393
212 395
212 407
212 414
212 415
212 417
212 418
212 419
212 420
212 421
212 422
212 423
212 424
212 425
212 426
212 427
212 428
212 429
212 430
212 434
212 437
212 450
212 452
212 454
212 456
212 457
212 464
212 466
212 467
212 468
212 469
212 470
212 471
212 472
212 473
212 474
212 481
212 483
212 484
212 496
212 506
212 513
212 518
213 214
213 215
213 216
213 217
213 218
213 219
213 220
213 221
213 223
213 224
213 225
213 226
213 227
213 228
213 229
213 230
213 231
213 232
213 233
213 235
213 236
213 237
213 238
213 239
213 240
213 252
213 254
213 265
213 270
213 271
213 273
213 274
213 275
213 276
213 277
213 279
213 280
213 281
213 287
213 293
213 295
213 296
213 298
213 299
213 300
213 301
213 302
213 312
213 317
213 322
213 326
213 327
213 334
213 336
213 338
213 342
213 346
213 351
213 356
213 358
213 359
213 361
213 362
213 363
213 364
213 365
213 366
213 367
213 369
213 370
213 371
213 372
213 373
213 375
213 376
213 377
213 379
213 384
213 385
213 386
213 388
213 389
213 390
213 391
213 392
213 393
213 395
213 405
213 406
213 408
213 409
213 410
213 411
213 412
213 413
213 416
213 420
213 431
213 432
213 433
213 435
213 436
213 437
213 438
213 439
213 440
213 441
213 442
213 443
213 450
213 451
213 452
213 453
213 455
213 456
213 457
213 458
213 459
213 460
213 461
213 462
213 463
213 465
213 481
213 482
213 483
213 485
213 486
213 487
213 488
213 489
213 490
213 491
213 492
213 493
213 494
213 495
213 497
213 498
213 499
213 500
213 501
213 502
213 503
213 504
213 505
213 506
213 507
213 508
213 509
213 510
213 511
213 513
213 518
214 215
214 216
214 217
214 218
214 220
214 222
214 224
214 225
214 233
214 234
214 252
214 254
214 265
214 271
214 272
214 275
214 278
214 281
214 287
214 293
214 297
214 300
214 302
214 312
214 317
214 322
214 324
214 325
214 327
214 328
214 329
214 330
214 331
214 332
214 333
214 334
214 335
214 336
214 338
214 342
214 346
214 347
214 348
214 349
214 350
214 352
214 353
214 354
214 355
214 356
214 357
214 359
214 360
214 362
214 363
214 365
214 367
214 368
214 371
214 372
214 373
214 374
214 377
214 379
214 384
214 385
214 386
214 387
214 395
214 407
214 416
214 420
214 434
214 437
214 450
214 451
214 452
214 453
214 454
214 455
214 457
214 458
214 459
214 460
214 461
214 462
214 463
214 465
214 481
214 483
214 484
214 496
214 506
214 513
214 518
215 216
215 217
215 218
215 219
215 220
215 221
215 222
215 223
215 225
215 226
215 227
215 228
215 229
215 230
215 231
215 233
215 234
215 252
215 254
215 265
215 271
215 272
215 275
215 278
215 281
215 287
215 293
215 297
215 300
215 302
215 312
215 313
215 314
215 315
215 316
215 318
215 319
215 320
215 321
215 322
215 323
215 324
215 325
215 326
215 328
215 329
215 330
215 331
215 332
215 333
215 334
215 335
215 336
215 337
215 338
215 339
215 340
215 341
215 343
215 344
215 345
215 346
215 351
215 356
215 358
215 359
215 360
215 361
215 363
215 364
215 365
215 367
215 368
215 371
215 372
215 373
215 374
215 377
215 379
215 384
215 385
215 386
215 387
215 395
215 407
215 414
215 415
215 416
215 417
215 418
215 419
215 421
215 422
215 423
215 424
215 425
215 426
215 427
215 428
215 429
215 430
215 434
215 437
215 450
215 452
215 454
215 456
215 457
215 465
215 481
215 483
215 484
215 496
215 506
215 513
215 518
216 217
216 218
216 219
216 220
216 221
216 222
216 223
216 224
216 226
216 227
216 228
216 229
216 230
216 231
216 233
216 234
216 252
216 254
216 265
216 271
216 272
216 275
216 278
216 281
216 282
216 283
216 284
216 285
216 286
216 288
216 289
216 290
216 291
216 292
216 293
216 294
216 295
216 296
216 297
216 298
216 299
216 301
216 302
216 312
216 317
216 322
216 324
216 325
216 326
216 327
216 328
216 329
216 330
216 331
216 332
216 333
216 335
216 336
216 338
216 342
216 346
216 351
216 356
216 358
216 359
216 360
216 361
216 362
216 364
216 365
216 367
216 368
216 371
216 372
216 373
216 374
216 377
216 379
216 384
216 385
216 386
216 387
216 395
216 407
216 416
216 420
216 431
216 432
216 433
216 434
216 435
216 436
216 438
216 439
216 440
216 441
216 442
216 443
216 450
216 451
216 452
216 453
216 454
216 455
216 456
216 458
216 459
216 460
216 461
216 462
216 463
216 465
216 481
216 483
216 484
216 496
216 506
216 513
216 518
217 218
217 220
217 222
217 224
217 225
217 233
217 234
217 252
217 253
217 254
217 255
217 256
217 257
217 258
217 259
217 260
217 261
217 262
217 263
217 264
217 266
217 267
217 268
217 269
217 271
217 272
217 275
217 278
217 281
217 282
217 283
217 284
217 285
217 286
217 287
217 288
217 289
217 290
217 291
217 292
217 294
217 297
217 300
217 302
217 312
217 313
217 314
217 315
217 316
217 317
217 318
217 319
217 320
217 321
217 323
217 326
217 327
217 334
217 336
217 338
217 342
217 346
217 347
217 348
217 349
217 350
217 351
217 352
217 353
217 354
217 355
217 357
217 359
217 360
217 362
217 363
217 365
217 367
217 368
217 371
217 372
217 373
217 374
217 377
217 379
217 384
217 385
217 386
217 387
217 395
217 407
217 416
217 420
217 434
217 437
217 450
217 452
217 454
217 456
217 457
217 465
217 481
217 483
217 484
217 491
217 492
217 493
217 494
217 495
217 496
217 497
217 498
217 499
217 500
217 501
217 502
217 503
217 504
217 505
217 507
217 508
217 509
217 510
217 511
217 513
217 518
218 220
218 222
218 224
218 225
218 233
218 234
218 241
218 242
218 243
218 244
218 245
218 246
218 247
218 248
218 249
218 250
218 251
218 254
218 265
218 270
218 271
218 272
218 273
218 274
218 276
218 277
218 278
218 279
218 280
218 287
218 293
218 295
218 296
218 297
218 298
218 299
218 300
218 301
218 303
218 304
218 305
218 306
218 307
218 308
218 309
218 310
218 311
218 317
218 322
218 324
218 325
218 326
218 327
218 328
218 329
218 330
218 331
218 332
218 333
218 334
218 335
218 337
218 338
218 339
218 340
218 341
218 342
218 343
218 344
218 345
218 351
218 356
218 358
218 359
218 360
218 361
218 362
218 363
218 364
218 366
218 367
218 368
218 369
218 370
218 372
218 373
218 374
218 375
218 376
218 378
218 379
218 380
218 381
218 382
218 383
218 385
218 386
218 387
218 395
218 407
218 416
218 420
218 434
218 437
218 444
218 445
218 446
218 447
218 448
218 449
218 452
218 454
218 456
218 457
218 465
218 475
218 476
218 477
218 478
218 479
218 480
218 483
218 484
218 496
218 506
218 512
218 513
218 514
218 515
218 516
218 517
219 220
219 221
219 222
219 223
219 224
219 225
219 226
219 227
219 228
219 229
219 230
219 231
219 233
219 234
219 235
219 236
219 237
219 238
219 239
219 240
219 241
219 251
219 254
219 255
219 256
219 257
219 258
219 259
219 260
219 261
219 262
219 263
219 264
219 265
219 266
219 267
219 268
219 269
219 271
219 272
219 273
219 274
219 275
219 278
219 282
219 287
219 296
219 297
219 298
219 299
219 300
219 301
219 302
219 305
219 311
219 315
219 317
219 325
219 327
219 334
219 338
219 339
219 340
219 341
219 342
219 343
219 344
219 345
219 346
219 348
219 349
219 350
219 351
219 352
219 353
219 354
219 355
219 356
219 357
219 359
219 360
219 361
219 362
219 363
219 364
219 365
219 368
219 373
219 374
219 379
219 380
219 381
219 382
219 383
219 384
219 386
219 387
219 391
219 392
219 396
219 398
219 407
219 412
219 414
219 416
219 417
219 418
219 419
219 420
219 421
219 422
219 423
219 424
219 425
219 426
219 427
219 428
219 429
219 430
219 432
219 433
219 434
219 435
219 436
219 437
219 438
219 439
219 440
219 441
219 442
219 443
219 445
219 446
219 447
219 448
219 449
219 450
219 454
219 457
219 460
219 463
219 465
219 466
219 467
219 468
219 469
219 470
219 471
219 472
219 473
219 474
219 477
219 480
219 484
219 489
219 491
219 496
219 514
219 517
220 221
220 222
220 223
220 224
220 225
220 226
220 227
220 228
220 229
220 230
220 231
220 232
220 234
220 235
220 236
220 237
220 238
220 239
220 240
220 241
220 251
220 253
220 258
220 262
220 266
220 270
220 272
220 273
220 274
220 275
220 278
220 282
220 287
220 295
220 297
220 298
220 300
220 305
220 311
220 315
220 317
220 325
220 327
220 334
220 337
220 339
220 340
220 341
220 342
220 343
220 344
220 345
220 346
220 347
220 353
220 358
220 360
220 361
220 362
220 363
220 364
220 365
220 368
220 372
220 374
220 375
220 376
220 377
220 378
220 380
220 381
220 382
220 383
220 384
220 385
220 387
220 388
220 389
220 390
220 391
220 392
220 393
220 396
220 398
220 407
220 412
220 414
220 415
220 417
220 418
220 419
220 420
220 421
220 422
220 423
220 424
220 425
220 426
220 427
220 428
220 429
220 430
220 431
220 434
220 435
220 437
220 438
220 440
220 441
220 443
220 444
220 454
220 457
220 460
220 463
220 464
220 466
220 467
220 468
220 469
220 470
220 471
220 472
220 473
220 474
220 477
220 480
220 484
220 489
220 491
220 496
220 514
220 517
221 222
221 223
221 224
221 225
221 226
221 227
221 228
221 229
221 230
221 231
221 232
221 233
221 234
221 237
221 238
221 239
221 242
221 243
221 244
221 245
221 246
221 247
221 248
221 249
221 250
221 251
221 252
221 253
221 258
221 262
221 266
221 270
221 271
221 272
221 278
221 283
221 284
221 285
221 286
221 287
221 288
221 289
221 290
221 291
221 292
221 293
221 294
221 295
221 297
221 298
221 300
221 303
221 304
221 306
221 307
221 308
221 309
221 310
221 311
221 312
221 313
221 314
221 316
221 317
221 318
221 319
221 320
221 321
221 322
221 323
221 325
221 327
221 334
221 337
221 338
221 341
221 342
221 347
221 353
221 358
221 359
221 360
221 361
221 362
221 363
221 368
221 373
221 374
221 378
221 379
221 386
221 387
221 391
221 392
221 394
221 395
221 397
221 398
221 399
221 400
221 401
221 402
221 403
221 404
221 407
221 412
221 415
221 416
221 419
221 420
221 423
221 424
221 427
221 428
221 431
221 434
221 435
221 437
221 438
221 440
221 441
221 443
221 444
221 454
221 457
221 460
221 463
221 464
221 465
221 470
221 471
221 475
221 476
221 478
221 479
221 480
221 481
221 484
221 489
221 492
221 493
221 494
221 495
221 496
221 497
221 498
221 499
221 500
221 501
221 502
221 503
221 504
221 505
221 506
221 507
221 508
221 509
221 510
221 511
221 512
221 513
221 515
221 516
221 517
221 518
222 223
222 224
222 225
222 226
222 227
222 228
222 229
222 230
222 231
222 232
222 233
222 235
222 236
222 237
222 238
222 239
222 240
222 241
222 251
222 253
222 258
222 262
222 266
222 270
222 271
222 273
222 274
222 275
222 276
222 277
222 279
222 280
222 281
222 282
222 287
222 295
222 296
222 298
222 299
222 300
222 301
222 302
222 305
222 311
222 315
222 317
222 325
222 327
222 334
222 337
222 338
222 341
222 342
222 347
222 353
222 358
222 359
222 361
222 362
222 363
222 364
222 365
222 366
222 367
222 369
222 370
222 371
222 372
222 373
222 375
222 376
222 377
222 378
222 379
222 385
222 386
222 388
222 389
222 390
222 391
222 392
222 393
222 396
222 398
222 405
222 406
222 408
222 409
222 410
222 411
222 412
222 413
222 415
222 416
222 419
222 420
222 423
222 424
222 427
222 428
222 431
222 432
222 433
222 435
222 436
222 437
222 438
222 439
222 440
222 441
222 442
222 443
222 444
222 451
222 452
222 453
222 455
222 456
222 457
222 458
222 459
222 460
222 461
222 462
222 463
222 464
222 465
222 470
222 471
222 477
222 480
222 482
222 483
222 485
222 486
222 487
222 488
222 489
222 490
222 491
222 492
222 493
222 494
222 495
222 497
222 498
222 499
222 500
222 501
222 502
222 503
222 504
222 505
222 506
222 507
222 508
222 509
222 510
222 511
222 514
222 517
223 224
223 225
223 226
223 227
223 228
223 229
223 230
223 231
223 232
223 233
223 234
223 237
223 238
223 239
223 241
223 251
223 253
223 254
223 255
223 256
223 257
223 259
223 260
223 261
223 262
223 263
223 264
223 265
223 266
223 267
223 268
223 269
223 270
223 271
223 272
223 278
223 282
223 287
223 295
223 296
223 297
223 299
223 300
223 301
223 302
223 305
223 311
223 315
223 317
223 324
223 326
223 327
223 328
223 329
223 330
223 331
223 332
223 333
223 334
223 335
223 336
223 337
223 338
223 339
223 340
223 342
223 343
223 344
223 345
223 346
223 347
223 353
223 358
223 359
223 360
223 362
223 363
223 364
223 365
223 368
223 373
223 374
223 378
223 379
223 386
223 387
223 391
223 392
223 394
223 395
223 396
223 397
223 399
223 400
223 401
223 402
223 403
223 404
223 407
223 412
223 414
223 415
223 416
223 417
223 418
223 420
223 421
223 422
223 423
223 424
223 425
223 426
223 427
223 428
223 429
223 430
223 431
223 432
223 433
223 434
223 436
223 437
223 438
223 439
223 440
223 441
223 442
223 443
223 444
223 454
223 457
223 460
223 463
223 464
223 465
223 470
223 471
223 477
223 480
223 484
223 489
223 491
223 496
223 514
223 517
224 225
224 226
224 227
224 228
224 229
224 230
224 231
224 232
224 233
224 234
224 237
224 238
224 239
224 241
224 251
224 253
224 258
224 262
224 266
224 270
224 271
224 272
224 278
224 282
224 287
224 295
224 297
224 298
224 300
224 305
224 311
224 313
224 314
224 315
224 316
224 318
224 319
224 320
224 321
224 322
224 323
224 324
224 325
224 326
224 328
224 329
224 330
224 331
224 332
224 333
224 334
224 335
224 336
224 337
224 338
224 339
224 340
224 341
224 343
224 344
224 345
224 346
224 347
224 353
224 358
224 359
224 360
224 361
224 363
224 364
224 365
224 368
224 373
224 374
224 378
224 379
224 386
224 387
224 391
224 392
224 396
224 398
224 407
224 412
224 414
224 415
224 416
224 417
224 418
224 419
224 421
224 422
224 423
224 424
224 425
224 426
224 427
224 428
224 429
224 430
224 431
224 434
224 435
224 437
224 438
224 440
224 441
224 443
224 444
224 454
224 457
224 460
224 463
224 464
224 465
224 470
224 471
224 477
224 480
224 484
224 489
224 491
224 496
224 514
224 517
225 226
225 227
225 228
225 229
225 230
225 231
225 232
225 233
225 234
225 237
225 238
225 239
225 241
225 251
225 253
225 258
225 262
225 266
225 270
225 271
225 272
225 278
225 282
225 283
225 284
225 285
225 286
225 288
225 289
225 290
225 291
225 292
225 293
225 294
225 295
225 296
225 297
225 298
225 299
225 301
225 302
225 305
225 311
225 315
225 317
225 324
225 325
225 326
225 327
225 328
225 329
225 330
225 331
225 332
225 333
225 335
225 336
225 337
225 338
225 341
225 342
225 347
225 353
225 358
225 359
225 360
225 361
225 362
225 364
225 365
225 368
225 373
225 374
225 378
225 379
225 386
225 387
225 391
225 392
225 396
225 398
225 407
225 412
225 415
225 416
225 419
225 420
225 423
225 424
225 427
225 428
225 431
225 432
225 433
225 434
225 435
225 436
225 438
225 439
225 440
225 441
225 442
225 443
225 444
225 451
225 452
225 453
225 454
225 455
225 456
225 458
225 459
225 460
225 461
225 462
225 463
225 464
225 465
225 470
225 471
225 477
225 480
225 484
225 489
225 491
225 496
225 514
225 517
226 227
226 228
226 229
226 230
226 231
226 232
226 233
226 234
226 235
226 236
226 238
226 239
226 240
226 241
226 251
226 253
226 254
226 255
226 256
226 257
226 258
226 259
226 260
226 261
226 263
226 264
226 265
226 266
226 267
226 268
226 269
226 270
226 271
226 272
226 278
226 282
226 287
226 295
226 297
226 298
226 300
226 305
226 311
226 315
226 317
226 325
226 327
226 334
226 337
226 338
226 341
226 342
226 347
226 348
226 349
226 350
226 351
226 352
226 354
226 355
226 356
226 357
226 358
226 359
226 360
226 361
226 362
226 363
226 368
226 373
226 374
226 378
226 379
226 386
226 387
226 391
226 392
226 396
226 398
226 407
226 412
226 414
226 415
226 416
226 417
226 418
226 419
226 420
226 421
226 422
226 424
226 425
226 426
226 427
226 428
226 429
226 430
226 431
226 432
226 433
226 434
226 435
226 436
226 437
226 439
226 440
226 441
226 442
226 443
226 444
226 454
226 457
226 460
226 463
226 464
226 465
226 466
226 467
226 468
226 469
226 471
226 472
226 473
226 474
226 477
226 480
226 484
226 489
226 491
226 496
226 514
226 517
227 228
227 229
227 230
227 231
227 232
227 233
227 234
227 235
227 236
227 237
227 239
227 240
227 241
227 251
227 253
227 258
227 262
227 266
227 270
227 271
227 272
227 278
227 282
227 287
227 295
227 297
227 298
227 300
227 303
227 304
227 305
227 306
227 307
227 308
227 309
227 310
227 312
227 315
227 317
227 325
227 327
227 334
227 337
227 338
227 341
227 342
227 347
227 353
227 358
227 359
227 360
227 361
227 362
227 363
227 368
227 373
227 374
227 378
227 379
227 385
227 386
227 387
227 388
227 389
227 390
227 392
227 393
227 396
227 398
227 407
227 412
227 414
227 415
227 416
227 417
227 418
227 419
227 420
227 421
227 422
227 423
227 425
227 426
227 427
227 428
227 429
227 430
227 431
227 434
227 435
227 437
227 438
227 440
227 441
227 443
227 444
227 454
227 457
227 460
227 463
227 464
227 465
227 466
227 467
227 468
227 469
227 470
227 472
227 473
227 474
227 477
227 480
227 484
227 489
227 491
227 496
227 514
227 517
228 229
228 230
228 231
228 232
228 233
228 234
228 235
228 236
228 237
228 238
228 240
228 241
228 242
228 243
228 244
228 245
228 246
228 247
228 248
228 249
228 250
228 252
228 253
228 258
228 262
228 266
228 270
228 271
228 272
228 278
228 282
228 287
228 295
228 297
228 298
228 300
228 305
228 311
228 315
228 317
228 325
228 327
228 334
228 337
228 338
228 341
228 342
228 347
228 353
228 358
228 359
228 360
228 361
228 362
228 363
228 368
228 373
228 374
228 378
228 379
228 385
228 386
228 387
228 388
228 389
228 390
228 391
228 393
228 396
228 398
228 405
228 406
228 407
228 408
228 409
228 410
228 411
228 413
228 415
228 416
228 419
228 420
228 423
228 424
228 427
228 428
228 431
228 432
228 433
228 434
228 435
228 436
228 437
228 438
228 439
228 441
228 442
228 443
228 444
228 451
228 452
228 453
228 454
228 455
228 456
228 457
228 458
228 459
228 461
228 462
228 463
228 464
228 465
228 470
228 471
228 477
228 480
228 482
228 483
228 484
228 485
228 486
228 487
228 488
228 490
228 491
228 496
228 514
228 517
229 230
229 231
229 232
229 233
229 234
229 237
229 238
229 239
229 241
229 251
229 253
229 254
229 255
229 256
229 257
229 258
229 259
229 260
229 261
229 262
229 263
229 264
229 265
229 267
229 268
229 269
229 270
229 271
229 272
229 278
229 282
229 287
229 295
229 297
229 298
229 300
229 305
229 311
229 315
229 317
229 325
229 327
229 334
229 337
229 338
229 341
229 342
229 347
229 353
229 358
229 359
229 360
229 361
229 362
229 363
229 368
229 373
229 374
229 378
229 379
229 386
229 387
229 391
229 392
229 396
229 398
229 407
229 412
229 414
229 415
229 416
229 417
229 418
229 419
229 420
229 421
229 422
229 423
229 424
229 425
229 426
229 428
229 429
229 430
229 431
229 432
229 433
229 434
229 435
229 436
229 437
229 438
229 439
229 440
229 442
229 443
229 444
229 454
229 457
229 460
229 463
229 464
229 465
229 470
229 471
229 477
229 480
229 484
229 489
229 491
229 496
229 512
229 513
229 514
229 515
229 516
229 518
230 231
230 232
230 233
230 234
230 237
230 238
230 239
230 241
230 251
230 253
230 258
230 262
230 266
230 270
230 271
230 272
230 278
230 282
230 287
230 295
230 297
230 298
230 300
230 305
230 311
230 315
230 317
230 325
230 327
230 334
230 337
230 338
230 341
230 342
230 347
230 353
230 358
230 359
230 360
230 361
230 362
230 363
230 368
230 373
230 374
230 378
230 379
230 386
230 387
230 391
230 392
230 396
230 398
230 407
230 412
230 414
230 415
230 416
230 417
230 418
230 419
230 420
230 421
230 422
230 423
230 424
230 425
230 426
230 427
230 429
230 430
230 431
230 434
230 435
230 437
230 438
230 440
230 441
230 443
230 444
230 454
230 457
230 460
230 463
230 464
230 465
230 470
230 471
230 475
230 476
230 477
230 478
230 479
230 481
230 484
230 489
230 491
230 496
230 514
230 517
231 232
231 233
231 234
231 237
231 238
231 239
231 241
231 251
231 253
231 258
231 262
231 266
231 270
231 271
231 272
231 278
231 282
231 287
231 295
231 297
231 298
231 300
231 305
231 311
231 315
231 317
231 325
231 327
231 334
231 337
231 338
231 341
231 342
231 347
231 353
231 358
231 359
231 360
231 361
231 362
231 363
231 368
231 373
231 374
231 378
231 379
231 386
231 387
231 391
231 392
231 396
231 398
231 407
231 412
231 415
231 416
231 419
231 420
231 423
231 424
231 427
231 428
231 431
231 432
231 433
231 434
231 435
231 436
231 437
231 438
231 439
231 440
231 441
231 442
231 444
231 451
231 452
231 453
231 454
231 455
231 456
231 457
231 458
231 459
231 460
231 461
231 462
231 464
231 465
231 470
231 471
231 477
231 480
231 484
231 489
231 491
231 496
231 514
231 517
232 233
232 234
232 235
232 236
232 237
232 238
232 239
232 240
232 246
232 251
232 254
232 255
232 256
232 257
232 258
232 259
232 260
232 261
232 262
232 263
232 264
232 265
232 266
232 267
232 268
232 269
232 271
232 272
232 273
232 274
232 275
232 278
232 279
232 288
232 294
232 296
232 297
232 298
232 299
232 300
232 301
232 302
232 309
232 311
232 318
232 323
232 329
232 335
232 338
232 339
232 340
232 341
232 342
232 343
232 344
232 345
232 346
232 348
232 349
232 350
232 351
232 352
232 353
232 354
232 355
232 356
232 357
232 359
232 360
232 361
232 362
232 363
232 364
232 365
232 368
232 369
232 373
232 374
232 375
232 379
232 380
232 381
232 382
232 383
232 384
232 386
232 387
232 389
232 391
232 392
232 393
232 399
232 404
232 407
232 409
232 412
232 413
232 414
232 416
232 417
232 418
232 419
232 420
232 421
232 422
232 423
232 424
232 425
232 426
232 427
232 428
232 429
232 430
232 432
232 433
232 434
232 435
232 436
232 437
232 438
232 439
232 440
232 441
232 442
232 443
232 445
232 446
232 447
232 448
232 449
232 450
232 454
232 460
232 465
232 466
232 467
232 468
232 469
232 470
232 471
232 472
232 473
232 474
232 479
232 484
232 486
232 489
232 490
232 496
232 497
232 516
233 234
233 235
233 236
233 237
233 238
233 239
233 240
233 246
233 251
233 253
233 262
233 270
233 272
233 273
233 274
233 275
233 278
233 279
233 288
233 294
233 295
233 297
233 309
233 311
233 318
233 323
233 329
233 335
233 337
233 339
233 340
233 341
233 342
233 343
233 344
233 345
233 346
233 347
233 352
233 353
233 357
233 358
233 360
233 361
233 362
233 363
233 364
233 365
233 368
233 369
233 372
233 374
233 375
233 376
233 377
233 378
233 380
233 381
233 382
233 383
233 384
233 385
233 387
233 388
233 389
233 390
233 391
233 392
233 393
233 399
233 404
233 407
233 409
233 412
233 413
233 414
233 415
233 417
233 418
233 419
233 420
233 421
233 422
233 423
233 424
233 425
233 426
233 427
233 428
233 429
233 430
233 431
233 434
233 438
233 440
233 444
233 448
233 454
233 460
233 464
233 466
233 467
233 468
233 469
233 470
233 471
233 472
233 473
233 474
233 479
233 484
233 486
233 489
233 490
233 496
233 497
233 516
234 235
234 236
234 237
234 238
234 239
234 240
234 246
234 251
234 253
234 262
234 270
234 271
234 273
234 274
234 275
234 276
234 277
234 279
234 280
234 281
234 288
234 294
234 295
234 296
234 298
234 299
234 300
234 301
234 302
234 309
234 311
234 318
234 323
234 329
234 335
234 337
234 338
234 347
234 352
234 353
234 357
234 358
234 359
234 361
234 362
234 363
234 364
234 365
234 366
234 367
234 369
234 370
234 371
234 372
234 373
234 375
234 376
234 377
234 378
234 379
234 382
234 385
234 386
234 388
234 389
234 390
234 391
234 392
234 393
234 399
234 404
234 405
234 406
234 408
234 409
234 410
234 411
234 412
234 413
234 415
234 416
234 423
234 424
234 431
234 432
234 433
234 435
234 436
234 437
234 438
234 439
234 440
234 441
234 442
234 443
234 444
234 448
234 451
234 452
234 453
234 455
234 456
234 457
234 458
234 459
234 460
234 461
234 462
234 463
234 464
234 465
234 469
234 470
234 471
234 474
234 479
234 482
234 483
234 485
234 486
234 487
234 488
234 489
234 490
234 491
234 492
234 493
234 494
234 495
234 497
234 498
234 499
234 500
234 501
234 502
234 503
234 504
234 505
234 506
234 507
234 508
234 509
234 510
234 511
234 516
235 236
235 237
235 238
235 239
235 240
235 241
235 242
235 243
235 244
235 245
235 247
235 248
235 249
235 250
235 251
235 252
235 253
235 262
235 270
235 271
235 272
235 273
235 278
235 279
235 288
235 294
235 295
235 297
235 303
235 304
235 305
235 306
235 307
235 308
235 310
235 311
235 312
235 318
235 323
235 324
235 325
235 326
235 327
235 328
235 330
235 331
235 332
235 333
235 334
235 335
235 336
235 337
235 338
235 347
235 352
235 353
235 357
235 358
235 359
235 360
235 368
235 369
235 373
235 374
235 375
235 378
235 379
235 382
235 386
235 387
235 389
235 391
235 392
235 393
235 399
235 404
235 407
235 409
235 412
235 413
235 415
235 416
235 423
235 424
235 431
235 434
235 438
235 440
235 444
235 448
235 454
235 460
235 464
235 465
235 469
235 470
235 471
235 474
235 479
235 484
235 486
235 489
235 490
235 491
235 492
235 493
235 494
235 495
235 496
235 498
235 499
235 500
235 501
235 502
235 503
235 504
235 505
235 506
235 507
235 508
235 509
235 510
235 511
235 516
236 237
236 238
236 239
236 240
236 246
236 251
236 253
236 262
236 270
236 271
236 272
236 274
236 275
236 276
236 277
236 278
236 280
236 281
236 282
236 283
236 284
236 285
236 286
236 287
236 289
236 290
236 291
236 292
236 293
236 294
236 295
236 297
236 309
236 311
236 313
236 314
236 315
236 316
236 317
236 319
236 320
236 321
236 322
236 323
236 329
236 335
236 337
236 338
236 347
236 348
236 349
236 350
236 351
236 353
236 354
236 355
236 356
236 357
236 358
236 359
236 360
236 366
236 367
236 368
236 370
236 371
236 372
236 373
236 374
236 376
236 377
236 378
236 379
236 380
236 381
236 383
236 384
236 385
236 386
236 387
236 388
236 390
236 391
236 392
236 393
236 394
236 395
236 396
236 397
236 398
236 400
236 401
236 402
236 403
236 404
236 405
236 406
236 407
236 408
236 410
236 411
236 412
236 413
236 415
236 416
236 423
236 424
236 431
236 434
236 438
236 440
236 444
236 445
236 446
236 447
236 449
236 450
236 454
236 460
236 464
236 465
236 466
236 467
236 468
236 470
236 471
236 472
236 473
236 474
236 475
236 476
236 477
236 478
236 480
236 481
236 482
236 483
236 484
236 485
236 487
236 488
236 489
236 490
236 496
236 497
236 512
236 513
236 514
236 515
236 517
236 518
237 238
237 239
237 240
237 246
237 251
237 253
237 254
237 255
237 256
237 257
237 258
237 259
237 260
237 261
237 263
237 264
237 265
237 266
237 267
237 268
237 269
237 270
237 271
237 272
237 273
237 278
237 279
237 288
237 294
237 295
237 297
237 309
237 311
237 318
237 323
237 329
237 335
237 337
237 338
237 347
237 348
237 349
237 350
237 351
237 352
237 354
237 355
237 356
237 357
237 358
237 359
237 360
237 368
237 369
237 373
237 374
237 375
237 378
237 379
237 382
237 386
237 387
237 389
237 391
237 392
237 393
237 399
237 404
237 407
237 409
237 412
237 413
237 414
237 415
237 416
237 417
237 418
237 419
237 420
237 421
237 422
237 424
237 425
237 426
237 427
237 428
237 429
237 430
237 431
237 432
237 433
237 434
237 435
237 436
237 437
237 439
237 440
237 441
237 442
237 443
237 444
237 448
237 454
237 460
237 464
237 465
237 466
237 467
237 468
237 469
237 471
237 472
237 473
237 474
237 479
237 484
237 486
237 489
237 490
237 496
237 497
237 516
238 239
238 240
238 246
238 251
238 253
238 262
238 270
238 271
238 272
238 273
238 278
238 279
238 288
238 294
238 295
238 297
238 303
238 304
238 305
238 306
238 307
238 308
238 309
238 310
238 312
238 318
238 323
238 329
238 335
238 337
238 338
238 347
238 352
238 353
238 357
238 358
238 359
238 360
238 368
238 369
238 373
238 374
238 375
238 378
238 379
238 382
238 385
238 386
238 387
238 388
238 389
238 390
238 392
238 393
238 399
238 404
238 407
238 409
238 412
238 413
238 414
238 415
238 416
238 417
238 418
238 419
238 420
238 421
238 422
238 423
238 425
238 426
238 427
238 428
238 429
238 430
238 431
238 434
238 438
238 440
238 444
238 448
238 454
238 460
238 464
238 465
238 466
238 467
238 468
238 469
238 470
238 472
238 473
238 474
238 479
238 484
238 486
238 489
238 490
238 496
238 497
238 516
239 240
239 241
239 242
239 243
239 244
239 245
239 246
239 247
239 248
239 249
239 250
239 252
239 253
239 262
239 270
239 271
239 272
239 273
239 278
239 279
239 288
239 294
239 295
239 297
239 309
239 311
239 318
239 323
239 329
239 335
239 337
239 338
239 347
239 352
239 353
239 357
239 358
239 359
239 360
239 368
239 369
239 373
239 374
239 375
239 378
239 379
239 382
239 385
239 386
239 387
239 388
239 389
239 390
239 391
239 393
239 399
239 404
239 405
239 406
239 407
239 408
239 409
239 410
239 411
239 413
239 415
239 416
239 423
239 424
239 431
239 432
239 433
239 434
239 435
239 436
239 437
239 438
239 439
239 441
239 442
239 443
239 444
239 448
239 451
239 452
239 453
239 454
239 455
239 456
239 457
239 458
239 459
239 461
239 462
239 463
239 464
239 465
239 469
239 470
239 471
239 474
239 479
239 482
239 483
239 484
239 485
239 486
239 487
239 488
239 490
239 496
239 497
239 516
240 246
240 251
240 253
240 262
240 270
240 271
240 272
240 273
240 278
240 279
240 282
240 283
240 284
240 285
240 286
240 287
240 288
240 289
240 290
240 291
240 292
240 293
240 295
240 297
240 309
240 311
240 313
240 314
240 315
240 316
240 317
240 318
240 319
240 320
240 321
240 322
240 324
240 325
240 326
240 327
240 328
240 329
240 330
240 331
240 332
240 333
240 334
240 336
240 337
240 338
240 347
240 348
240 349
240 350
240 351
240 352
240 353
240 354
240 355
240 356
240 358
240 359
240 360
240 368
240 369
240 373
240 374
240 375
240 378
240 379
240 382
240 385
240 386
240 387
240 388
240 389
240 390
240 391
240 392
240 394
240 395
240 396
240 397
240 398
240 399
240 400
240 401
240 402
240 403
240 405
240 406
240 407
240 408
240 409
240 410
240 411
240 412
240 415
240 416
240 423
240 424
240 431
240 434
240 438
240 440
240 444
240 448
240 454
240 460
240 464
240 465
240 466
240 467
240 468
240 469
240 470
240 471
240 472
240 473
240 479
240 482
240 483
240 484
240 485
240 486
240 487
240 488
240 489
240 496
240 497
240 516
241 242
241 243
241 244
241 245
241 246
241 247
241 248
241 249
241 250
241 251
241 252
241 256
241 257
241 260
241 261
241 275
241 281
241 283
241 284
241 285
241 286
241 287
241 288
241 289
241 290
241 291
241 292
241 293
241 294
241 302
241 303
241 304
241 306
241 307
241 308
241 309
241 310
241 311
241 312
241 313
241 314
241 316
241 317
241 318
241 319
241 320
241 321
241 322
241 323
241 329
241 330
241 331
241 332
241 333
241 336
241 339
241 340
241 343
241 344
241 346
241 349
241 350
241 365
241 371
241 377
241 380
241 381
241 384
241 388
241 392
241 394
241 395
241 397
241 398
241 399
241 400
241 401
241 402
241 403
241 404
241 408
241 412
241 417
241 418
241 421
241 422
241 433
241 440
241 446
241 447
241 450
241 453
241 460
241 466
241 467
241 475
241 476
241 478
241 479
241 480
241 481
241 485
241 489
241 492
241 493
241 494
241 495
241 496
241 497
241 498
241 499
241 500
241 501
241 502
241 503
241 504
241 505
241 506
241 507
241 508
241 509
241 510
241 511
241 512
241 513
241 515
241 516
241 517
241 518
242 243
242 244
242 245
242 246
242 247
242 248
242 249
242 250
242 251
242 252
242 253
242 254
242 255
242 257
242 258
242 259
242 260
242 261
242 262
242 263
242 264
242 265
242 266
242 267
242 268
242 269
242 275
242 281
242 282
242 284
242 285
242 286
242 287
242 288
242 289
242 290
242 291
242 292
242 293
242 294
242 302
242 305
242 306
242 309
242 310
242 312
242 315
242 316
242 329
242 330
242 331
242 332
242 333
242 336
242 337
242 338
242 340
242 341
242 342
242 343
242 344
242 345
242 346
242 347
242 348
242 350
242 351
242 352
242 353
242 354
242 355
242 356
242 357
242 365
242 371
242 377
242 378
242 379
242 381
242 382
242 383
242 384
242 388
242 392
242 396
242 397
242 408
242 412
242 414
242 415
242 416
242 418
242 419
242 420
242 421
242 422
242 423
242 424
242 425
242 426
242 427
242 428
242 429
242 430
242 433
242 440
242 444
242 445
242 447
242 448
242 449
242 450
242 451
242 452
242 454
242 455
242 456
242 457
242 458
242 459
242 460
242 461
242 462
242 463
242 464
242 465
242 467
242 468
242 469
242 470
242 471
242 472
242 473
242 474
242 477
242 478
242 481
242 485
242 489
242 491
242 493
242 494
242 495
242 496
242 497
242 498
242 499
242 500
242 501
242 502
242 503
242 504
242 505
242 506
242 507
242 508
242 509
242 510
242 511
242 514
242 515
242 518
243 244
243 245
243 246
243 247
243 248
243 249
243 250
243 251
243 252
243 256
243 257
243 260
243 261
243 275
243 281
243 282
243 283
243 285
243 286
243 287
243 288
243 289
243 290
243 291
243 292
243 293
243 294
243 302
243 305
243 306
243 309
243 310
243 312
243 315
243 316
243 329
243 330
243 331
243 332
243 333
243 336
243 339
243 340
243 343
243 344
243 346
243 349
243 350
243 365
243 371
243 377
243 380
243 381
243 384
243 388
243 392
243 394
243 395
243 396
243 398
243 399
243 400
243 401
243 402
243 403
243 404
243 408
243 412
243 417
243 418
243 421
243 422
243 431
243 432
243 434
243 435
243 436
243 437
243 438
243 439
243 440
243 441
243 442
243 443
243 446
243 447
243 450
243 453
243 460
243 466
243 467
243 477
243 478
243 481
243 485
243 489
243 491
243 492
243 494
243 495
243 496
243 497
243 498
243 499
243 500
243 501
243 502
243 503
243 504
243 505
243 506
243 507
243 508
243 509
243 510
243 511
243 512
243 513
243 514
243 516
243 517
243 518
244 245
244 246
244 247
244 248
244 249
244 250
244 251
244 252
244 256
244 257
244 260
244 261
244 275
244 281
244 282
244 283
244 284
244 286
244 287
244 288
244 289
244 290
244 291
244 292
244 293
244 294
244 302
244 305
244 306
244 309
244 310
244 312
244 315
244 316
244 329
244 330
244 331
244 332
244 333
244 336
244 337
244 338
244 339
244 341
244 342
244 343
244 344
244 345
244 346
244 349
244 350
244 365
244 371
244 377
244 378
244 379
244 380
244 382
244 383
244 384
244 388
244 392
244 396
244 397
244 408
244 412
244 414
244 415
244 416
244 417
244 419
244 420
244 421
244 422
244 423
244 424
244 425
244 426
244 427
244 428
244 429
244 430
244 433
244 440
244 446
244 447
244 450
244 453
244 460
244 464
244 465
244 466
244 468
244 469
244 470
244 471
244 472
244 473
244 474
244 477
244 478
244 481
244 485
244 489
244 491
244 492
244 493
244 495
244 496
244 497
244 498
244 499
244 500
244 501
244 502
244 503
244 504
244 505
244 506
244 507
244 508
244 509
244 510
244 511
244 514
244 515
244 518
245 246
245 247
245 248
245 249
245 250
245 251
245 252
245 253
245 254
245 255
245 256
245 258
245 259
245 260
245 261
245 262
245 263
245 264
245 265
245 266
245 267
245 268
245 269
245 275
245 281
245 282
245 283
245 284
245 285
245 287
245 288
245 289
245 290
245 291
245 292
245 293
245 294
245 302
245 303
245 304
245 305
245 307
245 308
245 309
245 310
245 311
245 312
245 313
245 314
245 315
245 317
245 318
245 319
245 320
245 321
245 322
245 323
245 329
245 330
245 331
245 332
245 333
245 336
245 339
245 340
245 343
245 344
245 346
245 347
245 348
245 349
245 351
245 352
245 353
245 354
245 355
245 356
245 357
245 365
245 371
245 377
245 380
245 381
245 384
245 388
245 392
245 396
245 397
245 408
245 412
245 417
245 418
245 421
245 422
245 433
245 440
245 444
245 445
245 446
245 448
245 449
245 450
245 453
245 460
245 466
245 467
245 475
245 476
245 477
245 479
245 480
245 481
245 485
245 489
245 491
245 492
245 493
245 494
245 496
245 497
245 498
245 499
245 500
245 501
245 502
245 503
245 504
245 505
245 506
245 507
245 508
245 509
245 510
245 511
245 514
245 515
245 518
246 247
246 248
246 249
246 250
246 251
246 252
246 256
246 257
246 260
246 261
246 275
246 281
246 282
246 283
246 284
246 285
246 286
246 302
246 303
246 304
246 305
246 306
246 307
246 308
246 310
246 311
246 312
246 315
246 316
246 324
246 325
246 326
246 327
246 328
246 330
246 331
246 332
246 333
246 334
246 335
246 336
246 339
246 340
246 343
246 344
246 346
246 349
246 350
246 365
246 371
246 377
246 380
246 381
246 384
246 388
246 392
246 396
246 397
246 408
246 412
246 417
246 418
246 421
246 422
246 433
246 440
246 446
246 447
246 450
246 453
246 460
246 466
246 467
246 477
246 478
246 481
246 485
246 489
246 491
246 492
246 493
246 494
246 495
246 496
246 498
246 499
246 500
246 501
246 502
246 503
246 504
246 505
246 506
246 507
246 508
246 509
246 510
246 511
246 514
246 515
246 518
247 248
247 249
247 250
247 251
247 252
247 253
247 254
247 255
247 256
247 257
247 258
247 259
247 261
247 262
247 263
247 264
247 265
247 266
247 267
247 268
247 269
247 275
247 281
247 282
247 283
247 284
247 285
247 286
247 302
247 305
247 306
247 309
247 310
247 312
247 315
247 316
247 324
247 325
247 326
247 327
247 328
247 329
247 331
247 332
247 333
247 334
247 335
247 336
247 337
247 338
247 339
247 340
247 341
247 342
247 344
247 345
247 346
247 349
247 350
247 365
247 371
247 377
247 380
247 381
247 384
247 388
247 392
247 396
247 397
247 408
247 412
247 414
247 415
247 416
247 417
247 418
247 419
247 420
247 422
247 423
247 424
247 425
247 426
247 427
247 428
247 429
247 430
247 433
247 440
247 446
247 447
247 450
247 453
247 460
247 466
247 467
247 477
247 478
247 481
247 482
247 483
247 484
247 486
247 487
247 488
247 489
247 490
247 491
247 492
247 493
247 494
247 495
247 496
247 497
247 499
247 500
247 501
247 502
247 503
247 504
247 505
247 506
247 507
247 508
247 509
247 510
247 511
247 514
247 515
247 518
248 249
248 250
248 251
248 252
248 256
248 257
248 260
248 261
248 275
248 281
248 282
248 283
248 284
248 285
248 286
248 302
248 305
248 306
248 309
248 310
248 312
248 315
248 316
248 324
248 325
248 326
248 327
248 328
248 329
248 330
248 332
248 333
248 334
248 335
248 336
248 339
248 340
248 343
248 344
248 346
248 349
248 350
248 365
248 371
248 377
248 380
248 381
248 384
248 388
248 392
248 396
248 397
248 408
248 412
248 417
248 418
248 421
248 422
248 433
248 440
248 446
248 447
248 450
248 453
248 460
248 466
248 467
248 477
248 478
248 481
248 485
248 489
248 491
248 492
248 493
248 494
248 495
248 496
248 497
248 498
248 500
248 501
248 502
248 503
248 504
248 505
248 506
248 507
248 508
248 509
248 510
248 511
248 514
248 515
248 518
249 250
249 251
249 252
249 256
249 257
249 260
249 261
249 275
249 281
249 282
249 283
249 284
249 285
249 286
249 302
249 305
249 306
249 309
249 310
249 312
249 315
249 316
249 324
249 325
249 326
249 327
249 328
249 329
249 330
249 331
249 333
249 334
249 335
249 336
249 337
249 338
249 339
249 340
249 341
249 342
249 343
249 345
249 346
249 349
249 350
249 365
249 371
249 377
249 380
249 381
249 384
249 388
249 392
249 396
249 397
249 405
249 406
249 407
249 409
249 410
249 411
249 412
249 413
249 414
249 415
249 416
249 417
249 418
249 419
249 420
249 421
249 423
249 424
249 425
249 426
249 427
249 428
249 429
249 430
249 433
249 440
249 446
249 447
249 450
249 453
249 460
249 466
249 467
249 477
249 478
249 481
249 485
249 489
249 491
249 492
249 493
249 494
249 495
249 496
249 497
249 498
249 499
249 501
249 502
249 503
249 504
249 505
249 506
249 507
249 508
249 509
249 510
249 511
249 514
249 515
249 518
250 251
250 252
250 253
250 254
250 255
250 256
250 257
250 258
250 259
250 260
250 262
250 263
250 264
250 265
250 266
250 267
250 268
250 269
250 275
250 281
250 282
250 283
250 284
250 285
250 286
250 302
250 303
250 304
250 305
250 306
250 307
250 308
250 309
250 311
250 312
250 315
250 316
250 324
250 325
250 326
250 327
250 328
250 329
250 330
250 331
250 332
250 334
250 335
250 336
250 339
250 340
250 343
250 344
250 346
250 349
250 350
250 365
250 371
250 377
250 380
250 381
250 384
250 385
250 386
250 387
250 389
250 390
250 391
250 392
250 393
250 396
250 397
250 408
250 412
250 417
250 418
250 421
250 422
250 433
250 440
250 446
250 447
250 450
250 453
250 460
250 466
250 467
250 477
250 478
250 481
250 485
250 489
250 491
250 492
250 493
250 494
250 495
250 496
250 497
250 498
250 499
250 500
250 502
250 503
250 504
250 505
250 506
250 507
250 508
250 509
250 510
250 511
250 514
250 515
250 518
251 252
251 256
251 257
251 260
251 261
251 275
251 281
251 282
251 283
251 284
251 285
251 286
251 302
251 305
251 306
251 309
251 310
251 312
251 315
251 316
251 329
251 330
251 331
251 332
251 333
251 336
251 339
251 340
251 343
251 344
251 346
251 349
251 350
251 365
251 371
251 377
251 380
251 381
251 384
251 385
251 386
251 387
251 388
251 389
251 390
251 391
251 393
251 396
251 397
251 405
251 406
251 407
251 408
251 409
251 410
251 411
251 413
251 417
251 418
251 421
251 422
251 431
251 432
251 433
251 434
251 435
251 436
251 437
251 438
251 439
251 441
251 442
251 443
251 446
251 447
251 450
251 451
251 452
251 453
251 454
251 455
251 456
251 457
251 458
251 459
251 461
251 462
251 463
251 466
251 467
251 477
251 478
251 481
251 482
251 483
251 484
251 485
251 486
251 487
251 488
251 490
251 491
251 492
251 493
251 494
251 495
251 497
251 498
251 499
251 500
251 501
251 514
251 515
251 518
252 256
252 257
252 260
252 261
252 270
252 271
252 272
252 273
252 274
252 276
252 277
252 278
252 279
252 280
252 282
252 283
252 284
252 285
252 286
252 295
252 296
252 297
252 298
252 299
252 300
252 301
252 303
252 304
252 305
252 306
252 307
252 308
252 309
252 310
252 311
252 315
252 316
252 324
252 325
252 326
252 327
252 328
252 329
252 330
252 331
252 332
252 333
252 334
252 335
252 337
252 338
252 339
252 340
252 341
252 342
252 343
252 344
252 345
252 349
252 350
252 358
252 359
252 360
252 361
252 362
252 363
252 364
252 366
252 367
252 368
252 369
252 370
252 372
252 373
252 374
252 375
252 376
252 378
252 379
252 380
252 381
252 382
252 383
252 388
252 392
252 396
252 397
252 408
252 412
252 417
252 418
252 421
252 422
252 433
252 440
252 444
252 445
252 446
252 447
252 448
252 449
252 453
252 460
252 466
252 467
252 475
252 476
252 477
252 478
252 479
252 480
252 485
252 489
252 491
252 492
252 493
252 494
252 495
252 497
252 498
252 499
252 500
252 501
252 512
252 513
252 514
252 515
252 516
252 517
253 254
253 255
253 256
253 257
253 258
253 259
253 260
253 261
253 262
253 263
253 264
253 265
253 266
253 267
253 268
253 269
253 271
253 272
253 273
253 274
253 275
253 277
253 283
253 286
253 290
253 293
253 296
253 297
253 298
253 299
253 300
253 301
253 302
253 304
253 306
253 308
253 310
253 314
253 316
253 320
253 322
253 325
253 328
253 330
253 333
253 338
253 339
253 340
253 341
253 342
253 343
253 344
253 345
253 346
253 348
253 349
253 350
253 351
253 352
253 353
253 354
253 355
253 356
253 357
253 359
253 360
253 361
253 362
253 363
253 364
253 365
253 367
253 370
253 372
253 376
253 379
253 380
253 381
253 382
253 383
253 384
253 385
253 388
253 395
253 398
253 406
253 411
253 414
253 416
253 417
253 418
253 419
253 420
253 421
253 422
253 423
253 424
253 425
253 426
253 427
253 428
253 429
253 430
253 432
253 433
253 434
253 435
253 436
253 437
253 438
253 439
253 440
253 441
253 442
253 443
253 445
253 446
253 447
253 448
253 449
253 450
253 452
253 453
253 465
253 466
253 467
253 468
253 469
253 470
253 471
253 472
253 473
253 474
253 476
253 478
253 483
253 485
253 492
253 495
253 498
253 501
253 503
253 506
253 508
253 511
253 513
253 517
254 255
254 256
254 257
254 258
254 259
254 260
254 261
254 262
254 263
254 264
254 265
254 266
254 267
254 268
254 269
254 270
254 277
254 283
254 286
254 290
254 293
254 295
254 296
254 298
254 299
254 304
254 306
254 308
254 310
254 314
254 316
254 320
254 322
254 325
254 328
254 330
254 333
254 337
254 339
254 341
254 343
254 347
254 348
254 349
254 350
254 353
254 354
254 355
254 356
254 358
254 361
254 366
254 368
254 369
254 370
254 371
254 373
254 374
254 375
254 376
254 377
254 378
254 380
254 386
254 387
254 388
254 389
254 390
254 391
254 392
254 393
254 394
254 396
254 397
254 398
254 399
254 400
254 401
254 402
254 403
254 404
254 406
254 411
254 415
254 417
254 419
254 421
254 423
254 425
254 427
254 429
254 431
254 432
254 435
254 436
254 438
254 439
254 441
254 442
254 444
254 445
254 446
254 447
254 451
254 453
254 454
254 455
254 456
254 457
254 458
254 459
254 460
254 461
254 462
254 463
254 464
254 466
254 470
254 472
254 476
254 478
254 482
254 484
254 485
254 486
254 487
254 488
254 489
254 490
254 492
254 495
254 498
254 501
254 503
254 506
254 508
254 511
254 512
254 514
254 515
254 516
254 517
254 518
255 256
255 257
255 258
255 259
255 260
255 261
255 262
255 263
255 264
255 265
255 266
255 267
255 268
255 269
255 270
255 276
255 278
255 279
255 280
255 281
255 283
255 286
255 290
255 293
255 295
255 297
255 298
255 299
255 300
255 301
255 302
255 303
255 305
255 306
255 307
255 308
255 309
255 310
255 311
255 312
255 313
255 315
255 316
255 317
255 318
255 319
255 320
255 321
255 322
255 323
255 325
255 328
255 330
255 333
255 337
255 339
255 341
255 343
255 347
255 349
255 350
255 351
255 352
255 353
255 354
255 355
255 356
255 357
255 358
255 361
255 367
255 370
255 372
255 376
255 378
255 380
255 385
255 388
255 395
255 398
255 405
255 407
255 408
255 409
255 410
255 411
255 412
255 413
255 415
255 417
255 419
255 421
255 423
255 425
255 427
255 429
255 431
255 433
255 434
255 435
255 436
255 437
255 438
255 439
255 440
255 441
255 442
255 443
255 444
255 446
255 447
255 448
255 449
255 450
255 452
255 453
255 464
255 466
255 470
255 472
255 475
255 477
255 478
255 479
255 480
255 481
255 483
255 485
255 492
255 495
255 498
255 501
255 503
255 506
255 508
255 511
255 513
255 517
256 257
256 258
256 259
256 260
256 261
256 262
256 263
256 264
256 265
256 266
256 267
256 268
256 269
256 270
256 277
256 282
256 284
256 285
256 286
256 287
256 288
256 289
256 290
256 291
256 292
256 293
256 294
256 295
256 296
256 298
256 299
256 304
256 306
256 308
256 310
256 314
256 316
256 320
256 322
256 325
256 328
256 330
256 333
256 337
256 338
256 340
256 341
256 342
256 343
256 344
256 345
256 346
256 347
256 348
256 350
256 351
256 352
256 353
256 354
256 355
256 356
256 357
256 358
256 361
256 367
256 370
256 372
256 376
256 378
256 379
256 381
256 382
256 383
256 384
256 385
256 388
256 395
256 398
256 406
256 411
256 414
256 415
256 416
256 418
256 419
256 420
256 421
256 422
256 423
256 424
256 425
256 426
256 427
256 428
256 429
256 430
256 431
256 432
256 435
256 436
256 438
256 439
256 441
256 442
256 444
256 445
256 447
256 448
256 449
256 450
256 451
256 452
256 454
256 455
256 456
256 457
256 458
256 459
256 460
256 461
256 462
256 463
256 464
256 465
256 467
256 468
256 469
256 470
256 471
256 472
256 473
256 474
256 476
256 478
256 483
256 485
256 491
256 493
256 494
256 495
256 496
256 497
256 498
256 499
256 500
256 501
256 502
256 503
256 504
256 505
256 506
256 507
256 508
256 509
256 510
256 511
256 513
256 517
257 258
257 259
257 260
257 261
257 262
257 263
257 264
257 265
257 266
257 267
257 268
257 269
257 270
257 277
257 282
257 283
257 284
257 285
257 287
257 288
257 289
257 290
257 291
257 292
257 293
257 294
257 295
257 296
257 298
257 299
257 303
257 304
257 305
257 307
257 308
257 309
257 310
257 311
257 312
257 313
257 314
257 315
257 317
257 318
257 319
257 320
257 321
257 322
257 323
257 325
257 328
257 330
257 333
257 337
257 339
257 341
257 343
257 347
257 348
257 349
257 351
257 352
257 353
257 354
257 355
257 356
257 357
257 358
257 361
257 367
257 370
257 372
257 376
257 378
257 380
257 385
257 388
257 395
257 398
257 406
257 411
257 415
257 417
257 419
257 421
257 423
257 425
257 427
257 429
257 431
257 432
257 435
257 436
257 438
257 439
257 441
257 442
257 444
257 445
257 446
257 448
257 449
257 450
257 452
257 453
257 464
257 466
257 470
257 472
257 475
257 476
257 477
257 479
257 480
257 481
257 483
257 485
257 491
257 492
257 493
257 494
257 496
257 497
257 498
257 499
257 500
257 501
257 502
257 503
257 504
257 505
257 506
257 507
257 508
257 509
257 510
257 511
257 513
257 517
258 259
258 260
258 261
258 262
258 263
258 264
258 265
258 266
258 267
258 268
258 269
258 270
258 277
258 283
258 286
258 290
258 293
258 295
258 296
258 297
258 299
258 300
258 301
258 302
258 304
258 306
258 308
258 310
258 314
258 316
258 320
258 322
258 324
258 326
258 327
258 328
258 329
258 330
258 331
258 332
258 333
258 334
258 335
258 336
258 337
258 338
258 339
258 340
258 342
258 343
258 344
258 345
258 346
258 347
258 348
258 349
258 350
258 353
258 354
258 355
258 356
258 358
258 359
258 360
258 362
258 363
258 364
258 365
258 367
258 370
258 372
258 376
258 378
258 380
258 385
258 388
258 394
258 395
258 396
258 397
258 399
258 400
258 401
258 402
258 403
258 404
258 406
258 411
258 414
258 415
258 416
258 417
258 418
258 420
258 421
258 422
258 423
258 424
258 425
258 426
258 427
258 428
258 429
258 430
258 431
258 432
258 433
258 434
258 436
258 437
258 438
258 439
258 440
258 441
258 442
258 443
258 444
258 445
258 446
258 447
258 452
258 453
258 464
258 466
258 470
258 472
258 476
258 478
258 483
258 485
258 492
258 495
258 498
258 501
258 503
258 506
258 508
258 511
258 513
258 517
259 260
259 261
259 262
259 263
259 264
259 265
259 266
259 267
259 268
259 269
259 270
259 277
259 283
259 286
259 290
259 293
259 295
259 296
259 297
259 298
259 300
259 301
259 302
259 303
259 304
259 305
259 306
259 307
259 309
259 310
259 311
259 312
259 314
259 316
259 320
259 322
259 324
259 325
259 326
259 327
259 329
259 330
259 331
259 332
259 333
259 334
259 335
259 336
259 337
259 339
259 341
259 343
259 347
259 348
259 349
259 350
259 353
259 354
259 355
259 356
259 358
259 361
259 367
259 370
259 372
259 376
259 378
259 380
259 385
259 388
259 395
259 398
259 406
259 411
259 415
259 417
259 419
259 421
259 423
259 425
259 427
259 429
259 431
259 432
259 433
259 434
259 435
259 437
259 438
259 439
259 440
259 441
259 442
259 443
259 444
259 445
259 446
259 447
259 452
259 453
259 464
259 466
259 470
259 472
259 476
259 478
259 483
259 485
259 492
259 495
259 498
259 501
259 503
259 506
259 508
259 511
259 513
259 517
260 261
260 262
260 263
260 264
260 265
260 266
260 267
260 268
260 269
260 270
260 277
260 283
260 286
260 290
260 293
260 295
260 296
260 298
260 299
260 304
260 306
260 308
260 310
260 314
260 316
260 320
260 322
260 324
260 325
260 326
260 327
260 328
260 329
260 331
260 332
260 333
260 334
260 335
260 336
260 337
260 338
260 339
260 340
260 341
260 342
260 344
260 345
260 346
260 347
260 348
260 349
260 350
260 353
260 354
260 355
260 356
260 358
260 361
260 367
260 370
260 372
260 376
260 378
260 380
260 385
260 388
260 395
260 398
260 406
260 411
260 414
260 415
260 416
260 417
260 418
260 419
260 420
260 422
260 423
260 424
260 425
260 426
260 427
260 428
260 429
260 430
260 431
260 432
260 435
260 436
260 438
260 439
260 441
260 442
260 444
260 445
260 446
260 447
260 452
260 453
260 464
260 466
260 470
260 472
260 476
260 478
260 482
260 483
260 484
260 486
260 487
260 488
260 489
260 490
260 491
260 492
260 493
260 494
260 495
260 496
260 497
260 499
260 500
260 501
260 502
260 503
260 504
260 505
260 506
260 507
260 508
260 509
260 510
260 511
260 513
260 517
261 262
261 263
261 264
261 265
261 266
261 267
261 268
261 269
261 270
261 277
261 283
261 286
261 290
261 293
261 295
261 296
261 298
261 299
261 303
261 304
261 305
261 306
261 307
261 308
261 309
261 311
261 312
261 314
261 316
261 320
261 322
261 324
261 325
261 326
261 327
261 328
261 329
261 330
261 331
261 332
261 334
261 335
261 336
261 337
261 339
261 341
261 343
261 347
261 348
261 349
261 350
261 353
261 354
261 355
261 356
261 358
261 361
261 367
261 370
261 372
261 376
261 378
261 380
261 385
261 386
261 387
261 389
261 390
261 391
261 392
261 393
261 395
261 398
261 406
261 411
261 415
261 417
261 419
261 421
261 423
261 425
261 427
261 429
261 431
261 432
261 435
261 436
261 438
261 439
261 441
261 442
261 444
261 445
261 446
261 447
261 452
261 453
261 464
261 466
261 470
261 472
261 476
261 478
261 483
261 485
261 491
261 492
261 493
261 494
261 495
261 496
261 497
261 498
261 499
261 500
261 502
261 503
261 504
261 505
261 506
261 507
261 508
261 509
261 510
261 511
261 513
261 517
262 263
262 264
262 265
262 266
262 267
262 268
262 269
262 270
262 277
262 283
262 286
262 290
262 293
262 295
262 296
262 298
262 299
262 304
262 306
262 308
262 310
262 314
262 316
262 320
262 322
262 325
262 328
262 330
262 333
262 337
262 339
262 341
262 343
262 347
262 348
262 349
262 350
262 351
262 352
262 354
262 355
262 356
262 357
262 358
262 361
262 367
262 370
262 372
262 376
262 378
262 380
262 385
262 388
262 395
262 398
262 406
262 411
262 414
262 415
262 416
262 417
262 418
262 419
262 420
262 421
262 422
262 424
262 425
262 426
262 427
262 428
262 429
262 430
262 431
262 432
262 433
262 434
262 435
262 436
262 437
262 439
262 440
262 441
262 442
262 443
262 444
262 445
262 446
262 447
262 452
262 453
262 464
262 465
262 466
262 467
262 468
262 469
262 471
262 472
262 473
262 474
262 476
262 478
262 483
262 485
262 492
262 495
262 498
262 501
262 503
262 506
262 508
262 511
262 513
262 517
263 264
263 265
263 266
263 267
263 268
263 269
263 270
263 277
263 283
263 286
263 290
263 293
263 295
263 296
263 298
263 299
263 304
263 306
263 308
263 310
263 313
263 314
263 315
263 316
263 317
263 318
263 319
263 321
263 322
263 323
263 325
263 328
263 330
263 333
263 337
263 339
263 341
263 343
263 347
263 348
263 349
263 350
263 351
263 352
263 353
263 355
263 356
263 357
263 358
263 361
263 367
263 370
263 372
263 376
263 378
263 380
263 385
263 388
263 395
263 398
263 405
263 406
263 407
263 408
263 409
263 410
263 412
263 413
263 415
263 417
263 419
263 421
263 423
263 425
263 427
263 429
263 431
263 432
263 433
263 434
263 435
263 436
263 437
263 438
263 440
263 441
263 442
263 443
263 444
263 445
263 446
263 447
263 452
263 453
263 464
263 466
263 470
263 472
263 476
263 478
263 483
263 485
263 492
263 495
263 498
263 501
263 503
263 506
263 508
263 511
263 513
263 517
264 265
264 266
264 267
264 268
264 269
264 270
264 277
264 282
264 283
264 284
264 285
264 286
264 287
264 288
264 289
264 291
264 292
264 293
264 294
264 295
264 296
264 298
264 299
264 304
264 306
264 308
264 310
264 314
264 316
264 320
264 322
264 325
264 328
264 330
264 333
264 337
264 339
264 341
264 343
264 347
264 348
264 349
264 350
264 351
264 352
264 353
264 354
264 356
264 357
264 358
264 361
264 367
264 370
264 372
264 376
264 378
264 380
264 385
264 388
264 395
264 398
264 406
264 411
264 414
264 415
264 416
264 417
264 418
264 419
264 420
264 421
264 422
264 423
264 424
264 426
264 427
264 428
264 429
264 430
264 431
264 432
264 435
264 436
264 438
264 439
264 441
264 442
264 444
264 445
264 446
264 447
264 452
264 453
264 464
264 465
264 466
264 467
264 468
264 469
264 470
264 471
264 473
264 474
264 476
264 478
264 483
264 485
264 491
264 492
264 493
264 494
264 495
264 496
264 497
264 498
264 499
264 500
264 501
264 502
264 504
264 505
264 506
264 507
264 508
264 509
264 510
264 511
264 513
264 517
265 266
265 267
265 268
265 269
265 270
265 277
265 282
265 283
265 284
265 285
265 286
265 287
265 288
265 289
265 290
265 291
265 292
265 294
265 295
265 296
265 298
265 299
265 304
265 306
265 308
265 310
265 313
265 314
265 315
265 316
265 317
265 318
265 319
265 320
265 321
265 323
265 325
265 328
265 330
265 333
265 337
265 339
265 341
265 343
265 347
265 348
265 349
265 350
265 351
265 352
265 353
265 354
265 355
265 357
265 358
265 361
265 367
265 370
265 372
265 376
265 378
265 380
265 385
265 388
265 395
265 398
265 406
265 411
265 415
265 417
265 419
265 421
265 423
265 425
265 427
265 429
265 431
265 432
265 435
265 436
265 438
265 439
265 441
265 442
265 444
265 445
265 446
265 447
265 452
265 453
265 464
265 466
265 470
265 472
265 476
265 478
265 483
265 485
265 491
265 492
265 493
265 494
265 495
265 496
265 497
265 498
265 499
265 500
265 501
265 502
265 503
265 504
265 505
265 507
265 508
265 509
265 510
265 511
265 513
265 517
266 267
266 268
266 269
266 270
266 277
266 283
266 286
266 290
266 293
266 295
266 296
266 298
266 299
266 304
266 306
266 308
266 310
266 314
266 316
266 320
266 322
266 325
266 328
266 330
266 333
266 337
266 339
266 341
266 343
266 347
266 348
266 349
266 350
266 353
266 354
266 355
266 356
266 358
266 361
266 367
266 370
266 372
266 376
266 378
266 380
266 385
266 388
266 395
266 398
266 406
266 411
266 414
266 415
266 416
266 417
266 418
266 419
266 420
266 421
266 422
266 423
266 424
266 425
266 426
266 428
266 429
266 430
266 431
266 432
266 433
266 434
266 435
266 436
266 437
266 438
266 439
266 440
266 442
266 443
266 444
266 445
266 446
266 447
266 452
266 453
266 464
266 466
266 470
266 472
266 476
266 478
266 483
266 485
266 492
266 495
266 498
266 501
266 503
266 506
266 508
266 511
266 512
266 513
266 514
266 515
266 516
266 518
267 268
267 269
267 270
267 277
267 283
267 286
267 290
267 293
267 295
267 296
267 298
267 299
267 304
267 306
267 308
267 310
267 314
267 316
267 320
267 322
267 325
267 328
267 330
267 333
267 337
267 339
267 341
267 343
267 347
267 348
267 349
267 350
267 353
267 354
267 355
267 356
267 358
267 361
267 367
267 370
267 372
267 376
267 378
267 380
267 385
267 388
267 395
267 398
267 406
267 411
267 415
267 417
267 419
267 421
267 423
267 425
267 427
267 429
267 431
267 432
267 433
267 434
267 435
267 436
267 437
267 438
267 439
267 440
267 441
267 443
267 444
267 445
267 446
267 447
267 452
267 453
267 464
267 466
267 470
267 472
267 476
267 478
267 483
267 485
267 492
267 495
267 498
267 501
267 503
267 506
267 508
267 511
267 513
267 517
268 269
268 270
268 277
268 283
268 286
268 290
268 293
268 295
268 296
268 298
268 299
268 304
268 306
268 308
268 310
268 314
268 316
268 320
268 322
268 325
268 328
268 330
268 333
268 337
268 339
268 341
268 343
268 347
268 348
268 349
268 350
268 353
268 354
268 355
268 356
268 358
268 361
268 366
268 367
268 368
268 369
268 371
268 372
268 376
268 378
268 380
268 385
268 388
268 395
268 398
268 406
268 411
268 414
268 415
268 416
268 417
268 418
268 419
268 420
268 421
268 422
268 423
268 424
268 425
268 426
268 427
268 428
268 430
268 431
268 432
268 435
268 436
268 438
268 439
268 441
268 442
268 444
268 445
268 446
268 447
268 452
268 453
268 464
268 466
268 470
268 472
268 476
268 478
268 483
268 485
268 491
268 492
268 493
268 494
268 495
268 496
268 497
268 498
268 499
268 500
268 501
268 502
268 503
268 504
268 505
268 506
268 507
268 509
268 510
268 511
268 513
268 517
269 270
269 277
269 283
269 286
269 290
269 293
269 295
269 296
269 298
269 299
269 304
269 306
269 308
269 310
269 314
269 316
269 320
269 322
269 325
269 328
269 330
269 333
269 337
269 339
269 341
269 343
269 347
269 348
269 349
269 350
269 353
269 354
269 355
269 356
269 358
269 361
269 367
269 370
269 372
269 373
269 374
269 375
269 377
269 378
269 380
269 385
269 388
269 395
269 398
269 406
269 411
269 415
269 417
269 419
269 421
269 423
269 425
269 427
269 429
269 431
269 432
269 435
269 436
269 438
269 439
269 441
269 442
269 444
269 445
269 446
269 447
269 452
269 453
269 464
269 466
269 470
269 472
269 476
269 478
269 483
269 485
269 491
269 492
269 493
269 494
269 495
269 496
269 497
269 498
269 499
269 500
269 501
269 502
269 503
269 504
269 505
269 506
269 507
269 508
269 509
269 510
269 513
269 517
270 271
270 272
270 273
270 274
270 275
270 278
270 279
270 281
270 288
270 296
270 297
270 298
270 299
270 300
270 301
270 302
270 312
270 318
270 336
270 338
270 339
270 340
270 341
270 342
270 343
270 344
270 345
270 346
270 348
270 349
270 350
270 351
270 352
270 353
270 354
270 355
270 356
270 357
270 359
270 360
270 361
270 362
270 363
270 364
270 365
270 368
270 369
270 371
270 373
270 374
270 375
270 377
270 379
270 380
270 381
270 382
270 383
270 384
270 386
270 387
270 389
270 399
270 407
270 409
270 414
270 416
270 417
270 418
270 419
270 420
270 421
270 422
270 423
270 424
270 425
270 426
270 427
270 428
270 429
270 430
270 432
270 433
270 434
270 435
270 436
270 437
270 438
270 439
270 440
270 441
270 442
270 443
270 445
270 446
270 447
270 448
270 449
270 450
270 454
270 465
270 466
270 467
270 468
270 469
270 470
270 471
270 472
270 473
270 474
270 479
270 481
270 484
270 486
270 496
270 507
270 516
270 518
271 272
271 273
271 274
271 275
271 278
271 279
271 281
271 288
271 295
271 297
271 302
271 312
271 318
271 336
271 337
271 339
271 340
271 341
271 342
271 343
271 344
271 345
271 346
271 347
271 352
271 358
271 360
271 361
271 362
271 363
271 364
271 365
271 368
271 369
271 371
271 372
271 374
271 375
271 376
271 377
271 378
271 380
271 381
271 382
271 383
271 384
271 385
271 387
271 388
271 389
271 390
271 391
271 392
271 393
271 399
271 407
271 409
271 414
271 415
271 417
271 418
271 419
271 420
271 421
271 422
271 423
271 424
271 425
271 426
271 427
271 428
271 429
271 430
271 431
271 434
271 444
271 448
271 450
271 454
271 464
271 466
271 467
271 468
271 469
271 470
271 471
271 472
271 473
271 474
271 479
271 481
271 484
271 486
271 496
271 507
271 516
271 518
272 273
272 274
272 275
272 276
272 277
272 279
272 280
272 281
272 288
272 295
272 296
272 298
272 299
272 300
272 301
272 302
272 312
272 318
272 336
272 337
272 338
272 346
272 347
272 352
272 358
272 359
272 361
272 362
272 363
272 364
272 365
272 366
272 367
272 369
272 370
272 371
272 372
272 373
272 375
272 376
272 377
272 378
272 379
272 382
272 384
272 385
272 386
272 388
272 389
272 390
272 391
272 392
272 393
272 399
272 405
272 406
272 408
272 409
272 410
272 411
272 412
272 413
272 415
272 416
272 431
272 432
272 433
272 435
272 436
272 437
272 438
272 439
272 440
272 441
272 442
272 443
272 444
272 448
272 450
272 451
272 452
272 453
272 455
272 456
272 457
272 458
272 459
272 460
272 461
272 462
272 463
272 464
272 465
272 469
272 479
272 481
272 482
272 483
272 485
272 486
272 487
272 488
272 489
272 490
272 491
272 492
272 493
272 494
272 495
272 497
272 498
272 499
272 500
272 501
272 502
272 503
272 504
272 505
272 506
272 507
272 508
272 509
272 510
272 511
272 516
272 518
273 274
273 275
273 276
273 277
273 278
273 280
273 281
273 282
273 283
273 284
273 285
273 286
273 287
273 289
273 290
273 291
273 292
273 293
273 294
273 295
273 297
273 302
273 312
273 313
273 314
273 315
273 316
273 317
273 319
273 320
273 321
273 322
273 323
273 336
273 337
273 338
273 346
273 347
273 348
273 349
273 350
273 351
273 353
273 354
273 355
273 356
273 357
273 358
273 359
273 360
273 365
273 366
273 367
273 368
273 370
273 371
273 372
273 373
273 374
273 376
273 377
273 378
273 379
273 380
273 381
273 383
273 384
273 385
273 386
273 387
273 388
273 390
273 391
273 392
273 393
273 394
273 395
273 396
273 397
273 398
273 400
273 401
273 402
273 403
273 404
273 405
273 406
273 407
273 408
273 410
273 411
273 412
273 413
273 415
273 416
273 431
273 434
273 444
273 445
273 446
273 447
273 449
273 450
273 454
273 464
273 465
273 466
273 467
273 468
273 470
273 471
273 472
273 473
273 474
273 475
273 476
273 477
273 478
273 480
273 481
273 482
273 483
273 484
273 485
273 487
273 488
273 489
273 490
273 496
273 507
273 512
273 513
273 514
273 515
273 517
273 518
274 275
274 278
274 279
274 281
274 288
274 295
274 297
274 302
274 312
274 318
274 336
274 337
274 338
274 346
274 347
274 352
274 358
274 359
274 360
274 365
274 368
274 369
274 371
274 373
274 374
274 375
274 377
274 378
274 379
274 382
274 384
274 386
274 387
274 389
274 399
274 407
274 409
274 415
274 416
274 431
274 434
274 444
274 448
274 450
274 454
274 464
274 465
274 469
274 479
274 481
274 484
274 486
274 491
274 492
274 493
274 494
274 495
274 496
274 497
274 498
274 499
274 500
274 501
274 502
274 503
274 504
274 505
274 506
274 508
274 509
274 510
274 511
274 516
274 518
275 276
275 277
275 278
275 279
275 280
275 288
275 295
275 296
275 297
275 298
275 299
275 300
275 301
275 303
275 304
275 305
275 306
275 307
275 308
275 309
275 310
275 311
275 318
275 324
275 325
275 326
275 327
275 328
275 329
275 330
275 331
275 332
275 333
275 334
275 335
275 337
275 338
275 339
275 340
275 341
275 342
275 343
275 344
275 345
275 347
275 352
275 358
275 359
275 360
275 361
275 362
275 363
275 364
275 366
275 367
275 368
275 369
275 370
275 372
275 373
275 374
275 375
275 376
275 378
275 379
275 380
275 381
275 382
275 383
275 386
275 387
275 389
275 399
275 407
275 409
275 415
275 416
275 431
275 434
275 444
275 445
275 446
275 447
275 448
275 449
275 454
275 464
275 465
275 469
275 475
275 476
275 477
275 478
275 479
275 480
275 484
275 486
275 496
275 507
275 512
275 513
275 514
275 515
275 516
275 517
276 277
276 278
276 279
276 280
276 281
276 288
276 296
276 297
276 302
276 304
276 305
276 306
276 307
276 308
276 309
276 310
276 311
276 312
276 314
276 315
276 316
276 317
276 318
276 319
276 320
276 321
276 322
276 323
276 336
276 346
276 348
276 352
276 360
276 365
276 367
276 368
276 369
276 370
276 371
276 374
276 375
276 377
276 382
276 384
276 387
276 389
276 395
276 396
276 397
276 398
276 399
276 400
276 401
276 402
276 403
276 404
276 406
276 407
276 408
276 409
276 410
276 411
276 412
276 413
276 415
276 416
276 417
276 418
276 419
276 420
276 421
276 422
276 423
276 424
276 425
276 426
276 427
276 428
276 429
276 430
276 432
276 434
276 445
276 448
276 450
276 452
276 453
276 454
276 455
276 456
276 457
276 458
276 459
276 460
276 461
276 462
276 463
276 469
276 476
276 477
276 478
276 479
276 480
276 481
276 483
276 484
276 485
276 486
276 487
276 488
276 489
276 490
276 496
276 510
276 513
276 514
276 515
276 516
276 517
276 518
277 278
277 279
277 280
277 281
277 288
277 295
277 297
277 298
277 299
277 300
277 301
277 302
277 303
277 305
277 306
277 307
277 308
277 309
277 310
277 311
277 312
277 313
277 315
277 316
277 317
277 318
277 319
277 320
277 321
277 322
277 323
277 336
277 346
277 347
277 349
277 350
277 351
277 352
277 353
277 354
277 355
277 356
277 357
277 360
277 365
277 366
277 368
277 369
277 371
277 374
277 375
277 377
277 382
277 384
277 387
277 389
277 394
277 399
277 405
277 407
277 408
277 409
277 410
277 411
277 412
277 413
277 414
277 430
277 431
277 433
277 434
277 435
277 436
277 437
277 438
277 439
277 440
277 441
277 442
277 443
277 444
277 446
277 447
277 448
277 449
277 450
277 451
277 454
277 469
277 475
277 477
277 478
277 479
277 480
277 481
277 482
277 484
277 486
277 496
277 510
277 512
277 516
277 518
278 279
278 280
278 281
278 288
278 295
278 296
278 298
278 299
278 300
278 301
278 302
278 303
278 304
278 312
278 313
278 314
278 318
278 336
278 346
278 348
278 352
278 358
278 359
278 361
278 362
278 363
278 364
278 365
278 366
278 367
278 369
278 370
278 371
278 372
278 373
278 375
278 376
278 377
278 382
278 384
278 385
278 386
278 388
278 389
278 390
278 391
278 392
278 393
278 394
278 399
278 405
278 406
278 408
278 409
278 410
278 411
278 412
278 413
278 414
278 430
278 431
278 432
278 433
278 435
278 436
278 437
278 438
278 439
278 440
278 441
278 442
278 443
278 445
278 448
278 450
278 451
278 452
278 453
278 455
278 456
278 457
278 458
278 459
278 460
278 461
278 462
278 463
278 469
278 475
278 476
278 479
278 481
278 482
278 483
278 485
278 486
278 487
278 488
278 489
278 490
278 491
278 492
278 493
278 494
278 495
278 497
278 498
278 499
278 500
278 501
278 502
278 503
278 504
278 505
278 506
278 507
278 508
278 509
278 510
278 511
278 512
278 516
278 518
279 280
279 281
279 282
279 283
279 284
279 285
279 286
279 287
279 289
279 290
279 291
279 292
279 293
279 294
279 296
279 297
279 302
279 303
279 304
279 312
279 313
279 314
279 315
279 316
279 317
279 319
279 320
279 321
279 322
279 323
279 336
279 346
279 347
279 348
279 349
279 350
279 351
279 353
279 354
279 355
279 356
279 357
279 360
279 365
279 366
279 367
279 368
279 370
279 371
279 372
279 373
279 374
279 376
279 377
279 378
279 379
279 380
279 381
279 383
279 384
279 385
279 386
279 387
279 388
279 390
279 391
279 392
279 393
279 394
279 395
279 396
279 397
279 398
279 400
279 401
279 402
279 403
279 404
279 405
279 406
279 407
279 408
279 410
279 411
279 412
279 413
279 414
279 430
279 432
279 434
279 444
279 445
279 446
279 447
279 449
279 450
279 451
279 454
279 464
279 465
279 466
279 467
279 468
279 470
279 471
279 472
279 473
279 474
279 475
279 476
279 477
279 478
279 480
279 481
279 482
279 483
279 484
279 485
279 487
279 488
279 489
279 490
279 496
279 510
279 512
279 513
279 514
279 515
279 517
279 518
280 281
280 288
280 296
280 297
280 302
280 303
280 304
280 312
280 313
280 314
280 318
280 336
280 346
280 348
280 352
280 360
280 365
280 366
280 368
280 369
280 371
280 374
280 375
280 377
280 382
280 384
280 387
280 389
280 394
280 399
280 405
280 406
280 407
280 409
280 414
280 415
280 416
280 417
280 418
280 419
280 420
280 421
280 422
280 423
280 424
280 425
280 426
280 427
280 428
280 429
280 432
280 434
280 445
280 448
280 450
280 451
280 454
280 469
280 475
280 476
280 479
280 481
280 482
280 484
280 486
280 491
280 492
280 493
280 494
280 495
280 496
280 497
280 498
280 499
280 500
280 501
280 502
280 503
280 504
280 505
280 506
280 507
280 508
280 509
280 511
280 512
280 516
280 518
281 288
281 295
281 296
281 297
281 298
281 299
281 300
281 301
281 303
281 304
281 305
281 306
281 307
281 308
281 309
281 310
281 311
281 313
281 314
281 318
281 324
281 325
281 326
281 327
281 328
281 329
281 330
281 331
281 332
281 333
281 334
281 335
281 337
281 338
281 339
281 340
281 341
281 342
281 343
281 344
281 345
281 348
281 352
281 358
281 359
281 360
281 361
281 362
281 363
281 364
281 366
281 367
281 368
281 369
281 370
281 372
281 373
281 374
281 375
281 376
281 378
281 379
281 380
281 381
281 382
281 383
281 387
281 389
281 394
281 399
281 405
281 406
281 407
281 409
281 414
281 430
281 432
281 434
281 444
281 445
281 446
281 447
281 448
281 449
281 451
281 454
281 469
281 475
281 476
281 477
281 478
281 479
281 480
281 482
281 484
281 486
281 496
281 510
281 512
281 513
281 514
281 515
281 516
281 517
282 283
282 284
282 285
282 286
282 287
282 288
282 289
282 290
282 291
282 292
282 293
282 294
282 300
282 301
282 303
282 304
282 306
282 307
282 308
282 309
282 310
282 311
282 312
282 313
282 314
282 316
282 317
282 318
282 319
282 320
282 321
282 322
282 323
282 334
282 335
282 339
282 340
282 349
282 350
282 352
282 355
282 356
282 357
282 363
282 364
282 369
282 375
282 380
282 381
282 382
282 389
282 393
282 394
282 395
282 397
282 398
282 399
282 400
282 401
282 402
282 403
282 404
282 409
282 413
282 417
282 418
282 425
282 426
282 433
282 437
282 446
282 447
282 448
282 453
282 457
282 466
282 467
282 469
282 472
282 473
282 474
282 475
282 476
282 478
282 479
282 480
282 481
282 486
282 490
282 492
282 493
282 494
282 495
282 496
282 497
282 498
282 499
282 500
282 501
282 502
282 503
282 504
282 505
282 506
282 507
282 508
282 509
282 510
282 511
282 512
282 513
282 515
282 516
282 517
282 518
283 284
283 285
283 286
283 287
283 288
283 289
283 290
283 291
283 292
283 293
283 294
283 300
283 301
283 305
283 306
283 315
283 316
283 318
283 321
283 322
283 323
283 334
283 335
283 337
283 338
283 340
283 341
283 342
283 343
283 344
283 345
283 346
283 347
283 348
283 350
283 351
283 352
283 353
283 354
283 355
283 356
283 357
283 363
283 364
283 369
283 375
283 378
283 379
283 381
283 382
283 383
283 384
283 389
283 393
283 396
283 397
283 399
283 402
283 403
283 404
283 409
283 413
283 414
283 415
283 416
283 418
283 419
283 420
283 421
283 422
283 423
283 424
283 425
283 426
283 427
283 428
283 429
283 430
283 433
283 437
283 444
283 445
283 447
283 448
283 449
283 450
283 451
283 452
283 454
283 455
283 456
283 457
283 458
283 459
283 460
283 461
283 462
283 463
283 464
283 465
283 467
283 468
283 469
283 470
283 471
283 472
283 473
283 474
283 477
283 478
283 479
283 486
283 490
283 491
283 493
283 494
283 495
283 496
283 497
283 498
283 499
283 500
283 501
283 502
283 503
283 504
283 505
283 506
283 507
283 508
283 509
283 510
283 511
283 514
283 515
283 516
284 285
284 286
284 287
284 288
284 289
284 290
284 291
284 292
284 293
284 294
284 300
284 301
284 305
284 306
284 315
284 316
284 318
284 321
284 322
284 323
284 334
284 335
284 339
284 340
284 349
284 350
284 352
284 355
284 356
284 357
284 363
284 364
284 369
284 375
284 380
284 381
284 382
284 389
284 393
284 394
284 395
284 396
284 398
284 399
284 400
284 401
284 402
284 403
284 404
284 409
284 413
284 417
284 418
284 425
284 426
284 431
284 432
284 434
284 435
284 436
284 437
284 438
284 439
284 440
284 441
284 442
284 443
284 446
284 447
284 448
284 453
284 457
284 466
284 467
284 469
284 472
284 473
284 474
284 477
284 478
284 479
284 486
284 490
284 491
284 492
284 494
284 495
284 496
284 497
284 498
284 499
284 500
284 501
284 502
284 503
284 504
284 505
284 506
284 507
284 508
284 509
284 510
284 511
284 512
284 513
284 514
284 516
284 517
284 518
285 286
285 287
285 288
285 289
285 290
285 291
285 292
285 293
285 294
285 300
285 301
285 305
285 306
285 315
285 316
285 318
285 321
285 322
285 323
285 334
285 335
285 337
285 338
285 339
285 341
285 342
285 343
285 344
285 345
285 346
285 349
285 350
285 352
285 355
285 356
285 357
285 363
285 364
285 369
285 375
285 378
285 379
285 380
285 382
285 383
285 384
285 389
285 393
285 396
285 397
285 399
285 402
285 403
285 404
285 409
285 413
285 414
285 415
285 416
285 417
285 419
285 420
285 421
285 422
285 423
285 424
285 425
285 426
285 427
285 428
285 429
285 430
285 433
285 437
285 446
285 447
285 448
285 453
285 457
285 464
285 465
285 466
285 468
285 469
285 470
285 471
285 472
285 473
285 474
285 477
285 478
285 479
285 486
285 490
285 491
285 492
285 493
285 495
285 496
285 497
285 498
285 499
285 500
285 501
285 502
285 503
285 504
285 505
285 506
285 507
285 508
285 509
285 510
285 511
285 514
285 515
285 516
286 287
286 288
286 289
286 290
286 291
286 292
286 293
286 294
286 300
286 301
286 303
286 304
286 305
286 307
286 308
286 309
286 310
286 311
286 312
286 313
286 314
286 315
286 317
286 318
286 319
286 320
286 321
286 322
286 323
286 334
286 335
286 339
286 340
286 347
286 348
286 349
286 351
286 352
286 353
286 354
286 355
286 356
286 357
286 363
286 364
286 369
286 375
286 380
286 381
286 382
286 389
286 393
286 396
286 397
286 399
286 402
286 403
286 404
286 409
286 413
286 417
286 418
286 425
286 426
286 433
286 437
286 444
286 445
286 446
286 448
286 449
286 450
286 453
286 457
286 466
286 467
286 469
286 472
286 473
286 474
286 475
286 476
286 477
286 479
286 480
286 481
286 486
286 490
286 491
286 492
286 493
286 494
286 496
286 497
286 498
286 499
286 500
286 501
286 502
286 503
286 504
286 505
286 506
286 507
286 508
286 509
286 510
286 511
286 514
286 515
286 516
287 288
287 289
287 290
287 291
287 292
287 293
287 294
287 295
287 296
287 297
287 298
287 299
287 301
287 302
287 305
287 306
287 315
287 316
287 318
287 321
287 322
287 323
287 324
287 325
287 326
287 327
287 328
287 329
287 330
287 331
287 332
287 333
287 335
287 336
287 339
287 340
287 349
287 350
287 352
287 355
287 356
287 357
287 358
287 359
287 360
287 361
287 362
287 364
287 365
287 369
287 375
287 380
287 381
287 382
287 389
287 393
287 396
287 397
287 399
287 402
287 403
287 404
287 409
287 413
287 417
287 418
287 425
287 426
287 431
287 432
287 433
287 434
287 435
287 436
287 438
287 439
287 440
287 441
287 442
287 443
287 446
287 447
287 448
287 451
287 452
287 453
287 454
287 455
287 456
287 458
287 459
287 460
287 461
287 462
287 463
287 466
287 467
287 469
287 472
287 473
287 474
287 477
287 478
287 479
287 486
287 490
287 491
287 492
287 493
287 494
287 495
287 502
287 503
287 504
287 505
287 506
287 514
287 515
287 516
288 289
288 290
288 291
288 292
288 293
288 294
288 300
288 301
288 305
288 306
288 313
288 314
288 315
288 316
288 317
288 319
288 320
288 321
288 322
288 323
288 334
288 335
288 339
288 340
288 347
288 348
288 349
288 350
288 351
288 353
288 354
288 355
288 356
288 357
288 363
288 364
288 366
288 367
288 368
288 370
288 371
288 372
288 373
288 374
288 376
288 377
288 378
288 379
288 380
288 381
288 383
288 384
288 385
288 386
288 387
288 388
288 390
288 391
288 392
288 393
288 394
288 395
288 396
288 397
288 398
288 400
288 401
288 402
288 403
288 404
288 405
288 406
288 407
288 408
288 410
288 411
288 412
288 413
288 417
288 418
288 425
288 426
288 433
288 437
288 444
288 445
288 446
288 447
288 449
288 450
288 453
288 457
288 464
288 465
288 466
288 467
288 468
288 470
288 471
288 472
288 473
288 474
288 475
288 476
288 477
288 478
288 480
288 481
288 482
288 483
288 484
288 485
288 487
288 488
288 489
288 490
288 491
288 492
288 493
288 494
288 495
288 502
288 503
288 504
288 505
288 506
288 512
288 513
288 514
288 515
288 517
288 518
289 290
289 291
289 292
289 293
289 294
289 300
289 301
289 305
289 306
289 313
289 314
289 315
289 316
289 317
289 318
289 319
289 320
289 322
289 323
289 334
289 335
289 339
289 340
289 349
289 350
289 352
289 355
289 356
289 357
289 358
289 359
289 360
289 361
289 362
289 363
289 365
289 369
289 375
289 380
289 381
289 382
289 389
289 393
289 394
289 395
289 396
289 397
289 398
289 399
289 400
289 401
289 403
289 404
289 409
289 413
289 417
289 418
289 425
289 426
289 433
289 437
289 446
289 447
289 448
289 453
289 457
289 466
289 467
289 469
289 472
289 473
289 474
289 477
289 478
289 479
289 486
289 490
289 491
289 492
289 493
289 494
289 495
289 496
289 497
289 498
289 499
289 500
289 501
289 503
289 504
289 505
289 506
289 507
289 508
289 509
289 510
289 511
289 514
289 515
289 516
290 291
290 292
290 293
290 294
290 300
290 301
290 305
290 306
290 315
290 316
290 318
290 321
290 322
290 323
290 334
290 335
290 339
290 340
290 347
290 348
290 349
290 350
290 351
290 352
290 353
290 354
290 356
290 357
290 363
290 364
290 369
290 375
290 380
290 381
290 382
290 389
290 393
290 396
290 397
290 399
290 402
290 403
290 404
290 409
290 413
290 414
290 415
290 416
290 417
290 418
290 419
290 420
290 421
290 422
290 423
290 424
290 426
290 427
290 428
290 429
290 430
290 433
290 437
290 446
290 447
290 448
290 453
290 457
290 464
290 465
290 466
290 467
290 468
290 469
290 470
290 471
290 473
290 474
290 477
290 478
290 479
290 486
290 490
290 491
290 492
290 493
290 494
290 495
290 496
290 497
290 498
290 499
290 500
290 501
290 502
290 504
290 505
290 506
290 507
290 508
290 509
290 510
290 511
290 514
290 515
290 516
291 292
291 293
291 294
291 295
291 296
291 297
291 298
291 299
291 300
291 302
291 305
291 306
291 315
291 316
291 318
291 321
291 322
291 323
291 334
291 335
291 339
291 340
291 349
291 350
291 352
291 355
291 356
291 357
291 363
291 364
291 369
291 375
291 380
291 381
291 382
291 389
291 393
291 394
291 395
291 396
291 397
291 398
291 399
291 400
291 401
291 402
291 404
291 409
291 413
291 417
291 418
291 425
291 426
291 433
291 437
291 446
291 447
291 448
291 453
291 457
291 466
291 467
291 469
291 472
291 473
291 474
291 477
291 478
291 479
291 486
291 490
291 491
291 492
291 493
291 494
291 495
291 496
291 497
291 498
291 499
291 500
291 501
291 502
291 503
291 505
291 506
291 507
291 508
291 509
291 510
291 511
291 514
291 515
291 516
292 293
292 294
292 300
292 301
292 305
292 306
292 315
292 316
292 318
292 321
292 322
292 323
292 334
292 335
292 339
292 340
292 349
292 350
292 352
292 355
292 356
292 357
292 363
292 364
292 369
292 375
292 380
292 381
292 382
292 389
292 393
292 396
292 397
292 399
292 402
292 403
292 404
292 409
292 413
292 414
292 415
292 416
292 417
292 418
292 419
292 420
292 421
292 422
292 423
292 424
292 425
292 427
292 428
292 429
292 430
292 433
292 437
292 446
292 447
292 448
292 453
292 457
292 464
292 465
292 466
292 467
292 468
292 469
292 470
292 471
292 472
292 474
292 477
292 478
292 479
292 486
292 490
292 491
292 492
292 493
292 494
292 495
292 496
292 497
292 498
292 499
292 500
292 501
292 502
292 503
292 504
292 506
292 507
292 508
292 509
292 510
292 511
292 514
292 515
292 516
293 294
293 300
293 301
293 305
293 306
293 313
293 314
293 315
293 316
293 317
293 318
293 319
293 320
293 321
293 323
293 334
293 335
293 339
293 340
293 347
293 348
293 349
293 350
293 351
293 352
293 353
293 354
293 355
293 357
293 363
293 364
293 369
293 375
293 380
293 381
293 382
293 389
293 393
293 396
293 397
293 399
293 402
293 403
293 404
293 409
293 413
293 417
293 418
293 425
293 426
293 433
293 437
293 446
293 447
293 448
293 453
293 457
293 466
293 467
293 469
293 472
293 473
293 474
293 477
293 478
293 479
293 486
293 490
293 491
293 492
293 493
293 494
293 495
293 496
293 497
293 498
293 499
293 500
293 501
293 502
293 503
293 504
293 505
293 507
293 508
293 509
293 510
293 511
293 514
293 515
293 516
294 300
294 301
294 305
294 306
294 313
294 314
294 315
294 316
294 317
294 318
294 319
294 320
294 321
294 322
294 324
294 325
294 326
294 327
294 328
294 329
294 330
294 331
294 332
294 333
294 334
294 336
294 339
294 340
294 347
294 348
294 349
294 350
294 351
294 352
294 353
294 354
294 355
294 356
294 363
294 364
294 369
294 375
294 380
294 381
294 382
294 385
294 386
294 387
294 388
294 389
294 390
294 391
294 392
294 394
294 395
294 396
294 397
294 398
294 399
294 400
294 401
294 402
294 403
294 405
294 406
294 407
294 408
294 409
294 410
294 411
294 412
294 417
294 418
294 425
294 426
294 433
294 437
294 446
294 447
294 448
294 453
294 457
294 464
294 465
294 466
294 467
294 468
294 469
294 470
294 471
294 472
294 473
294 477
294 478
294 479
294 482
294 483
294 484
294 485
294 486
294 487
294 488
294 489
294 491
294 492
294 493
294 494
294 495
294 502
294 503
294 504
294 505
294 506
294 514
294 515
294 516
295 296
295 297
295 298
295 299
295 300
295 301
295 302
295 304
295 308
295 312
295 314
295 325
295 328
295 334
295 336
295 338
295 339
295 340
295 341
295 342
295 343
295 344
295 345
295 346
295 348
295 349
295 350
295 351
295 352
295 353
295 354
295 355
295 356
295 357
295 359
295 360
295 361
295 362
295 363
295 364
295 365
295 368
295 371
295 374
295 377
295 379
295 380
295 381
295 382
295 383
295 384
295 387
295 398
295 403
295 406
295 407
295 414
295 416
295 417
295 418
295 419
295 420
295 421
295 422
295 423
295 424
295 425
295 426
295 427
295 428
295 429
295 430
295 432
295 433
295 434
295 435
295 436
295 437
295 438
295 439
295 440
295 441
295 442
295 443
295 445
295 446
295 447
295 448
295 449
295 450
295 454
295 457
295 465
295 466
295 467
295 468
295 469
295 470
295 471
295 472
295 473
295 474
295 476
295 481
295 484
295 496
295 504
295 518
296 297
296 298
296 299
296 300
296 301
296 302
296 303
296 305
296 306
296 307
296 308
296 309
296 310
296 311
296 312
296 313
296 315
296 316
296 317
296 318
296 319
296 320
296 321
296 322
296 323
296 325
296 328
296 334
296 336
296 337
296 341
296 346
296 347
296 349
296 350
296 351
296 352
296 353
296 354
296 355
296 356
296 357
296 358
296 360
296 361
296 363
296 365
296 368
296 371
296 374
296 377
296 378
296 384
296 387
296 398
296 403
296 405
296 407
296 408
296 409
296 410
296 411
296 412
296 413
296 415
296 419
296 431
296 433
296 434
296 435
296 436
296 437
296 438
296 439
296 440
296 441
296 442
296 443
296 444
296 446
296 447
296 448
296 449
296 450
296 454
296 457
296 464
296 475
296 477
296 478
296 479
296 480
296 481
296 484
296 496
296 504
296 518
297 298
297 299
297 300
297 301
297 302
297 304
297 308
297 312
297 314
297 325
297 328
297 334
297 336
297 337
297 341
297 346
297 347
297 348
297 358
297 359
297 361
297 362
297 363
297 364
297 365
297 366
297 367
297 369
297 370
297 371
297 372
297 373
297 375
297 376
297 377
297 378
297 384
297 385
297 386
297 388
297 389
297 390
297 391
297 392
297 393
297 398
297 403
297 405
297 406
297 408
297 409
297 410
297 411
297 412
297 413
297 415
297 419
297 431
297 432
297 433
297 435
297 436
297 437
297 438
297 439
297 440
297 441
297 442
297 443
297 444
297 445
297 450
297 451
297 452
297 453
297 455
297 456
297 457
297 458
297 459
297 460
297 461
297 462
297 463
297 464
297 476
297 481
297 482
297 483
297 485
297 486
297 487
297 488
297 489
297 490
297 491
297 492
297 493
297 494
297 495
297 497
297 498
297 499
297 500
297 501
297 502
297 503
297 504
297 505
297 506
297 507
297 508
297 509
297 510
297 511
297 518
298 299
298 300
298 301
298 302
298 304
298 308
298 312
298 314
298 324
298 326
298 327
298 328
298 329
298 330
298 331
298 332
298 333
298 334
298 335
298 336
298 337
298 338
298 339
298 340
298 342
298 343
298 344
298 345
298 346
298 347
298 348
298 358
298 359
298 360
298 362
298 363
298 364
298 365
298 368
298 371
298 374
298 377
298 378
298 384
298 387
298 394
298 395
298 396
298 397
298 399
298 400
298 401
298 402
298 403
298 404
298 406
298 407
298 414
298 415
298 416
298 417
298 418
298 420
298 421
298 422
298 423
298 424
298 425
298 426
298 427
298 428
298 429
298 430
298 431
298 432
298 433
298 434
298 436
298 437
298 438
298 439
298 440
298 441
298 442
298 443
298 444
298 445
298 450
298 454
298 457
298 464
298 476
298 481
298 484
298 496
298 504
298 518
299 300
299 301
299 302
299 303
299 304
299 305
299 306
299 307
299 309
299 310
299 311
299 312
299 314
299 324
299 325
299 326
299 327
299 329
299 330
299 331
299 332
299 333
299 334
299 335
299 336
299 337
299 341
299 346
299 347
299 348
299 358
299 360
299 361
299 363
299 365
299 368
299 371
299 374
299 377
299 378
299 384
299 387
299 398
299 403
299 406
299 407
299 415
299 419
299 431
299 432
299 433
299 434
299 435
299 437
299 438
299 439
299 440
299 441
299 442
299 443
299 444
299 445
299 450
299 454
299 457
299 464
299 476
299 481
299 484
299 496
299 504
299 518
300 301
300 302
300 304
300 308
300 312
300 314
300 324
300 325
300 326
300 327
300 328
300 329
300 330
300 331
300 332
300 333
300 335
300 336
300 337
300 341
300 346
300 347
300 348
300 358
300 359
300 360
300 361
300 362
300 364
300 365
300 368
300 371
300 374
300 377
300 378
300 384
300 387
300 398
300 403
300 406
300 407
300 415
300 419
300 431
300 432
300 433
300 434
300 435
300 436
300 438
300 439
300 440
300 441
300 442
300 443
300 444
300 445
300 450
300 451
300 452
300 453
300 454
300 455
300 456
300 458
300 459
300 460
300 461
300 462
300 463
300 464
300 476
300 481
300 484
300 496
300 504
300 518
301 302
301 304
301 308
301 312
301 314
301 325
301 328
301 334
301 336
301 337
301 341
301 346
301 347
301 348
301 358
301 360
301 361
301 363
301 365
301 368
301 371
301 374
301 377
301 378
301 384
301 387
301 394
301 395
301 396
301 397
301 398
301 399
301 400
301 401
301 402
301 404
301 406
301 407
301 415
301 419
301 431
301 432
301 434
301 435
301 436
301 437
301 444
301 445
301 450
301 454
301 457
301 464
301 476
301 481
301 484
301 491
301 492
301 493
301 494
301 495
301 496
301 497
301 498
301 499
301 500
301 501
301 502
301 503
301 505
301 506
301 507
301 508
301 509
301 510
301 511
301 518
302 303
302 304
302 305
302 306
302 307
302 308
302 309
302 310
302 311
302 314
302 324
302 325
302 326
302 327
302 328
302 329
302 330
302 331
302 332
302 333
302 334
302 335
302 337
302 338
302 339
302 340
302 341
302 342
302 343
302 344
302 345
302 347
302 348
302 358
302 359
302 360
302 361
302 362
302 363
302 364
302 366
302 367
302 368
302 369
302 370
302 372
302 373
302 374
302 375
302 376
302 378
302 379
302 380
302 381
302 382
302 383
302 387
302 398
302 403
302 406
302 407
302 415
302 419
302 431
302 432
302 434
302 435
302 436
302 437
302 444
302 445
302 446
302 447
302 448
302 449
302 454
302 457
302 464
302 475
302 476
302 477
302 478
302 479
302 480
302 484
302 496
302 504
302 512
302 513
302 514
302 515
302 516
302 517
303 304
303 305
303 306
303 307
303 308
303 309
303 310
303 311
303 312
303 314
303 315
303 316
303 317
303 318
303 319
303 320
303 321
303 322
303 323
303 324
303 328
303 329
303 333
303 336
303 346
303 348
303 350
303 365
303 367
303 368
303 369
303 370
303 371
303 377
303 384
303 388
303 391
303 395
303 396
303 397
303 398
303 399
303 400
303 401
303 402
303 403
303 404
303 406
303 407
303 408
303 409
303 410
303 411
303 412
303 413
303 415
303 416
303 417
303 418
303 419
303 420
303 421
303 422
303 423
303 424
303 425
303 426
303 427
303 428
303 429
303 430
303 432
303 436
303 445
303 447
303 450
303 452
303 453
303 454
303 455
303 456
303 457
303 458
303 459
303 460
303 461
303 462
303 463
303 468
303 471
303 476
303 477
303 478
303 479
303 480
303 481
303 483
303 484
303 485
303 486
303 487
303 488
303 489
303 490
303 491
303 495
303 497
303 501
303 513
303 514
303 515
303 516
303 517
303 518
304 305
304 306
304 307
304 308
304 309
304 310
304 311
304 312
304 313
304 315
304 316
304 317
304 318
304 319
304 320
304 321
304 322
304 323
304 324
304 328
304 329
304 333
304 336
304 346
304 347
304 349
304 350
304 351
304 352
304 353
304 354
304 355
304 356
304 357
304 365
304 366
304 371
304 377
304 384
304 388
304 391
304 394
304 396
304 405
304 407
304 408
304 409
304 410
304 411
304 412
304 413
304 414
304 424
304 431
304 433
304 434
304 435
304 436
304 437
304 438
304 439
304 440
304 441
304 442
304 443
304 444
304 446
304 447
304 448
304 449
304 450
304 451
304 455
304 468
304 471
304 475
304 477
304 478
304 479
304 480
304 481
304 482
304 491
304 495
304 497
304 501
304 512
304 514
304 518
305 306
305 307
305 308
305 309
305 310
305 311
305 312
305 313
305 314
305 316
305 317
305 318
305 319
305 320
305 321
305 322
305 323
305 324
305 328
305 329
305 333
305 336
305 346
305 348
305 350
305 365
305 366
305 371
305 377
305 384
305 388
305 391
305 394
305 395
305 397
305 398
305 399
305 400
305 401
305 402
305 403
305 404
305 405
305 406
305 414
305 424
305 432
305 436
305 445
305 447
305 450
305 451
305 455
305 468
305 471
305 475
305 476
305 478
305 479
305 480
305 481
305 482
305 492
305 493
305 494
305 495
305 496
305 497
305 498
305 499
305 500
305 501
305 502
305 503
305 504
305 505
305 506
305 507
305 508
305 509
305 510
305 511
305 512
305 513
305 515
305 516
305 517
305 518
306 307
306 308
306 309
306 310
306 311
306 312
306 313
306 314
306 315
306 317
306 318
306 319
306 320
306 321
306 322
306 323
306 324
306 328
306 329
306 333
306 336
306 346
306 347
306 348
306 349
306 351
306 352
306 353
306 354
306 355
306 356
306 357
306 365
306 366
306 371
306 377
306 384
306 388
306 391
306 394
306 396
306 405
306 406
306 414
306 424
306 432
306 436
306 444
306 445
306 446
306 448
306 449
306 450
306 451
306 455
306 468
306 471
306 475
306 476
306 477
306 479
306 480
306 481
306 482
306 491
306 492
306 493
306 494
306 496
306 497
306 498
306 499
306 500
306 501
306 502
306 503
306 504
306 505
306 506
306 507
306 508
306 509
306 510
306 511
306 512
306 514
306 518
307 308
307 309
307 310
307 311
307 312
307 313
307 314
307 315
307 316
307 325
307 326
307 327
307 328
307 329
307 330
307 331
307 332
307 333
307 334
307 335
307 336
307 346
307 348
307 350
307 365
307 366
307 371
307 377
307 384
307 388
307 391
307 394
307 396
307 405
307 406
307 414
307 424
307 432
307 436
307 445
307 447
307 450
307 451
307 452
307 453
307 454
307 456
307 457
307 458
307 459
307 460
307 461
307 462
307 463
307 464
307 465
307 466
307 467
307 469
307 470
307 471
307 472
307 473
307 474
307 475
307 476
307 477
307 478
307 481
307 482
307 491
307 495
307 497
307 501
307 512
307 514
307 518
308 309
308 310
308 311
308 312
308 313
308 314
308 315
308 316
308 324
308 325
308 326
308 327
308 329
308 330
308 331
308 332
308 333
308 334
308 335
308 336
308 346
308 348
308 350
308 365
308 366
308 371
308 377
308 384
308 388
308 391
308 394
308 396
308 405
308 406
308 414
308 424
308 431
308 432
308 433
308 434
308 435
308 437
308 438
308 439
308 440
308 441
308 442
308 443
308 445
308 447
308 450
308 451
308 455
308 468
308 471
308 475
308 476
308 477
308 478
308 481
308 482
308 491
308 495
308 497
308 501
308 512
308 514
308 518
309 310
309 311
309 312
309 313
309 314
309 315
309 316
309 324
309 325
309 326
309 327
309 328
309 330
309 331
309 332
309 333
309 334
309 335
309 336
309 346
309 348
309 350
309 365
309 366
309 371
309 377
309 384
309 388
309 391
309 394
309 396
309 405
309 406
309 414
309 424
309 432
309 436
309 445
309 447
309 450
309 451
309 455
309 468
309 471
309 475
309 476
309 477
309 478
309 481
309 482
309 491
309 492
309 493
309 494
309 495
309 496
309 498
309 499
309 500
309 501
309 502
309 503
309 504
309 505
309 506
309 507
309 508
309 509
309 510
309 511
309 512
309 514
309 518
310 311
310 312
310 313
310 314
310 315
310 316
310 324
310 325
310 326
310 327
310 328
310 329
310 330
310 331
310 332
310 334
310 335
310 336
310 346
310 348
310 350
310 365
310 366
310 371
310 377
310 384
310 385
310 386
310 387
310 389
310 390
310 391
310 392
310 393
310 394
310 396
310 405
310 406
310 414
310 424
310 432
310 436
310 445
310 447
310 450
310 451
310 455
310 468
310 471
310 475
310 476
310 477
310 478
310 481
310 482
310 491
310 492
310 493
310 494
310 495
310 496
310 497
310 498
310 499
310 500
310 502
310 503
310 504
310 505
310 506
310 507
310 508
310 509
310 510
310 511
310 512
310 514
310 518
311 312
311 313
311 314
311 315
311 316
311 324
311 328
311 329
311 333
311 336
311 346
311 348
311 350
311 365
311 366
311 371
311 377
311 384
311 385
311 386
311 387
311 388
311 389
311 390
311 392
311 393
311 394
311 396
311 405
311 406
311 414
311 415
311 416
311 417
311 418
311 419
311 420
311 421
311 422
311 423
311 425
311 426
311 427
311 428
311 429
311 430
311 432
311 436
311 445
311 447
311 450
311 451
311 455
311 464
311 465
311 466
311 467
311 468
311 469
311 470
311 472
311 473
311 474
311 475
311 476
311 477
311 478
311 481
311 482
311 491
311 495
311 497
311 501
311 512
311 514
311 518
312 313
312 314
312 315
312 316
312 324
312 325
312 326
312 327
312 328
312 329
312 330
312 331
312 332
312 333
312 334
312 335
312 337
312 338
312 339
312 340
312 341
312 342
312 343
312 344
312 345
312 348
312 350
312 358
312 359
312 360
312 361
312 362
312 363
312 364
312 366
312 367
312 368
312 369
312 370
312 372
312 373
312 374
312 375
312 376
312 378
312 379
312 380
312 381
312 382
312 383
312 388
312 391
312 394
312 396
312 405
312 406
312 414
312 424
312 432
312 436
312 444
312 445
312 446
312 447
312 448
312 449
312 451
312 455
312 468
312 471
312 475
312 476
312 477
312 478
312 479
312 480
312 482
312 491
312 495
312 497
312 501
312 512
312 513
312 514
312 515
312 516
312 517
313 314
313 315
313 316
313 317
313 318
313 319
313 320
313 321
313 322
313 323
313 327
313 335
313 342
313 345
313 348
313 350
313 352
313 354
313 356
313 357
313 362
313 364
313 367
313 368
313 369
313 370
313 371
313 375
313 382
313 389
313 393
313 395
313 396
313 397
313 398
313 399
313 400
313 401
313 402
313 403
313 404
313 406
313 407
313 408
313 409
313 410
313 411
313 412
313 413
313 415
313 416
313 417
313 418
313 419
313 420
313 421
313 422
313 423
313 424
313 425
313 426
313 427
313 428
313 429
313 430
313 432
313 439
313 445
313 447
313 448
313 452
313 453
313 454
313 455
313 456
313 457
313 458
313 459
313 460
313 461
313 462
313 463
313 469
313 474
313 476
313 477
313 478
313 479
313 480
313 481
313 483
313 484
313 485
313 486
313 487
313 488
313 489
313 490
313 491
313 495
313 502
313 506
313 513
313 514
313 515
313 516
313 517
313 518
314 315
314 316
314 317
314 318
314 319
314 320
314 321
314 322
314 323
314 327
314 335
314 342
314 345
314 347
314 349
314 350
314 351
314 352
314 353
314 354
314 355
314 356
314 357
314 362
314 364
314 366
314 369
314 375
314 382
314 389
314 393
314 394
314 396
314 399
314 400
314 402
314 404
314 405
314 407
314 408
314 409
314 410
314 411
314 412
314 413
314 414
314 420
314 431
314 433
314 434
314 435
314 436
314 437
314 438
314 439
314 440
314 441
314 442
314 443
314 444
314 446
314 447
314 448
314 449
314 450
314 451
314 458
314 469
314 474
314 475
314 477
314 478
314 479
314 480
314 481
314 482
314 486
314 487
314 490
314 491
314 495
314 502
314 506
314 512
314 514
314 516
315 316
315 317
315 318
315 319
315 320
315 321
315 322
315 323
315 327
315 335
315 342
315 345
315 348
315 350
315 352
315 354
315 356
315 357
315 362
315 364
315 366
315 369
315 375
315 382
315 389
315 393
315 394
315 395
315 397
315 398
315 399
315 400
315 401
315 402
315 403
315 404
315 405
315 406
315 409
315 410
315 411
315 413
315 414
315 420
315 432
315 439
315 445
315 447
315 448
315 451
315 458
315 469
315 474
315 475
315 476
315 478
315 479
315 480
315 481
315 482
315 486
315 487
315 490
315 492
315 493
315 494
315 495
315 496
315 497
315 498
315 499
315 500
315 501
315 502
315 503
315 504
315 505
315 506
315 507
315 508
315 509
315 510
315 511
315 512
315 513
315 515
315 516
315 517
315 518
316 317
316 318
316 319
316 320
316 321
316 322
316 323
316 327
316 335
316 342
316 345
316 347
316 348
316 349
316 351
316 352
316 353
316 354
316 355
316 356
316 357
316 362
316 364
316 366
316 369
316 375
316 382
316 389
316 393
316 394
316 396
316 399
316 400
316 402
316 404
316 405
316 406
316 409
316 410
316 411
316 413
316 414
316 420
316 432
316 439
316 444
316 445
316 446
316 448
316 449
316 450
316 451
316 458
316 469
316 474
316 475
316 476
316 477
316 479
316 480
316 481
316 482
316 486
316 487
316 490
316 491
316 492
316 493
316 494
316 496
316 497
316 498
316 499
316 500
316 501
316 502
316 503
316 504
316 505
316 506
316 507
316 508
316 509
316 510
316 511
316 512
316 514
316 516
317 318
317 319
317 320
317 321
317 322
317 323
317 324
317 325
317 326
317 328
317 329
317 330
317 331
317 332
317 333
317 334
317 335
317 336
317 337
317 338
317 339
317 340
317 341
317 343
317 344
317 345
317 346
317 348
317 350
317 352
317 354
317 356
317 357
317 358
317 359
317 360
317 361
317 363
317 364
317 365
317 366
317 369
317 375
317 382
317 389
317 393
317 394
317 396
317 399
317 400
317 402
317 404
317 405
317 406
317 409
317 410
317 411
317 413
317 414
317 415
317 416
317 417
317 418
317 419
317 421
317 422
317 423
317 424
317 425
317 426
317 427
317 428
317 429
317 430
317 432
317 439
317 445
317 447
317 448
317 451
317 458
317 469
317 474
317 475
317 476
317 477
317 478
317 479
317 482
317 486
317 487
317 490
317 491
317 495
317 502
317 506
317 512
317 514
317 516
318 319
318 320
318 321
318 322
318 323
318 327
318 335
318 342
318 345
318 347
318 348
318 349
318 350
318 351
318 353
318 354
318 355
318 356
318 357
318 362
318 364
318 366
318 367
318 368
318 370
318 371
318 372
318 373
318 374
318 376
318 377
318 378
318 379
318 380
318 381
318 383
318 384
318 385
318 386
318 387
318 388
318 390
318 391
318 392
318 393
318 394
318 395
318 396
318 397
318 398
318 400
318 401
318 402
318 403
318 404
318 405
318 406
318 407
318 408
318 410
318 411
318 412
318 413
318 414
318 420
318 432
318 439
318 444
318 445
318 446
318 447
318 449
318 450
318 451
318 458
318 464
318 465
318 466
318 467
318 468
318 470
318 471
318 472
318 473
318 474
318 475
318 476
318 477
318 478
318 480
318 481
318 482
318 483
318 484
318 485
318 487
318 488
318 489
318 490
318 491
318 495
318 502
318 506
318 512
318 513
318 514
318 515
318 517
318 518
319 320
319 321
319 322
319 323
319 327
319 335
319 337
319 338
319 339
319 340
319 341
319 342
319 343
319 344
319 346
319 348
319 350
319 352
319 354
319 356
319 357
319 362
319 364
319 366
319 369
319 375
319 382
319 389
319 393
319 394
319 395
319 396
319 397
319 398
319 399
319 401
319 402
319 403
319 404
319 405
319 406
319 407
319 408
319 409
319 411
319 412
319 413
319 414
319 420
319 432
319 439
319 445
319 447
319 448
319 451
319 452
319 453
319 454
319 455
319 456
319 457
319 459
319 460
319 461
319 462
319 463
319 469
319 474
319 475
319 476
319 477
319 478
319 479
319 482
319 483
319 484
319 485
319 486
319 488
319 489
319 490
319 491
319 495
319 502
319 506
319 512
319 514
319 516
320 321
320 322
320 323
320 327
320 335
320 342
320 345
320 347
320 348
320 349
320 350
320 351
320 352
320 353
320 355
320 356
320 357
320 362
320 364
320 366
320 369
320 375
320 382
320 389
320 393
320 394
320 396
320 399
320 400
320 402
320 404
320 405
320 406
320 407
320 408
320 409
320 410
320 412
320 413
320 414
320 420
320 431
320 432
320 433
320 434
320 435
320 436
320 437
320 438
320 440
320 441
320 442
320 443
320 445
320 447
320 448
320 451
320 458
320 469
320 474
320 475
320 476
320 477
320 478
320 479
320 482
320 486
320 487
320 490
320 491
320 495
320 502
320 506
320 512
320 514
320 516
321 322
321 323
321 327
321 335
321 342
321 345
321 348
321 350
321 352
321 354
321 356
321 357
321 358
321 359
321 360
321 361
321 362
321 363
321 365
321 366
321 369
321 375
321 382
321 389
321 393
321 394
321 395
321 396
321 397
321 398
321 399
321 400
321 401
321 403
321 404
321 405
321 406
321 409
321 410
321 411
321 413
321 414
321 420
321 432
321 439
321 445
321 447
321 448
321 451
321 458
321 469
321 474
321 475
321 476
321 477
321 478
321 479
321 482
321 486
321 487
321 490
321 491
321 492
321 493
321 494
321 495
321 496
321 497
321 498
321 499
321 500
321 501
321 503
321 504
321 505
321 506
321 507
321 508
321 509
321 510
321 511
321 512
321 514
321 516
322 323
322 327
322 335
322 342
322 345
322 347
322 348
322 349
322 350
322 351
322 352
322 353
322 354
322 355
322 357
322 362
322 364
322 366
322 369
322 375
322 382
322 389
322 393
322 394
322 396
322 399
322 400
322 402
322 404
322 405
322 406
322 409
322 410
322 411
322 413
322 414
322 420
322 432
322 439
322 445
322 447
322 448
322 451
322 458
322 469
322 474
322 475
322 476
322 477
322 478
322 479
322 482
322 486
322 487
322 490
322 491
322 492
322 493
322 494
322 495
322 496
322 497
322 498
322 499
322 500
322 501
322 502
322 503
322 504
322 505
322 507
322 508
322 509
322 510
322 511
322 512
322 514
322 516
323 324
323 325
323 326
323 327
323 328
323 329
323 330
323 331
323 332
323 333
323 334
323 336
323 342
323 345
323 347
323 348
323 349
323 350
323 351
323 352
323 353
323 354
323 355
323 356
323 362
323 364
323 366
323 369
323 375
323 382
323 385
323 386
323 387
323 388
323 389
323 390
323 391
323 392
323 394
323 395
323 396
323 397
323 398
323 399
323 400
323 401
323 402
323 403
323 405
323 406
323 407
323 408
323 409
323 410
323 411
323 412
323 414
323 420
323 432
323 439
323 445
323 447
323 448
323 451
323 458
323 464
323 465
323 466
323 467
323 468
323 469
323 470
323 471
323 472
323 473
323 475
323 476
323 477
323 478
323 479
323 482
323 483
323 484
323 485
323 486
323 487
323 488
323 489
323 491
323 495
323 502
323 506
323 512
323 514
323 516
324 325
324 326
324 327
324 328
324 329
324 330
324 331
324 332
324 333
324 334
324 335
324 336
324 341
324 342
324 343
324 344
324 346
324 351
324 357
324 361
324 362
324 363
324 365
324 371
324 377
324 384
324 388
324 393
324 398
324 404
324 408
324 413
324 419
324 420
324 421
324 422
324 435
324 436
324 437
324 450
324 451
324 452
324 453
324 454
324 456
324 457
324 458
324 459
324 460
324 461
324 462
324 463
324 464
324 465
324 466
324 467
324 469
324 470
324 471
324 472
324 473
324 474
324 481
324 485
324 490
324 497
324 498
324 499
324 500
324 501
324 518
325 326
325 327
325 328
325 329
325 330
325 331
325 332
325 333
325 334
325 335
325 336
325 337
325 338
325 339
325 340
325 342
325 343
325 344
325 345
325 346
325 351
325 357
325 358
325 359
325 360
325 362
325 363
325 364
325 365
325 371
325 377
325 384
325 388
325 393
325 394
325 395
325 396
325 397
325 399
325 400
325 401
325 402
325 403
325 404
325 408
325 413
325 414
325 415
325 416
325 417
325 418
325 420
325 421
325 422
325 423
325 424
325 425
325 426
325 427
325 428
325 429
325 430
325 431
325 432
325 433
325 434
325 436
325 437
325 438
325 439
325 440
325 441
325 442
325 443
325 450
325 455
325 456
325 457
325 468
325 474
325 481
325 485
325 490
325 497
325 498
325 499
325 500
325 501
325 518
326 327
326 328
326 329
326 330
326 331
326 332
326 333
326 334
326 335
326 336
326 341
326 342
326 343
326 344
326 346
326 347
326 348
326 349
326 350
326 352
326 353
326 354
326 355
326 356
326 357
326 361
326 362
326 363
326 365
326 371
326 377
326 384
326 388
326 393
326 398
326 404
326 408
326 413
326 419
326 420
326 421
326 422
326 435
326 436
326 437
326 450
326 451
326 452
326 453
326 454
326 455
326 457
326 458
326 459
326 460
326 461
326 462
326 463
326 468
326 474
326 481
326 485
326 490
326 497
326 498
326 499
326 500
326 501
326 518
327 328
327 329
327 330
327 331
327 332
327 333
327 334
327 335
327 336
327 337
327 338
327 339
327 340
327 341
327 343
327 344
327 345
327 346
327 351
327 357
327 358
327 359
327 360
327 361
327 363
327 364
327 365
327 371
327 377
327 384
327 388
327 393
327 398
327 404
327 408
327 413
327 414
327 415
327 416
327 417
327 418
327 419
327 421
327 422
327 423
327 424
327 425
327 426
327 427
327 428
327 429
327 430
327 435
327 436
327 437
327 450
327 455
327 456
327 457
327 468
327 474
327 481
327 485
327 490
327 497
327 498
327 499
327 500
327 501
327 518
328 329
328 330
328 331
328 332
328 333
328 334
328 335
328 336
328 341
328 342
328 343
328 344
328 346
328 351
328 357
328 361
328 362
328 363
328 365
328 371
328 377
328 384
328 388
328 393
328 398
328 404
328 408
328 413
328 419
328 420
328 421
328 422
328 431
328 432
328 433
328 434
328 435
328 437
328 438
328 439
328 440
328 441
328 442
328 443
328 450
328 455
328 456
328 457
328 468
328 474
328 481
328 485
328 490
328 497
328 498
328 499
328 500
328 501
328 518
329 330
329 331
329 332
329 333
329 334
329 335
329 336
329 341
329 342
329 343
329 344
329 346
329 351
329 357
329 361
329 362
329 363
329 365
329 371
329 377
329 384
329 388
329 393
329 398
329 404
329 408
329 413
329 419
329 420
329 421
329 422
329 435
329 436
329 437
329 450
329 455
329 456
329 457
329 468
329 474
329 481
329 485
329 490
329 491
329 492
329 493
329 494
329 495
329 496
329 498
329 499
329 500
329 501
329 502
329 503
329 504
329 505
329 506
329 507
329 508
329 509
329 510
329 511
329 518
330 331
330 332
330 333
330 334
330 335
330 336
330 337
330 338
330 339
330 340
330 341
330 342
330 344
330 345
330 346
330 351
330 357
330 361
330 362
330 363
330 365
330 371
330 377
330 384
330 388
330 393
330 398
330 404
330 408
330 413
330 414
330 415
330 416
330 417
330 418
330 419
330 420
330 422
330 423
330 424
330 425
330 426
330 427
330 428
330 429
330 430
330 435
330 436
330 437
330 450
330 455
330 456
330 457
330 468
330 474
330 481
330 482
330 483
330 484
330 486
330 487
330 488
330 489
330 490
330 491
330 492
330 493
330 494
330 495
330 496
330 497
330 499
330 500
330 501
330 502
330 503
330 504
330 505
330 506
330 507
330 508
330 509
330 510
330 511
330 518
331 332
331 333
331 334
331 335
331 336
331 341
331 342
331 343
331 344
331 346
331 351
331 357
331 361
331 362
331 363
331 365
331 371
331 377
331 384
331 388
331 393
331 398
331 404
331 408
331 413
331 419
331 420
331 421
331 422
331 435
331 436
331 437
331 450
331 455
331 456
331 457
331 468
331 474
331 481
331 485
331 490
331 491
331 492
331 493
331 494
331 495
331 496
331 497
331 498
331 500
331 501
331 502
331 503
331 504
331 505
331 506
331 507
331 508
331 509
331 510
331 511
331 518
332 333
332 334
332 335
332 336
332 337
332 338
332 339
332 340
332 341
332 342
332 343
332 345
332 346
332 351
332 357
332 361
332 362
332 363
332 365
332 371
332 377
332 384
332 388
332 393
332 398
332 404
332 405
332 406
332 407
332 409
332 410
332 411
332 412
332 413
332 414
332 415
332 416
332 417
332 418
332 419
332 420
332 421
332 423
332 424
332 425
332 426
332 427
332 428
332 429
332 430
332 435
332 436
332 437
332 450
332 455
332 456
332 457
332 468
332 474
332 481
332 485
332 490
332 491
332 492
332 493
332 494
332 495
332 496
332 497
332 498
332 499
332 501
332 502
332 503
332 504
332 505
332 506
332 507
332 508
332 509
332 510
332 511
332 518
333 334
333 335
333 336
333 341
333 342
333 343
333 344
333 346
333 351
333 357
333 361
333 362
333 363
333 365
333 371
333 377
333 384
333 385
333 386
333 387
333 389
333 390
333 391
333 392
333 393
333 398
333 404
333 408
333 413
333 419
333 420
333 421
333 422
333 435
333 436
333 437
333 450
333 455
333 456
333 457
333 468
333 474
333 481
333 485
333 490
333 491
333 492
333 493
333 494
333 495
333 496
333 497
333 498
333 499
333 500
333 502
333 503
333 504
333 505
333 506
333 507
333 508
333 509
333 510
333 511
333 518
334 335
334 336
334 341
334 342
334 343
334 344
334 346
334 351
334 357
334 358
334 359
334 360
334 361
334 362
334 364
334 365
334 371
334 377
334 384
334 388
334 393
334 398
334 404
334 408
334 413
334 419
334 420
334 421
334 422
334 431
334 432
334 433
334 434
334 435
334 436
334 438
334 439
334 440
334 441
334 442
334 443
334 450
334 451
334 452
334 453
334 454
334 455
334 456
334 458
334 459
334 460
334 461
334 462
334 463
334 468
334 474
334 481
334 485
334 490
334 497
334 498
334 499
334 500
334 501
334 518
335 336
335 341
335 342
335 343
335 344
335 346
335 347
335 348
335 349
335 350
335 351
335 352
335 353
335 354
335 355
335 356
335 361
335 362
335 363
335 365
335 371
335 377
335 384
335 385
335 386
335 387
335 388
335 389
335 390
335 391
335 392
335 394
335 395
335 396
335 397
335 398
335 399
335 400
335 401
335 402
335 403
335 405
335 406
335 407
335 408
335 409
335 410
335 411
335 412
335 419
335 420
335 421
335 422
335 435
335 436
335 437
335 450
335 455
335 456
335 457
335 464
335 465
335 466
335 467
335 468
335 469
335 470
335 471
335 472
335 473
335 481
335 482
335 483
335 484
335 485
335 486
335 487
335 488
335 489
335 497
335 498
335 499
335 500
335 501
335 518
336 337
336 338
336 339
336 340
336 341
336 342
336 343
336 344
336 345
336 351
336 357
336 358
336 359
336 360
336 361
336 362
336 363
336 364
336 366
336 367
336 368
336 369
336 370
336 372
336 373
336 374
336 375
336 376
336 378
336 379
336 380
336 381
336 382
336 383
336 388
336 393
336 398
336 404
336 408
336 413
336 419
336 420
336 421
336 422
336 435
336 436
336 437
336 444
336 445
336 446
336 447
336 448
336 449
336 455
336 456
336 457
336 468
336 474
336 475
336 476
336 477
336 478
336 479
336 480
336 485
336 490
336 497
336 498
336 499
336 500
336 501
336 512
336 513
336 514
336 515
336 516
336 517
337 338
337 339
337 340
337 341
337 342
337 343
337 344
337 345
337 346
337 348
337 349
337 350
337 351
337 352
337 353
337 354
337 355
337 356
337 357
337 359
337 360
337 361
337 362
337 363
337 364
337 365
337 371
337 373
337 377
337 379
337 380
337 381
337 382
337 383
337 384
337 386
337 398
337 400
337 408
337 410
337 414
337 416
337 417
337 418
337 419
337 420
337 421
337 422
337 423
337 424
337 425
337 426
337 427
337 428
337 429
337 430
337 432
337 433
337 434
337 435
337 436
337 437
337 438
337 439
337 440
337 441
337 442
337 443
337 445
337 446
337 447
337 448
337 449
337 450
337 453
337 458
337 465
337 466
337 467
337 468
337 469
337 470
337 471
337 472
337 473
337 474
337 481
337 485
337 487
337 492
337 494
337 498
337 500
337 518
338 339
338 340
338 341
338 342
338 343
338 344
338 345
338 346
338 347
338 349
338 358
338 360
338 361
338 362
338 363
338 364
338 365
338 371
338 372
338 374
338 375
338 376
338 377
338 378
338 380
338 381
338 382
338 383
338 384
338 385
338 387
338 388
338 389
338 390
338 391
338 392
338 393
338 398
338 400
338 408
338 410
338 414
338 415
338 417
338 418
338 419
338 420
338 421
338 422
338 423
338 424
338 425
338 426
338 427
338 428
338 429
338 430
338 431
338 435
338 444
338 446
338 450
338 453
338 458
338 464
338 466
338 467
338 468
338 469
338 470
338 471
338 472
338 473
338 474
338 481
338 485
338 487
338 492
338 494
338 498
338 500
338 518
339 340
339 341
339 342
339 343
339 344
339 345
339 346
339 347
339 348
339 350
339 351
339 352
339 353
339 354
339 355
339 356
339 357
339 358
339 359
339 361
339 362
339 365
339 371
339 373
339 377
339 378
339 379
339 381
339 382
339 383
339 384
339 386
339 398
339 400
339 408
339 410
339 414
339 415
339 416
339 418
339 419
339 420
339 421
339 422
339 423
339 424
339 425
339 426
339 427
339 428
339 429
339 430
339 431
339 435
339 444
339 445
339 447
339 448
339 449
339 450
339 451
339 452
339 454
339 455
339 456
339 457
339 458
339 459
339 460
339 461
339 462
339 463
339 464
339 465
339 467
339 468
339 469
339 470
339 471
339 472
339 473
339 474
339 481
339 485
339 487
339 491
339 493
339 494
339 495
339 496
339 497
339 498
339 499
339 500
339 501
339 502
339 503
339 504
339 505
339 506
339 507
339 508
339 509
339 510
339 511
339 518
340 341
340 342
340 343
340 344
340 345
340 346
340 347
340 349
340 358
340 359
340 361
340 362
340 365
340 371
340 373
340 377
340 378
340 379
340 380
340 382
340 383
340 384
340 386
340 398
340 400
340 408
340 410
340 414
340 415
340 416
340 417
340 419
340 420
340 421
340 422
340 423
340 424
340 425
340 426
340 427
340 428
340 429
340 430
340 431
340 435
340 444
340 446
340 450
340 453
340 458
340 464
340 465
340 466
340 468
340 469
340 470
340 471
340 472
340 473
340 474
340 481
340 485
340 487
340 491
340 492
340 493
340 495
340 496
340 497
340 498
340 499
340 500
340 501
340 502
340 503
340 504
340 505
340 506
340 507
340 508
340 509
340 510
340 511
340 518
341 342
341 343
341 344
341 345
341 346
341 347
341 349
341 358
341 359
341 360
341 362
341 363
341 364
341 365
341 371
341 373
341 377
341 378
341 379
341 380
341 381
341 384
341 386
341 394
341 395
341 396
341 397
341 399
341 400
341 401
341 402
341 403
341 404
341 408
341 410
341 414
341 415
341 416
341 417
341 418
341 420
341 421
341 422
341 423
341 424
341 425
341 426
341 427
341 428
341 429
341 430
341 431
341 432
341 433
341 434
341 436
341 437
341 438
341 439
341 440
341 441
341 442
341 443
341 444
341 446
341 450
341 453
341 458
341 464
341 465
341 466
341 467
341 481
341 485
341 487
341 492
341 494
341 498
341 500
341 518
342 343
342 344
342 345
342 346
342 347
342 349
342 358
342 359
342 360
342 361
342 363
342 364
342 365
342 371
342 373
342 377
342 378
342 379
342 380
342 381
342 384
342 386
342 398
342 400
342 408
342 410
342 414
342 415
342 416
342 417
342 418
342 419
342 421
342 422
342 423
342 424
342 425
342 426
342 427
342 428
342 429
342 430
342 431
342 435
342 444
342 446
342 450
342 453
342 458
342 464
342 465
342 466
342 467
342 481
342 485
342 487
342 492
342 494
342 498
342 500
342 518
343 344
343 345
343 346
343 347
343 349
343 358
343 359
343 361
343 362
343 365
343 371
343 373
343 377
343 378
343 379
343 380
343 381
343 384
343 386
343 398
343 400
343 408
343 410
343 414
343 415
343 416
343 417
343 418
343 419
343 420
343 422
343 423
343 424
343 425
343 426
343 427
343 428
343 429
343 430
343 431
343 435
343 444
343 446
343 450
343 453
343 458
343 464
343 465
343 466
343 467
343 481
343 482
343 483
343 484
343 486
343 487
343 488
343 489
343 490
343 491
343 492
343 493
343 494
343 495
343 496
343 497
343 499
343 500
343 501
343 502
343 503
343 504
343 505
343 506
343 507
343 508
343 509
343 510
343 511
343 518
344 345
344 346
344 347
344 349
344 358
344 359
344 361
344 362
344 365
344 371
344 373
344 377
344 378
344 379
344 380
344 381
344 384
344 386
344 398
344 400
344 405
344 406
344 407
344 409
344 410
344 411
344 412
344 413
344 414
344 415
344 416
344 417
344 418
344 419
344 420
344 421
344 423
344 424
344 425
344 426
344 427
344 428
344 429
344 430
344 431
344 435
344 444
344 446
344 450
344 453
344 458
344 464
344 465
344 466
344 467
344 481
344 485
344 487
344 491
344 492
344 493
344 494
344 495
344 496
344 497
344 498
344 499
344 501
344 502
344 503
344 504
344 505
344 506
344 507
344 508
344 509
344 510
344 511
344 518
345 346
345 347
345 349
345 358
345 359
345 361
345 362
345 365
345 371
345 373
345 377
345 378
345 379
345 380
345 381
345 384
345 386
345 394
345 395
345 396
345 397
345 398
345 399
345 401
345 402
345 403
345 404
345 405
345 406
345 407
345 408
345 409
345 411
345 412
345 413
345 415
345 416
345 417
345 418
345 419
345 420
345 421
345 422
345 431
345 435
345 444
345 446
345 450
345 451
345 452
345 453
345 454
345 455
345 456
345 457
345 459
345 460
345 461
345 462
345 463
345 464
345 465
345 466
345 467
345 481
345 482
345 483
345 484
345 485
345 486
345 488
345 489
345 490
345 492
345 494
345 498
345 500
345 518
346 347
346 349
346 358
346 359
346 360
346 361
346 362
346 363
346 364
346 366
346 367
346 368
346 369
346 370
346 372
346 373
346 374
346 375
346 376
346 378
346 379
346 380
346 381
346 382
346 383
346 386
346 398
346 400
346 408
346 410
346 415
346 416
346 417
346 418
346 419
346 420
346 421
346 422
346 431
346 435
346 444
346 445
346 446
346 447
346 448
346 449
346 453
346 458
346 464
346 465
346 466
346 467
346 475
346 476
346 477
346 478
346 479
346 480
346 485
346 487
346 492
346 494
346 498
346 500
346 512
346 513
346 514
346 515
346 516
346 517
347 348
347 349
347 350
347 351
347 352
347 353
347 354
347 355
347 356
347 357
347 359
347 360
347 361
347 362
347 363
347 364
347 365
347 369
347 375
347 379
347 380
347 381
347 382
347 383
347 384
347 389
347 393
347 399
347 404
347 406
347 409
347 411
347 413
347 414
347 416
347 417
347 418
347 419
347 420
347 421
347 422
347 423
347 424
347 425
347 426
347 427
347 428
347 429
347 430
347 432
347 433
347 434
347 435
347 436
347 437
347 438
347 439
347 440
347 441
347 442
347 443
347 445
347 446
347 447
347 448
347 449
347 450
347 453
347 456
347 465
347 466
347 467
347 468
347 469
347 470
347 471
347 472
347 473
347 474
347 476
347 478
347 479
347 486
347 490
347 492
347 495
347 503
347 506
347 516
348 349
348 350
348 351
348 352
348 353
348 354
348 355
348 356
348 357
348 358
348 369
348 375
348 378
348 380
348 382
348 389
348 393
348 399
348 404
348 405
348 407
348 408
348 409
348 410
348 411
348 412
348 413
348 415
348 417
348 423
348 425
348 431
348 433
348 434
348 435
348 436
348 437
348 438
348 439
348 440
348 441
348 442
348 443
348 444
348 446
348 447
348 448
348 449
348 450
348 453
348 456
348 464
348 466
348 469
348 470
348 472
348 474
348 475
348 477
348 478
348 479
348 480
348 481
348 486
348 490
348 492
348 495
348 503
348 506
348 516
349 350
349 351
349 352
349 353
349 354
349 355
349 356
349 357
349 358
349 369
349 375
349 378
349 379
349 381
349 382
349 383
349 384
349 389
349 393
349 399
349 404
349 406
349 409
349 411
349 413
349 414
349 415
349 416
349 418
349 419
349 420
349 421
349 422
349 423
349 424
349 425
349 426
349 427
349 428
349 429
349 430
349 431
349 432
349 438
349 439
349 444
349 445
349 447
349 448
349 449
349 450
349 451
349 452
349 454
349 455
349 456
349 457
349 458
349 459
349 460
349 461
349 462
349 463
349 464
349 465
349 467
349 468
349 469
349 470
349 471
349 472
349 473
349 474
349 476
349 478
349 479
349 486
349 490
349 491
349 493
349 494
349 495
349 496
349 497
349 498
349 499
349 500
349 501
349 502
349 503
349 504
349 505
349 506
349 507
349 508
349 509
349 510
349 511
349 516
350 351
350 352
350 353
350 354
350 355
350 356
350 357
350 358
350 369
350 375
350 378
350 380
350 382
350 389
350 393
350 399
350 404
350 406
350 409
350 411
350 413
350 415
350 417
350 423
350 425
350 431
350 432
350 438
350 439
350 444
350 445
350 446
350 448
350 449
350 450
350 453
350 456
350 464
350 466
350 469
350 470
350 472
350 474
350 475
350 476
350 477
350 479
350 480
350 481
350 486
350 490
350 491
350 492
350 493
350 494
350 496
350 497
350 498
350 499
350 500
350 501
350 502
350 503
350 504
350 505
350 506
350 507
350 508
350 509
350 510
350 511
350 516
351 352
351 353
351 354
351 355
351 356
351 357
351 358
351 369
351 375
351 378
351 380
351 382
351 389
351 393
351 399
351 404
351 406
351 409
351 411
351 413
351 415
351 417
351 423
351 425
351 431
351 432
351 438
351 439
351 444
351 445
351 446
351 447
351 448
351 451
351 452
351 453
351 454
351 455
351 457
351 458
351 459
351 460
351 461
351 462
351 463
351 464
351 466
351 469
351 470
351 472
351 474
351 476
351 478
351 479
351 486
351 490
351 492
351 495
351 503
351 506
351 516
352 353
352 354
352 355
352 356
352 357
352 358
352 366
352 367
352 368
352 370
352 371
352 372
352 373
352 374
352 376
352 377
352 378
352 379
352 380
352 381
352 383
352 384
352 385
352 386
352 387
352 388
352 390
352 391
352 392
352 393
352 394
352 395
352 396
352 397
352 398
352 400
352 401
352 402
352 403
352 404
352 405
352 406
352 407
352 408
352 410
352 411
352 412
352 413
352 415
352 417
352 423
352 425
352 431
352 432
352 438
352 439
352 444
352 445
352 446
352 447
352 449
352 450
352 453
352 456
352 464
352 465
352 466
352 467
352 468
352 470
352 471
352 472
352 473
352 474
352 475
352 476
352 477
352 478
352 480
352 481
352 482
352 483
352 484
352 485
352 487
352 488
352 489
352 490
352 492
352 495
352 503
352 506
352 512
352 513
352 514
352 515
352 517
352 518
353 354
353 355
353 356
353 357
353 358
353 369
353 375
353 378
353 380
353 382
353 389
353 393
353 399
353 404
353 406
353 409
353 411
353 413
353 414
353 415
353 416
353 417
353 418
353 419
353 420
353 421
353 422
353 424
353 425
353 426
353 427
353 428
353 429
353 430
353 431
353 432
353 433
353 434
353 435
353 436
353 437
353 439
353 440
353 441
353 442
353 443
353 444
353 445
353 446
353 447
353 448
353 453
353 456
353 464
353 465
353 466
353 467
353 468
353 469
353 471
353 472
353 473
353 474
353 476
353 478
353 479
353 486
353 490
353 492
353 495
353 503
353 506
353 516
354 355
354 356
354 357
354 358
354 369
354 375
354 378
354 380
354 382
354 389
354 393
354 399
354 404
354 405
354 406
354 407
354 408
354 409
354 410
354 412
354 413
354 415
354 417
354 423
354 425
354 431
354 432
354 433
354 434
354 435
354 436
354 437
354 438
354 440
354 441
354 442
354 443
354 444
354 445
354 446
354 447
354 448
354 453
354 456
354 464
354 466
354 469
354 470
354 472
354 474
354 476
354 478
354 479
354 486
354 490
354 492
354 495
354 503
354 506
354 516
355 356
355 357
355 358
355 369
355 375
355 378
355 380
355 382
355 389
355 393
355 399
355 404
355 406
355 409
355 411
355 413
355 414
355 415
355 416
355 417
355 418
355 419
355 420
355 421
355 422
355 423
355 424
355 426
355 427
355 428
355 429
355 430
355 431
355 432
355 438
355 439
355 444
355 445
355 446
355 447
355 448
355 453
355 456
355 464
355 465
355 466
355 467
355 468
355 469
355 470
355 471
355 473
355 474
355 476
355 478
355 479
355 486
355 490
355 491
355 492
355 493
355 494
355 495
355 496
355 497
355 498
355 499
355 500
355 501
355 502
355 504
355 505
355 506
355 507
355 508
355 509
355 510
355 511
355 516
356 357
356 358
356 369
356 375
356 378
356 380
356 382
356 389
356 393
356 399
356 404
356 406
356 409
356 411
356 413
356 415
356 417
356 423
356 425
356 431
356 432
356 438
356 439
356 444
356 445
356 446
356 447
356 448
356 453
356 456
356 464
356 466
356 469
356 470
356 472
356 474
356 476
356 478
356 479
356 486
356 490
356 491
356 492
356 493
356 494
356 495
356 496
356 497
356 498
356 499
356 500
356 501
356 502
356 503
356 504
356 505
356 507
356 508
356 509
356 510
356 511
356 516
357 358
357 369
357 375
357 378
357 380
357 382
357 385
357 386
357 387
357 388
357 389
357 390
357 391
357 392
357 394
357 395
357 396
357 397
357 398
357 399
357 400
357 401
357 402
357 403
357 405
357 406
357 407
357 408
357 409
357 410
357 411
357 412
357 415
357 417
357 423
357 425
357 431
357 432
357 438
357 439
357 444
357 445
357 446
357 447
357 448
357 453
357 456
357 464
357 465
357 466
357 467
357 468
357 469
357 470
357 471
357 472
357 473
357 476
357 478
357 479
357 482
357 483
357 484
357 485
357 486
357 487
357 488
357 489
357 492
357 495
357 503
357 506
357 516
358 359
358 360
358 361
358 362
358 363
358 364
358 365
358 368
358 371
358 373
358 374
358 377
358 379
358 380
358 381
358 382
358 383
358 384
358 386
358 387
358 398
358 402
358 407
358 414
358 416
358 417
358 418
358 419
358 420
358 421
358 422
358 423
358 424
358 425
358 426
358 427
358 428
358 429
358 430
358 432
358 433
358 434
358 435
358 436
358 437
358 438
358 439
358 440
358 441
358 442
358 443
358 445
358 446
358 447
358 448
358 449
358 450
358 454
358 457
358 465
358 466
358 467
358 468
358 469
358 470
358 471
358 472
358 473
358 474
358 481
358 484
358 496
358 502
358 518
359 360
359 361
359 362
359 363
359 364
359 365
359 368
359 371
359 372
359 374
359 375
359 376
359 377
359 378
359 380
359 381
359 382
359 383
359 384
359 385
359 387
359 388
359 389
359 390
359 391
359 392
359 393
359 398
359 402
359 407
359 414
359 415
359 417
359 418
359 419
359 420
359 421
359 422
359 423
359 424
359 425
359 426
359 427
359 428
359 429
359 430
359 431
359 434
359 435
359 437
359 444
359 450
359 454
359 457
359 464
359 466
359 467
359 468
359 469
359 470
359 471
359 472
359 473
359 474
359 481
359 484
359 496
359 502
359 518
360 361
360 362
360 363
360 364
360 365
360 366
360 367
360 369
360 370
360 371
360 372
360 373
360 375
360 376
360 377
360 378
360 379
360 384
360 385
360 386
360 388
360 389
360 390
360 391
360 392
360 393
360 398
360 402
360 405
360 406
360 408
360 409
360 410
360 411
360 412
360 413
360 415
360 416
360 419
360 420
360 431
360 432
360 433
360 435
360 436
360 437
360 438
360 439
360 440
360 441
360 442
360 443
360 444
360 450
360 451
360 452
360 453
360 455
360 456
360 457
360 458
360 459
360 460
360 461
360 462
360 463
360 464
360 465
360 481
360 482
360 483
360 485
360 486
360 487
360 488
360 489
360 490
360 491
360 492
360 493
360 494
360 495
360 497
360 498
360 499
360 500
360 501
360 502
360 503
360 504
360 505
360 506
360 507
360 508
360 509
360 510
360 511
360 518
361 362
361 363
361 364
361 365
361 368
361 371
361 373
361 374
361 377
361 378
361 379
361 384
361 386
361 387
361 394
361 395
361 396
361 397
361 399
361 400
361 401
361 402
361 403
361 404
361 407
361 414
361 415
361 416
361 417
361 418
361 420
361 421
361 422
361 423
361 424
361 425
361 426
361 427
361 428
361 429
361 430
361 431
361 432
361 433
361 434
361 436
361 437
361 438
361 439
361 440
361 441
361 442
361 443
361 444
361 450
361 454
361 457
361 464
361 465
361 481
361 484
361 496
361 502
361 518
362 363
362 364
362 365
362 368
362 371
362 373
362 374
362 377
362 378
362 379
362 384
362 386
362 387
362 398
362 402
362 407
362 414
362 415
362 416
362 417
362 418
362 419
362 421
362 422
362 423
362 424
362 425
362 426
362 427
362 428
362 429
362 430
362 431
362 434
362 435
362 437
362 444
362 450
362 454
362 457
362 464
362 465
362 481
362 484
362 496
362 502
362 518
363 364
363 365
363 368
363 371
363 373
363 374
363 377
363 378
363 379
363 384
363 386
363 387
363 398
363 402
363 407
363 415
363 416
363 419
363 420
363 431
363 432
363 433
363 434
363 435
363 436
363 438
363 439
363 440
363 441
363 442
363 443
363 444
363 450
363 451
363 452
363 453
363 454
363 455
363 456
363 458
363 459
363 460
363 461
363 462
363 463
363 464
363 465
363 481
363 484
363 496
363 502
363 518
364 365
364 368
364 371
364 373
364 374
364 377
364 378
364 379
364 384
364 386
364 387
364 394
364 395
364 396
364 397
364 398
364 399
364 400
364 401
364 403
364 404
364 407
364 415
364 416
364 419
364 420
364 431
364 434
364 435
364 437
364 444
364 450
364 454
364 457
364 464
364 465
364 481
364 484
364 491
364 492
364 493
364 494
364 495
364 496
364 497
364 498
364 499
364 500
364 501
364 503
364 504
364 505
364 506
364 507
364 508
364 509
364 510
364 511
364 518
365 366
365 367
365 368
365 369
365 370
365 372
365 373
365 374
365 375
365 376
365 378
365 379
365 380
365 381
365 382
365 383
365 386
365 387
365 398
365 402
365 407
365 415
365 416
365 419
365 420
365 431
365 434
365 435
365 437
365 444
365 445
365 446
365 447
365 448
365 449
365 454
365 457
365 464
365 465
365 475
365 476
365 477
365 478
365 479
365 480
365 484
365 496
365 502
365 512
365 513
365 514
365 515
365 516
365 517
366 367
366 368
366 369
366 370
366 371
366 372
366 374
366 375
366 377
366 382
366 384
366 385
366 387
366 389
366 395
366 396
366 397
366 398
366 399
366 400
366 401
366 402
366 403
366 404
366 406
366 407
366 408
366 409
366 410
366 411
366 412
366 413
366 415
366 416
366 417
366 418
366 419
366 420
366 421
366 422
366 423
366 424
366 425
366 426
366 427
366 428
366 429
366 430
366 434
366 448
366 450
366 452
366 453
366 454
366 455
366 456
366 457
366 458
366 459
366 460
366 461
366 462
366 463
366 469
366 476
366 477
366 478
366 479
366 480
366 481
366 483
366 484
366 485
366 486
366 487
366 488
366 489
366 490
366 496
366 508
366 513
366 514
366 515
366 516
366 517
366 518
367 368
367 369
367 370
367 371
367 373
367 374
367 375
367 376
367 377
367 382
367 384
367 386
367 387
367 388
367 389
367 390
367 391
367 392
367 393
367 394
367 396
367 397
367 398
367 399
367 400
367 401
367 402
367 403
367 404
367 405
367 407
367 409
367 414
367 429
367 434
367 448
367 450
367 451
367 453
367 454
367 455
367 456
367 457
367 458
367 459
367 460
367 461
367 462
367 463
367 469
367 475
367 479
367 481
367 482
367 484
367 485
367 486
367 487
367 488
367 489
367 490
367 496
367 508
367 512
367 514
367 515
367 516
367 517
367 518
368 369
368 370
368 371
368 372
368 373
368 375
368 376
368 377
368 382
368 384
368 385
368 386
368 388
368 389
368 390
368 391
368 392
368 393
368 394
368 395
368 399
368 405
368 406
368 408
368 409
368 410
368 411
368 412
368 413
368 414
368 429
368 431
368 432
368 433
368 435
368 436
368 437
368 438
368 439
368 440
368 441
368 442
368 443
368 448
368 450
368 451
368 452
368 453
368 455
368 456
368 457
368 458
368 459
368 460
368 461
368 462
368 463
368 469
368 475
368 479
368 481
368 482
368 483
368 485
368 486
368 487
368 488
368 489
368 490
368 491
368 492
368 493
368 494
368 495
368 497
368 498
368 499
368 500
368 501
368 502
368 503
368 504
368 505
368 506
368 507
368 508
368 509
368 510
368 511
368 512
368 513
368 516
368 518
369 370
369 371
369 372
369 373
369 374
369 376
369 377
369 378
369 379
369 380
369 381
369 383
369 384
369 385
369 386
369 387
369 388
369 390
369 391
369 392
369 393
369 394
369 395
369 396
369 397
369 398
369 400
369 401
369 402
369 403
369 404
369 405
369 406
369 407
369 408
369 410
369 411
369 412
369 413
369 414
369 429
369 434
369 444
369 445
369 446
369 447
369 449
369 450
369 451
369 452
369 454
369 464
369 465
369 466
369 467
369 468
369 470
369 471
369 472
369 473
369 474
369 475
369 476
369 477
369 478
369 480
369 481
369 482
369 483
369 484
369 485
369 487
369 488
369 489
369 490
369 496
369 508
369 512
369 513
369 514
369 515
369 517
369 518
370 371
370 372
370 374
370 375
370 377
370 382
370 384
370 385
370 387
370 389
370 394
370 395
370 399
370 405
370 407
370 409
370 414
370 415
370 416
370 417
370 418
370 419
370 420
370 421
370 422
370 423
370 424
370 425
370 426
370 427
370 428
370 430
370 434
370 448
370 450
370 451
370 452
370 454
370 469
370 475
370 479
370 481
370 482
370 483
370 484
370 486
370 491
370 492
370 493
370 494
370 495
370 496
370 497
370 498
370 499
370 500
370 501
370 502
370 503
370 504
370 505
370 506
370 507
370 509
370 510
370 511
370 512
370 513
370 516
370 518
371 372
371 373
371 374
371 375
371 376
371 378
371 379
371 380
371 381
371 382
371 383
371 385
371 387
371 389
371 394
371 395
371 399
371 405
371 407
371 409
371 414
371 429
371 434
371 444
371 445
371 446
371 447
371 448
371 449
371 451
371 452
371 454
371 469
371 475
371 476
371 477
371 478
371 479
371 480
371 482
371 483
371 484
371 486
371 496
371 508
371 512
371 513
371 514
371 515
371 516
371 517
372 373
372 374
372 375
372 376
372 377
372 379
372 382
372 384
372 386
372 387
372 388
372 389
372 390
372 391
372 392
372 393
372 394
372 396
372 397
372 398
372 399
372 400
372 401
372 402
372 403
372 404
372 407
372 409
372 416
372 434
372 448
372 450
372 451
372 453
372 454
372 455
372 456
372 457
372 458
372 459
372 460
372 461
372 462
372 463
372 465
372 469
372 479
372 481
372 482
372 484
372 485
372 486
372 487
372 488
372 489
372 490
372 496
372 511
372 512
372 514
372 515
372 516
372 517
372 518
373 374
373 375
373 376
373 377
373 378
373 380
373 381
373 382
373 383
373 384
373 385
373 387
373 388
373 389
373 390
373 391
373 392
373 393
373 395
373 399
373 407
373 409
373 414
373 415
373 417
373 418
373 419
373 420
373 421
373 422
373 423
373 424
373 425
373 426
373 427
373 428
373 429
373 430
373 434
373 448
373 450
373 452
373 454
373 464
373 466
373 467
373 468
373 469
373 470
373 471
373 472
373 473
373 474
373 479
373 481
373 483
373 484
373 486
373 496
373 511
373 513
373 516
373 518
374 375
374 376
374 377
374 379
374 382
374 384
374 385
374 386
374 388
374 389
374 390
374 391
374 392
374 393
374 395
374 399
374 405
374 406
374 408
374 409
374 410
374 411
374 412
374 413
374 416
374 431
374 432
374 433
374 435
374 436
374 437
374 438
374 439
374 440
374 441
374 442
374 443
374 448
374 450
374 451
374 452
374 453
374 455
374 456
374 457
374 458
374 459
374 460
374 461
374 462
374 463
374 465
374 469
374 479
374 481
374 482
374 483
374 485
374 486
374 487
374 488
374 489
374 490
374 491
374 492
374 493
374 494
374 495
374 497
374 498
374 499
374 500
374 501
374 502
374 503
374 504
374 505
374 506
374 507
374 508
374 509
374 510
374 511
374 513
374 516
374 518
375 376
375 377
375 378
375 379
375 380
375 381
375 383
375 384
375 385
375 386
375 387
375 388
375 390
375 391
375 392
375 393
375 394
375 395
375 396
375 397
375 398
375 400
375 401
375 402
375 403
375 404
375 405
375 406
375 407
375 408
375 410
375 411
375 412
375 413
375 416
375 434
375 444
375 445
375 446
375 447
375 449
375 450
375 452
375 454
375 464
375 465
375 466
375 467
375 468
375 470
375 471
375 472
375 473
375 474
375 475
375 476
375 477
375 478
375 480
375 481
375 482
375 483
375 484
375 485
375 487
375 488
375 489
375 490
375 496
375 511
375 512
375 513
375 514
375 515
375 517
375 518
376 377
376 379
376 382
376 384
376 385
376 386
376 387
376 389
376 395
376 399
376 407
376 409
376 416
376 434
376 448
376 450
376 452
376 454
376 465
376 469
376 479
376 481
376 483
376 484
376 486
376 491
376 492
376 493
376 494
376 495
376 496
376 497
376 498
376 499
376 500
376 501
376 502
376 503
376 504
376 505
376 506
376 507
376 508
376 509
376 510
376 513
376 516
376 518
377 378
377 379
377 380
377 381
377 382
377 383
377 385
377 386
377 387
377 389
377 395
377 399
377 407
377 409
377 416
377 434
377 444
377 445
377 446
377 447
377 448
377 449
377 452
377 454
377 465
377 469
377 475
377 476
377 477
377 478
377 479
377 480
377 483
377 484
377 486
377 496
377 511
377 512
377 513
377 514
377 515
377 516
377 517
378 379
378 380
378 381
378 382
378 383
378 384
378 386
378 389
378 399
378 409
378 414
378 416
378 417
378 418
378 419
378 420
378 421
378 422
378 423
378 424
378 425
378 426
378 427
378 428
378 429
378 430
378 432
378 433
378 434
378 435
378 436
378 437
378 438
378 439
378 440
378 441
378 442
378 443
378 445
378 446
378 447
378 448
378 449
378 450
378 453
378 461
378 465
378 466
378 467
378 468
378 469
378 470
378 471
378 472
378 473
378 474
378 479
378 481
378 486
378 492
378 494
378 516
378 518
379 380
379 381
379 382
379 383
379 384
379 385
379 387
379 388
379 389
379 390
379 391
379 392
379 393
379 399
379 409
379 414
379 415
379 417
379 418
379 419
379 420
379 421
379 422
379 423
379 424
379 425
379 426
379 427
379 428
379 429
379 430
379 431
379 444
379 446
379 448
379 450
379 453
379 461
379 464
379 466
379 467
379 468
379 469
379 470
379 471
379 472
379 473
379 474
379 479
379 481
379 486
379 492
379 494
379 516
379 518
380 381
380 382
380 383
380 384
380 386
380 389
380 399
380 409
380 414
380 415
380 416
380 418
380 419
380 420
380 421
380 422
380 423
380 424
380 425
380 426
380 427
380 428
380 429
380 430
380 431
380 444
380 445
380 447
380 448
380 449
380 450
380 451
380 452
380 454
380 455
380 456
380 457
380 458
380 459
380 460
380 461
380 462
380 463
380 464
380 465
380 467
380 468
380 469
380 470
380 471
380 472
380 473
380 474
380 479
380 481
380 486
380 491
380 493
380 494
380 495
380 496
380 497
380 498
380 499
380 500
380 501
380 502
380 503
380 504
380 505
380 506
380 507
380 508
380 509
380 510
380 511
380 516
380 518
381 382
381 383
381 384
381 386
381 389
381 399
381 409
381 414
381 415
381 416
381 417
381 419
381 420
381 421
381 422
381 423
381 424
381 425
381 426
381 427
381 428
381 429
381 430
381 431
381 444
381 446
381 448
381 450
381 453
381 461
381 464
381 465
381 466
381 468
381 469
381 470
381 471
381 472
381 473
381 474
381 479
381 481
381 486
381 491
381 492
381 493
381 495
381 496
381 497
381 498
381 499
381 500
381 501
381 502
381 503
381 504
381 505
381 506
381 507
381 508
381 509
381 510
381 511
381 516
381 518
382 383
382 384
382 385
382 386
382 387
382 388
382 390
382 391
382 392
382 393
382 394
382 395
382 396
382 397
382 398
382 400
382 401
382 402
382 403
382 404
382 405
382 406
382 407
382 408
382 410
382 411
382 412
382 413
382 415
382 416
382 417
382 418
382 431
382 444
382 445
382 446
382 447
382 449
382 450
382 453
382 461
382 464
382 465
382 466
382 467
382 468
382 470
382 471
382 472
382 473
382 474
382 475
382 476
382 477
382 478
382 480
382 481
382 482
382 483
382 484
382 485
382 487
382 488
382 489
382 490
382 492
382 494
382 512
382 513
382 514
382 515
382 517
382 518
383 384
383 386
383 389
383 399
383 409
383 415
383 416
383 417
383 418
383 431
383 444
383 446
383 448
383 450
383 451
383 452
383 453
383 454
383 455
383 456
383 457
383 458
383 459
383 460
383 462
383 463
383 464
383 465
383 466
383 467
383 469
383 479
383 481
383 486
383 492
383 494
383 516
383 518
384 386
384 389
384 399
384 409
384 415
384 416
384 417
384 418
384 431
384 444
384 445
384 446
384 447
384 448
384 449
384 453
384 461
384 464
384 465
384 466
384 467
384 469
384 475
384 476
384 477
384 478
384 479
384 480
384 486
384 492
384 494
384 512
384 513
384 514
384 515
384 516
384 517
385 386
385 387
385 388
385 389
385 390
385 391
385 392
385 393
385 394
385 396
385 397
385 398
385 399
385 400
385 401
385 402
385 403
385 404
385 407
385 409
385 412
385 413
385 416
385 424
385 434
385 440
385 448
385 451
385 453
385 454
385 455
385 456
385 457
385 458
385 459
385 460
385 461
385 462
385 463
385 465
385 469
385 471
385 474
385 479
385 482
385 484
385 485
385 486
385 487
385 488
385 489
385 490
385 496
385 501
385 512
385 514
385 515
385 516
385 517
385 518
386 387
386 388
386 389
386 390
386 391
386 392
386 393
386 395
386 399
386 401
386 404
386 407
386 409
386 412
386 413
386 414
386 415
386 417
386 418
386 419
386 420
386 421
386 422
386 423
386 424
386 425
386 426
386 427
386 428
386 429
386 430
386 434
386 440
386 448
386 452
386 454
386 459
386 460
386 464
386 466
386 467
386 468
386 469
386 470
386 471
386 472
386 473
386 474
386 479
386 483
386 484
386 486
386 488
386 489
386 490
386 496
386 501
386 513
386 516
387 388
387 389
387 390
387 391
387 392
387 393
387 395
387 399
387 401
387 404
387 405
387 406
387 408
387 409
387 410
387 411
387 412
387 413
387 416
387 424
387 431
387 432
387 433
387 435
387 436
387 437
387 438
387 439
387 440
387 441
387 442
387 443
387 448
387 451
387 452
387 453
387 455
387 456
387 457
387 458
387 459
387 460
387 461
387 462
387 463
387 465
387 469
387 471
387 474
387 479
387 482
387 483
387 485
387 486
387 487
387 488
387 489
387 490
387 491
387 492
387 493
387 494
387 495
387 497
387 498
387 499
387 500
387 501
387 502
387 503
387 504
387 505
387 506
387 507
387 508
387 509
387 510
387 511
387 513
387 516
388 389
388 390
388 391
388 392
388 393
388 395
388 399
388 401
388 404
388 407
388 409
388 412
388 413
388 416
388 424
388 434
388 440
388 448
388 452
388 454
388 459
388 460
388 465
388 469
388 471
388 474
388 479
388 483
388 484
388 486
388 488
388 489
388 490
388 491
388 492
388 493
388 494
388 495
388 496
388 497
388 498
388 499
388 500
388 502
388 503
388 504
388 505
388 506
388 507
388 508
388 509
388 510
388 511
388 513
388 516
389 390
389 391
389 392
389 393
389 394
389 395
389 396
389 397
389 398
389 400
389 401
389 402
389 403
389 404
389 405
389 406
389 407
389 408
389 410
389 411
389 412
389 413
389 416
389 424
389 434
389 440
389 444
389 445
389 446
389 447
389 449
389 450
389 452
389 454
389 459
389 460
389 464
389 465
389 466
389 467
389 468
389 470
389 471
389 472
389 473
389 474
389 475
389 476
389 477
389 478
389 480
389 481
389 482
389 483
389 484
389 485
389 487
389 488
389 489
389 490
389 496
389 501
389 512
389 513
389 514
389 515
389 517
389 518
390 391
390 392
390 393
390 394
390 395
390 396
390 397
390 398
390 399
390 400
390 402
390 403
390 404
390 407
390 409
390 412
390 413
390 416
390 424
390 434
390 440
390 448
390 451
390 452
390 453
390 454
390 455
390 456
390 457
390 458
390 460
390 461
390 462
390 463
390 465
390 469
390 471
390 474
390 479
390 482
390 483
390 484
390 485
390 486
390 487
390 489
390 490
390 496
390 501
390 513
390 516
391 392
391 393
391 395
391 399
391 401
391 404
391 407
391 409
391 412
391 413
391 414
391 415
391 416
391 417
391 418
391 419
391 420
391 421
391 422
391 423
391 425
391 426
391 427
391 428
391 429
391 430
391 434
391 440
391 448
391 452
391 454
391 459
391 460
391 464
391 465
391 466
391 467
391 468
391 469
391 470
391 472
391 473
391 474
391 479
391 483
391 484
391 486
391 488
391 489
391 490
391 496
391 501
391 513
391 516
392 393
392 395
392 399
392 401
392 404
392 405
392 406
392 407
392 408
392 409
392 410
392 411
392 413
392 416
392 424
392 431
392 432
392 433
392 434
392 435
392 436
392 437
392 438
392 439
392 441
392 442
392 443
392 448
392 451
392 452
392 453
392 454
392 455
392 456
392 457
392 458
392 459
392 461
392 462
392 463
392 465
392 469
392 471
392 474
392 479
392 482
392 483
392 484
392 485
392 486
392 487
392 488
392 490
392 496
392 501
392 513
392 516
393 394
393 395
393 396
393 397
393 398
393 399
393 400
393 401
393 402
393 403
393 405
393 406
393 407
393 408
393 409
393 410
393 411
393 412
393 416
393 424
393 434
393 440
393 448
393 452
393 454
393 459
393 460
393 464
393 465
393 466
393 467
393 468
393 469
393 470
393 471
393 472
393 473
393 479
393 482
393 483
393 484
393 485
393 486
393 487
393 488
393 489
393 496
393 501
393 513
393 516
394 395
394 396
394 397
394 398
394 399
394 400
394 401
394 402
394 403
394 404
394 406
394 407
394 408
394 409
394 410
394 411
394 412
394 413
394 415
394 416
394 417
394 418
394 419
394 420
394 421
394 422
394 423
394 424
394 425
394 426
394 427
394 428
394 429
394 430
394 433
394 435
394 448
394 452
394 453
394 454
394 455
394 456
394 457
394 458
394 459
394 460
394 461
394 462
394 463
394 469
394 474
394 476
394 477
394 478
394 479
394 480
394 481
394 483
394 484
394 485
394 486
394 487
394 488
394 489
394 490
394 491
394 493
394 502
394 504
394 513
394 514
394 515
394 516
394 517
394 518
395 396
395 397
395 398
395 399
395 400
395 401
395 402
395 403
395 404
395 405
395 409
395 410
395 413
395 414
395 419
395 433
395 435
395 448
395 451
395 453
395 454
395 455
395 456
395 457
395 458
395 459
395 460
395 461
395 462
395 463
395 469
395 474
395 475
395 477
395 479
395 482
395 484
395 485
395 486
395 487
395 488
395 489
395 490
395 491
395 493
395 502
395 504
395 512
395 514
395 515
395 516
395 517
395 518
396 397
396 398
396 399
396 400
396 401
396 402
396 403
396 404
396 405
396 409
396 410
396 413
396 414
396 419
396 433
396 435
396 448
396 451
396 452
396 458
396 459
396 469
396 474
396 475
396 476
396 478
396 479
396 480
396 481
396 482
396 483
396 486
396 487
396 488
396 490
396 492
396 493
396 494
396 495
396 496
396 497
396 498
396 499
396 500
396 501
396 502
396 503
396 504
396 505
396 506
396 507
396 508
396 509
396 510
396 511
396 512
396 513
396 515
396 516
396 517
396 518
397 398
397 399
397 400
397 401
397 402
397 403
397 404
397 405
397 409
397 410
397 413
397 414
397 419
397 431
397 432
397 434
397 435
397 436
397 437
397 438
397 439
397 440
397 441
397 442
397 443
397 448
397 451
397 452
397 458
397 459
397 469
397 474
397 475
397 477
397 479
397 482
397 483
397 486
397 487
397 488
397 490
397 491
397 492
397 494
397 495
397 496
397 497
397 498
397 499
397 500
397 501
397 502
397 503
397 504
397 505
397 506
397 507
397 508
397 509
397 510
397 511
397 512
397 513
397 514
397 516
397 517
397 518
398 399
398 400
398 401
398 402
398 403
398 404
398 405
398 409
398 410
398 413
398 414
398 415
398 416
398 417
398 418
398 420
398 421
398 422
398 423
398 424
398 425
398 426
398 427
398 428
398 429
398 430
398 431
398 432
398 433
398 434
398 436
398 437
398 438
398 439
398 440
398 441
398 442
398 443
398 448
398 451
398 452
398 458
398 459
398 469
398 474
398 475
398 477
398 479
398 482
398 483
398 486
398 487
398 488
398 490
398 491
398 493
398 502
398 504
398 512
398 513
398 514
398 515
398 516
399 400
399 401
399 402
399 403
399 404
399 405
399 406
399 407
399 408
399 410
399 411
399 412
399 413
399 414
399 419
399 433
399 435
399 444
399 445
399 446
399 447
399 449
399 450
399 451
399 452
399 458
399 459
399 464
399 465
399 466
399 467
399 468
399 470
399 471
399 472
399 473
399 474
399 475
399 476
399 477
399 478
399 480
399 481
399 482
399 483
399 484
399 485
399 487
399 488
399 489
399 490
399 491
399 493
399 502
399 504
399 512
399 513
399 514
399 515
399 517
399 518
400 401
400 402
400 403
400 404
400 405
400 406
400 407
400 408
400 409
400 411
400 412
400 413
400 414
400 419
400 433
400 435
400 448
400 451
400 452
400 453
400 454
400 455
400 456
400 457
400 459
400 460
400 461
400 462
400 463
400 469
400 474
400 475
400 477
400 479
400 482
400 483
400 484
400 485
400 486
400 488
400 489
400 490
400 491
400 493
400 502
400 504
400 512
400 513
400 514
400 515
400 516
401 402
401 403
401 404
401 405
401 409
401 410
401 413
401 414
401 419
401 433
401 435
401 448
401 451
401 452
401 453
401 454
401 455
401 456
401 457
401 458
401 460
401 461
401 462
401 463
401 469
401 474
401 475
401 477
401 479
401 482
401 483
401 484
401 485
401 486
401 487
401 489
401 490
401 491
401 493
401 502
401 504
401 512
401 513
401 514
401 515
401 516
402 403
402 404
402 405
402 409
402 410
402 413
402 414
402 419
402 433
402 435
402 448
402 451
402 452
402 458
402 459
402 469
402 474
402 475
402 477
402 479
402 482
402 483
402 486
402 487
402 488
402 490
402 491
402 492
402 493
402 494
402 495
402 496
402 497
402 498
402 499
402 500
402 501
402 503
402 504
402 505
402 506
402 507
402 508
402 509
402 510
402 511
402 512
402 513
402 514
402 515
402 516
403 404
403 405
403 409
403 410
403 413
403 414
403 419
403 433
403 435
403 448
403 451
403 452
403 458
403 459
403 469
403 474
403 475
403 477
403 479
403 482
403 483
403 486
403 487
403 488
403 490
403 491
403 492
403 493
403 494
403 495
403 496
403 497
403 498
403 499
403 500
403 501
403 502
403 503
403 505
403 506
403 507
403 508
403 509
403 510
403 511
403 512
403 513
403 514
403 515
403 516
404 405
404 406
404 407
404 408
404 409
404 410
404 411
404 412
404 414
404 419
404 433
404 435
404 448
404 451
404 452
404 458
404 459
404 464
404 465
404 466
404 467
404 468
404 469
404 470
404 471
404 472
404 473
404 475
404 477
404 479
404 482
404 483
404 484
404 485
404 486
404 487
404 488
404 489
404 491
404 493
404 502
404 504
404 512
404 513
404 514
404 515
404 516
405 406
405 407
405 408
405 409
405 410
405 411
405 412
405 413
405 415
405 416
405 417
405 418
405 419
405 420
405 421
405 422
405 423
405 424
405 425
405 426
405 427
405 428
405 429
405 430
405 432
405 434
405 439
405 440
405 445
405 448
405 452
405 453
405 454
405 455
405 456
405 457
405 458
405 459
405 460
405 461
405 462
405 463
405 469
405 474
405 476
405 477
405 478
405 479
405 480
405 481
405 483
405 484
405 485
405 486
405 487
405 488
405 489
405 490
405 496
405 500
405 513
405 514
405 515
405 516
405 517
405 518
406 407
406 408
406 409
406 410
406 411
406 412
406 413
406 414
406 422
406 431
406 433
406 434
406 435
406 436
406 437
406 438
406 439
406 440
406 441
406 442
406 443
406 444
406 446
406 447
406 448
406 449
406 450
406 451
406 454
406 458
406 460
406 469
406 474
406 475
406 477
406 478
406 479
406 480
406 481
406 482
406 484
406 486
406 487
406 489
406 490
406 496
406 500
406 512
406 516
407 408
407 409
407 410
407 411
407 412
407 413
407 414
407 422
407 431
407 432
407 433
407 435
407 436
407 437
407 438
407 439
407 440
407 441
407 442
407 443
407 445
407 448
407 451
407 452
407 453
407 455
407 456
407 457
407 458
407 459
407 460
407 461
407 462
407 463
407 469
407 474
407 475
407 476
407 479
407 482
407 483
407 485
407 486
407 487
407 488
407 489
407 490
407 491
407 492
407 493
407 494
407 495
407 497
407 498
407 499
407 500
407 501
407 502
407 503
407 504
407 505
407 506
407 507
407 508
407 509
407 510
407 511
407 512
407 516
408 409
408 410
408 411
408 412
408 413
408 414
408 415
408 416
408 417
408 418
408 419
408 420
408 421
408 423
408 424
408 425
408 426
408 427
408 428
408 429
408 430
408 432
408 434
408 439
408 440
408 445
408 448
408 451
408 454
408 458
408 460
408 469
408 474
408 475
408 476
408 479
408 482
408 484
408 486
408 487
408 489
408 490
408 491
408 492
408 493
408 494
408 495
408 496
408 497
408 498
408 499
408 501
408 502
408 503
408 504
408 505
408 506
408 507
408 508
408 509
408 510
408 511
408 512
408 516
409 410
409 411
409 412
409 413
409 414
409 422
409 432
409 434
409 439
409 440
409 444
409 445
409 446
409 447
409 449
409 450
409 451
409 454
409 458
409 460
409 464
409 465
409 466
409 467
409 468
409 470
409 471
409 472
409 473
409 474
409 475
409 476
409 477
409 478
409 480
409 481
409 482
409 483
409 484
409 485
409 487
409 488
409 489
409 490
409 496
409 500
409 512
409 513
409 514
409 515
409 517
409 518
410 411
410 412
410 413
410 414
410 422
410 432
410 434
410 439
410 440
410 445
410 448
410 451
410 452
410 453
410 454
410 455
410 456
410 457
410 459
410 460
410 461
410 462
410 463
410 469
410 474
410 475
410 476
410 479
410 482
410 483
410 484
410 485
410 486
410 488
410 489
410 490
410 496
410 500
410 512
410 516
411 412
411 413
411 414
411 422
411 431
411 432
411 433
411 434
411 435
411 436
411 437
411 438
411 440
411 441
411 442
411 443
411 445
411 448
411 451
411 454
411 458
411 460
411 469
411 474
411 475
411 476
411 479
411 482
411 484
411 486
411 487
411 489
411 490
411 496
411 500
411 512
411 516
412 413
412 414
412 422
412 431
412 432
412 433
412 434
412 435
412 436
412 437
412 438
412 439
412 441
412 442
412 443
412 445
412 448
412 451
412 452
412 453
412 454
412 455
412 456
412 457
412 458
412 459
412 461
412 462
412 463
412 469
412 474
412 475
412 476
412 479
412 482
412 483
412 484
412 485
412 486
412 487
412 488
412 490
412 496
412 500
412 512
412 516
413 414
413 422
413 432
413 434
413 439
413 440
413 445
413 448
413 451
413 454
413 458
413 460
413 464
413 465
413 466
413 467
413 468
413 469
413 470
413 471
413 472
413 473
413 475
413 476
413 479
413 482
413 483
413 484
413 485
413 486
413 487
413 488
413 489
413 496
413 500
413 512
413 516
414 415
414 416
414 417
414 418
414 419
414 420
414 421
414 422
414 423
414 424
414 425
414 426
414 427
414 428
414 429
414 430
414 431
414 435
414 438
414 441
414 444
414 446
414 452
414 453
414 454
414 455
414 456
414 457
414 458
414 459
414 460
414 461
414 462
414 463
414 464
414 465
414 466
414 467
414 470
414 471
414 472
414 473
414 476
414 477
414 478
414 479
414 480
414 481
414 483
414 484
414 485
414 486
414 487
414 488
414 489
414 490
414 492
414 494
414 498
414 500
414 503
414 505
414 508
414 510
414 513
414 514
414 515
414 516
414 517
414 518
415 416
415 417
415 418
415 419
415 420
415 421
415 422
415 423
415 424
415 425
415 426
415 427
415 428
415 429
415 430
415 432
415 433
415 434
415 435
415 436
415 437
415 438
415 439
415 440
415 441
415 442
415 443
415 445
415 446
415 447
415 448
415 449
415 450
415 451
415 453
415 465
415 466
415 467
415 468
415 469
415 470
415 471
415 472
415 473
415 474
415 475
415 480
415 482
415 485
415 492
415 494
415 498
415 500
415 503
415 505
415 508
415 510
415 512
415 517
416 417
416 418
416 419
416 420
416 421
416 422
416 423
416 424
416 425
416 426
416 427
416 428
416 429
416 430
416 431
416 435
416 438
416 441
416 444
416 446
416 451
416 453
416 464
416 466
416 467
416 468
416 469
416 470
416 471
416 472
416 473
416 474
416 475
416 480
416 482
416 485
416 492
416 494
416 498
416 500
416 503
416 505
416 508
416 510
416 512
416 517
417 418
417 419
417 420
417 421
417 422
417 423
417 424
417 425
417 426
417 427
417 428
417 429
417 430
417 431
417 435
417 438
417 441
417 444
417 445
417 447
417 448
417 449
417 450
417 451
417 452
417 454
417 455
417 456
417 457
417 458
417 459
417 460
417 461
417 462
417 463
417 464
417 465
417 467
417 468
417 469
417 470
417 471
417 472
417 473
417 474
417 475
417 480
417 482
417 485
417 491
417 493
417 494
417 495
417 496
417 497
417 498
417 499
417 500
417 501
417 502
417 503
417 504
417 505
417 506
417 507
417 508
417 509
417 510
417 511
417 512
417 517
418 419
418 420
418 421
418 422
418 423
418 424
418 425
418 426
418 427
418 428
418 429
418 430
418 431
418 435
418 438
418 441
418 444
418 446
418 451
418 453
418 464
418 465
418 466
418 468
418 469
418 470
418 471
418 472
418 473
418 474
418 475
418 480
418 482
418 485
418 491
418 492
418 493
418 495
418 496
418 497
418 498
418 499
418 500
418 501
418 502
418 503
418 504
418 505
418 506
418 507
418 508
418 509
418 510
418 511
418 512
418 517
419 420
419 421
419 422
419 423
419 424
419 425
419 426
419 427
419 428
419 429
419 430
419 431
419 432
419 433
419 434
419 436
419 437
419 438
419 439
419 440
419 441
419 442
419 443
419 444
419 446
419 451
419 453
419 464
419 465
419 466
419 467
419 470
419 471
419 472
419 473
419 475
419 480
419 482
419 485
419 492
419 494
419 498
419 500
419 503
419 505
419 508
419 510
419 512
419 517
420 421
420 422
420 423
420 424
420 425
420 426
420 427
420 428
420 429
420 430
420 431
420 435
420 438
420 441
420 444
420 446
420 451
420 453
420 464
420 465
420 466
420 467
420 470
420 471
420 472
420 473
420 475
420 480
420 482
420 485
420 492
420 494
420 498
420 500
420 503
420 505
420 508
420 510
420 512
420 517
421 422
421 423
421 424
421 425
421 426
421 427
421 428
421 429
421 430
421 431
421 435
421 438
421 441
421 444
421 446
421 451
421 453
421 464
421 465
421 466
421 467
421 470
421 471
421 472
421 473
421 475
421 480
421 482
421 483
421 484
421 486
421 487
421 488
421 489
421 490
421 491
421 492
421 493
421 494
421 495
421 496
421 497
421 499
421 500
421 501
421 502
421 503
421 504
421 505
421 506
421 507
421 508
421 509
421 510
421 511
421 512
421 517
422 423
422 424
422 425
422 426
422 427
422 428
422 429
422 430
422 431
422 435
422 438
422 441
422 444
422 446
422 451
422 453
422 464
422 465
422 466
422 467
422 470
422 471
422 472
422 473
422 475
422 480
422 482
422 485
422 491
422 492
422 493
422 494
422 495
422 496
422 497
422 498
422 499
422 501
422 502
422 503
422 504
422 505
422 506
422 507
422 508
422 509
422 510
422 511
422 512
422 517
423 424
423 425
423 426
423 427
423 428
423 429
423 430
423 431
423 432
423 433
423 434
423 435
423 436
423 437
423 439
423 440
423 441
423 442
423 443
423 444
423 446
423 451
423 453
423 464
423 465
423 466
423 467
423 468
423 469
423 471
423 472
423 473
423 474
423 475
423 480
423 482
423 485
423 492
423 494
423 498
423 500
423 503
423 505
423 508
423 510
423 512
423 517
424 425
424 426
424 427
424 428
424 429
424 430
424 431
424 435
424 438
424 441
424 444
424 446
424 451
424 453
424 464
424 465
424 466
424 467
424 468
424 469
424 470
424 472
424 473
424 474
424 475
424 480
424 482
424 485
424 492
424 494
424 498
424 500
424 503
424 505
424 508
424 510
424 512
424 517
425 426
425 427
425 428
425 429
425 430
425 431
425 435
425 438
425 441
425 444
425 446
425 451
425 453
425 464
425 465
425 466
425 467
425 468
425 469
425 470
425 471
425 473
425 474
425 475
425 480
425 482
425 485
425 491
425 492
425 493
425 494
425 495
425 496
425 497
425 498
425 499
425 500
425 501
425 502
425 504
425 505
425 506
425 507
425 508
425 509
425 510
425 511
425 512
425 517
426 427
426 428
426 429
426 430
426 431
426 435
426 438
426 441
426 444
426 446
426 451
426 453
426 464
426 465
426 466
426 467
426 468
426 469
426 470
426 471
426 472
426 474
426 475
426 480
426 482
426 485
426 491
426 492
426 493
426 494
426 495
426 496
426 497
426 498
426 499
426 500
426 501
426 502
426 503
426 504
426 506
426 507
426 508
426 509
426 510
426 511
426 512
426 517
427 428
427 429
427 430
427 431
427 432
427 433
427 434
427 435
427 436
427 437
427 438
427 439
427 440
427 442
427 443
427 444
427 446
427 451
427 453
427 464
427 465
427 466
427 467
427 470
427 471
427 472
427 473
427 475
427 480
427 482
427 485
427 492
427 494
427 498
427 500
427 503
427 505
427 508
427 510
427 512
427 513
427 514
427 515
427 516
427 518
428 429
428 430
428 431
428 435
428 438
428 441
428 444
428 446
428 451
428 453
428 464
428 465
428 466
428 467
428 470
428 471
428 472
428 473
428 475
428 476
428 477
428 478
428 479
428 481
428 482
428 485
428 492
428 494
428 498
428 500
428 503
428 505
428 508
428 510
428 512
428 517
429 430
429 431
429 435
429 438
429 441
429 444
429 446
429 451
429 453
429 464
429 465
429 466
429 467
429 470
429 471
429 472
429 473
429 475
429 480
429 482
429 485
429 491
429 492
429 493
429 494
429 495
429 496
429 497
429 498
429 499
429 500
429 501
429 502
429 503
429 504
429 505
429 506
429 507
429 509
429 510
429 511
429 512
429 517
430 431
430 435
430 438
430 441
430 444
430 446
430 451
430 453
430 464
430 465
430 466
430 467
430 470
430 471
430 472
430 473
430 475
430 480
430 482
430 485
430 491
430 492
430 493
430 494
430 495
430 496
430 497
430 498
430 499
430 500
430 501
430 502
430 503
430 504
430 505
430 506
430 507
430 508
430 509
430 511
430 512
430 517
431 432
431 433
431 434
431 435
431 436
431 437
431 438
431 439
431 440
431 441
431 442
431 443
431 445
431 446
431 447
431 448
431 449
431 450
431 454
431 457
431 460
431 463
431 465
431 466
431 467
431 468
431 469
431 470
431 471
431 472
431 473
431 474
431 476
431 484
431 489
431 493
431 496
431 515
431 517
432 433
432 434
432 435
432 436
432 437
432 438
432 439
432 440
432 441
432 442
432 443
432 444
432 446
432 447
432 448
432 449
432 450
432 454
432 457
432 460
432 463
432 464
432 470
432 475
432 477
432 478
432 479
432 480
432 481
432 484
432 489
432 493
432 496
432 515
432 517
433 434
433 435
433 436
433 437
433 438
433 439
433 440
433 441
433 442
433 443
433 444
433 445
433 454
433 457
433 460
433 463
433 464
433 470
433 476
433 484
433 489
433 491
433 492
433 494
433 495
433 496
433 497
433 498
433 499
433 500
433 501
433 502
433 503
433 504
433 505
433 506
433 507
433 508
433 509
433 510
433 511
433 512
433 513
433 514
433 516
433 517
433 518
434 435
434 436
434 437
434 438
434 439
434 440
434 441
434 442
434 443
434 444
434 445
434 451
434 452
434 453
434 455
434 456
434 457
434 458
434 459
434 460
434 461
434 462
434 463
434 464
434 470
434 476
434 482
434 483
434 485
434 486
434 487
434 488
434 489
434 490
434 491
434 492
434 493
434 494
434 495
434 497
434 498
434 499
434 500
434 501
434 502
434 503
434 504
434 505
434 506
434 507
434 508
434 509
434 510
434 511
434 515
434 517
435 436
435 437
435 438
435 439
435 440
435 441
435 442
435 443
435 444
435 445
435 454
435 457
435 460
435 463
435 464
435 470
435 476
435 484
435 489
435 493
435 496
435 515
435 517
436 437
436 438
436 439
436 440
436 441
436 442
436 443
436 444
436 445
436 454
436 457
436 460
436 463
436 464
436 470
436 476
436 484
436 489
436 493
436 496
436 515
436 517
437 438
437 439
437 440
437 441
437 442
437 443
437 444
437 445
437 451
437 452
437 453
437 454
437 455
437 456
437 458
437 459
437 460
437 461
437 462
437 463
437 464
437 470
437 476
437 484
437 489
437 493
437 496
437 515
437 517
438 439
438 440
438 441
438 442
438 443
438 444
438 445
438 454
438 457
438 460
438 463
438 464
438 465
438 466
438 467
438 468
438 469
438 471
438 472
438 473
438 474
438 476
438 484
438 489
438 493
438 496
438 515
438 517
439 440
439 441
439 442
439 443
439 444
439 445
439 454
439 457
439 460
439 463
439 464
439 470
439 476
439 484
439 489
439 493
439 496
439 515
439 517
440 441
440 442
440 443
440 444
440 445
440 451
440 452
440 453
440 454
440 455
440 456
440 457
440 458
440 459
440 461
440 462
440 463
440 464
440 470
440 476
440 482
440 483
440 484
440 485
440 486
440 487
440 488
440 490
440 493
440 496
440 515
440 517
441 442
441 443
441 444
441 445
441 454
441 457
441 460
441 463
441 464
441 470
441 476
441 484
441 489
441 493
441 496
441 512
441 513
441 514
441 515
441 516
441 518
442 443
442 444
442 445
442 454
442 457
442 460
442 463
442 464
442 470
442 476
442 484
442 489
442 493
442 496
442 515
442 517
443 444
443 445
443 451
443 452
443 453
443 454
443 455
443 456
443 457
443 458
443 459
443 460
443 461
443 462
443 464
443 470
443 476
443 484
443 489
443 493
443 496
443 515
443 517
444 445
444 446
444 447
444 448
444 449
444 450
444 453
444 462
444 465
444 466
444 467
444 468
444 469
444 470
444 471
444 472
444 473
444 474
444 476
444 478
444 479
444 481
444 486
444 492
444 495
444 516
444 518
445 446
445 447
445 448
445 449
445 450
445 453
445 462
445 464
445 466
445 469
445 475
445 477
445 478
445 479
445 480
445 481
445 486
445 492
445 495
445 516
445 518
446 447
446 448
446 449
446 450
446 451
446 452
446 454
446 455
446 456
446 457
446 458
446 459
446 460
446 461
446 462
446 463
446 464
446 465
446 467
446 468
446 469
446 470
446 471
446 472
446 473
446 474
446 476
446 478
446 479
446 481
446 486
446 491
446 493
446 494
446 495
446 496
446 497
446 498
446 499
446 500
446 501
446 502
446 503
446 504
446 505
446 506
446 507
446 508
446 509
446 510
446 511
446 516
446 518
447 448
447 449
447 450
447 453
447 462
447 464
447 466
447 469
447 475
447 476
447 477
447 479
447 480
447 481
447 486
447 491
447 492
447 493
447 494
447 496
447 497
447 498
447 499
447 500
447 501
447 502
447 503
447 504
447 505
447 506
447 507
447 508
447 509
447 510
447 511
447 516
447 518
448 449
448 450
448 453
448 462
448 464
448 465
448 466
448 467
448 468
448 470
448 471
448 472
448 473
448 474
448 475
448 476
448 477
448 478
448 480
448 481
448 482
448 483
448 484
448 485
448 487
448 488
448 489
448 490
448 492
448 495
448 512
448 513
448 514
448 515
448 517
448 518
449 450
449 451
449 452
449 453
449 454
449 455
449 456
449 457
449 458
449 459
449 460
449 461
449 463
449 464
449 466
449 469
449 476
449 478
449 479
449 481
449 486
449 492
449 495
449 516
449 518
450 453
450 462
450 464
450 466
450 469
450 475
450 476
450 477
450 478
450 479
450 480
450 486
450 492
450 495
450 512
450 513
450 514
450 515
450 516
450 517
451 452
451 453
451 454
451 455
451 456
451 457
451 458
451 459
451 460
451 461
451 462
451 463
451 466
451 468
451 476
451 477
451 478
451 479
451 480
451 481
451 483
451 484
451 485
451 486
451 487
451 488
451 489
451 490
451 492
451 496
451 513
451 514
451 515
451 516
451 517
451 518
452 453
452 454
452 455
452 456
452 457
452 458
452 459
452 460
452 461
452 462
452 463
452 466
452 468
452 475
452 482
452 484
452 485
452 486
452 487
452 488
452 489
452 490
452 492
452 496
452 512
452 514
452 515
452 516
452 517
452 518
453 454
453 455
453 456
453 457
453 458
453 459
453 460
453 461
453 462
453 463
453 464
453 465
453 467
453 468
453 469
453 470
453 471
453 472
453 473
453 474
453 475
453 482
453 483
453 484
453 487
453 488
453 489
453 491
453 493
453 494
453 495
453 496
453 497
453 498
453 499
453 500
453 501
453 502
453 503
453 504
453 505
453 506
453 507
453 508
453 509
453 510
453 511
453 512
453 513
454 455
454 456
454 457
454 458
454 459
454 460
454 461
454 462
454 463
454 466
454 468
454 475
454 482
454 483
454 485
454 486
454 487
454 488
454 489
454 490
454 491
454 492
454 493
454 494
454 495
454 497
454 498
454 499
454 500
454 501
454 502
454 503
454 504
454 505
454 506
454 507
454 508
454 509
454 510
454 511
454 512
454 513
455 456
455 457
455 458
455 459
455 460
455 461
455 462
455 463
455 464
455 465
455 466
455 467
455 469
455 470
455 471
455 472
455 473
455 474
455 475
455 482
455 483
455 484
455 487
455 488
455 489
455 492
455 496
455 512
455 513
456 457
456 458
456 459
456 460
456 461
456 462
456 463
456 466
456 468
456 475
456 482
456 483
456 484
456 487
456 488
456 489
456 492
456 496
456 512
456 513
457 458
457 459
457 460
457 461
457 462
457 463
457 466
457 468
457 475
457 482
457 483
457 484
457 487
457 488
457 489
457 492
457 496
457 512
457 513
458 459
458 460
458 461
458 462
458 463
458 466
458 468
458 475
458 482
458 483
458 484
458 485
458 486
458 488
458 489
458 490
458 492
458 496
458 512
458 513
459 460
459 461
459 462
459 463
459 466
459 468
459 475
459 482
459 483
459 484
459 485
459 486
459 487
459 489
459 490
459 492
459 496
459 512
459 513
460 461
460 462
460 463
460 466
460 468
460 475
460 482
460 483
460 484
460 485
460 486
460 487
460 488
460 490
460 492
460 496
460 512
460 513
461 462
461 463
461 466
461 468
461 475
461 482
461 483
461 484
461 487
461 488
461 489
461 492
461 496
461 512
461 513
462 463
462 466
462 468
462 475
462 482
462 483
462 484
462 487
462 488
462 489
462 492
462 496
462 512
462 513
463 466
463 468
463 475
463 482
463 483
463 484
463 487
463 488
463 489
463 492
463 496
463 512
463 513
464 465
464 466
464 467
464 468
464 469
464 470
464 471
464 472
464 473
464 474
464 479
464 486
464 490
464 492
464 494
464 503
464 505
464 516
465 466
465 467
465 468
465 469
465 470
465 471
465 472
465 473
465 474
465 479
465 486
465 490
465 492
465 494
465 503
465 505
465 516
466 467
466 468
466 469
466 470
466 471
466 472
466 473
466 474
466 479
466 486
466 490
466 491
466 493
466 494
466 495
466 496
466 497
466 498
466 499
466 500
466 501
466 502
466 503
466 504
466 505
466 506
466 507
466 508
466 509
466 510
466 511
466 516
467 468
467 469
467 470
467 471
467 472
467 473
467 474
467 479
467 486
467 490
467 491
467 492
467 493
467 495
467 496
467 497
467 498
467 499
467 500
467 501
467 502
467 503
467 504
467 505
467 506
467 507
467 508
467 509
467 510
467 511
467 516
468 469
468 470
468 471
468 472
468 473
468 474
468 479
468 486
468 490
468 492
468 494
468 503
468 505
468 516
469 470
469 471
469 472
469 473
469 474
469 475
469 476
469 477
469 478
469 480
469 481
469 482
469 483
469 484
469 485
469 487
469 488
469 489
469 490
469 492
469 494
469 503
469 505
469 512
469 513
469 514
469 515
469 517
469 518
470 471
470 472
470 473
470 474
470 479
470 486
470 490
470 492
470 494
470 503
470 505
470 516
471 472
471 473
471 474
471 479
471 486
471 490
471 492
471 494
471 503
471 505
471 516
472 473
472 474
472 479
472 486
472 490
472 491
472 492
472 493
472 494
472 495
472 496
472 497
472 498
472 499
472 500
472 501
472 502
472 504
472 505
472 506
472 507
472 508
472 509
472 510
472 511
472 516
473 474
473 479
473 486
473 490
473 491
473 492
473 493
473 494
473 495
473 496
473 497
473 498
473 499
473 500
473 501
473 502
473 503
473 504
473 506
473 507
473 508
473 509
473 510
473 511
473 516
474 479
474 482
474 483
474 484
474 485
474 486
474 487
474 488
474 489
474 492
474 494
474 503
474 505
474 516
475 476
475 477
475 478
475 479
475 480
475 481
475 483
475 484
475 485
475 486
475 487
475 488
475 489
475 490
475 491
475 495
475 513
475 514
475 515
475 516
475 517
475 518
476 477
476 478
476 479
476 480
476 481
476 482
476 486
476 491
476 495
476 512
476 514
476 516
476 518
477 478
477 479
477 480
477 481
477 482
477 486
477 492
477 493
477 494
477 495
477 496
477 497
477 498
477 499
477 500
477 501
477 502
477 503
477 504
477 505
477 506
477 507
477 508
477 509
477 510
477 511
477 512
477 513
477 515
477 516
477 517
477 518
478 479
478 480
478 481
478 482
478 486
478 491
478 492
478 493
478 494
478 496
478 497
478 498
478 499
478 500
478 501
478 502
478 503
478 504
478 505
478 506
478 507
478 508
478 509
478 510
478 511
478 512
478 514
478 516
478 518
479 480
479 481
479 482
479 483
479 484
479 485
479 487
479 488
479 489
479 490
479 491
479 495
479 512
479 513
479 514
479 515
479 517
479 518
480 481
480 482
480 486
480 491
480 495
480 512
480 514
480 516
480 518
481 482
481 486
481 491
481 495
481 512
481 513
481 514
481 515
481 516
481 517
482 483
482 484
482 485
482 486
482 487
482 488
482 489
482 490
482 496
482 498
482 513
482 514
482 515
482 516
482 517
482 518
483 484
483 485
483 486
483 487
483 488
483 489
483 490
483 496
483 498
483 512
483 514
483 515
483 516
483 517
483 518
484 485
484 486
484 487
484 488
484 489
484 490
484 491
484 492
484 493
484 494
484 495
484 497
484 498
484 499
484 500
484 501
484 502
484 503
484 504
484 505
484 506
484 507
484 508
484 509
484 510
484 511
484 512
484 513
484 516
485 486
485 487
485 488
485 489
485 490
485 491
485 492
485 493
485 494
485 495
485 496
485 497
485 499
485 500
485 501
485 502
485 503
485 504
485 505
485 506
485 507
485 508
485 509
485 510
485 511
485 512
485 513
485 516
486 487
486 488
486 489
486 490
486 496
486 498
486 512
486 513
486 514
486 515
486 517
486 518
487 488
487 489
487 490
487 496
487 498
487 512
487 513
487 516
488 489
488 490
488 496
488 498
488 512
488 513
488 516
489 490
489 496
489 498
489 512
489 513
489 516
490 496
490 498
490 512
490 513
490 516
491 492
491 493
491 494
491 495
491 496
491 497
491 498
491 499
491 500
491 501
491 502
491 503
491 504
491 505
491 506
491 507
491 508
491 509
491 510
491 511
491 512
491 513
491 515
491 516
491 517
491 518
492 493
492 494
492 495
492 496
492 497
492 498
492 499
492 500
492 501
492 502
492 503
492 504
492 505
492 506
492 507
492 508
492 509
492 510
492 511
492 514
492 515
493 494
493 495
493 496
493 497
493 498
493 499
493 500
493 501
493 502
493 503
493 504
493 505
493 506
493 507
493 508
493 509
493 510
493 511
493 512
493 513
493 514
493 516
493 517
493 518
494 495
494 496
494 497
494 498
494 499
494 500
494 501
494 502
494 503
494 504
494 505
494 506
494 507
494 508
494 509
494 510
494 511
494 514
494 515
495 496
495 497
495 498
495 499
495 500
495 501
495 502
495 503
495 504
495 505
495 506
495 507
495 508
495 509
495 510
495 511
495 514
495 515
496 497
496 498
496 499
496 500
496 501
496 502
496 503
496 504
496 505
496 506
496 507
496 508
496 509
496 510
496 511
496 514
496 515
497 498
497 499
497 500
497 501
497 502
497 503
497 504
497 505
497 506
497 507
497 508
497 509
497 510
497 511
497 514
497 515
498 499
498 500
498 501
498 502
498 503
498 504
498 505
498 506
498 507
498 508
498 509
498 510
498 511
498 514
498 515
499 500
499 501
499 502
499 503
499 504
499 505
499 506
499 507
499 508
499 509
499 510
499 511
499 514
499 515
500 501
500 502
500 503
500 504
500 505
500 506
500 507
500 508
500 509
500 510
500 511
500 514
500 515
501 502
501 503
501 504
501 505
501 506
501 507
501 508
501 509
501 510
501 511
501 514
501 515
502 503
502 504
502 505
502 506
502 507
502 508
502 509
502 510
502 511
502 514
502 515
503 504
503 505
503 506
503 507
503 508
503 509
503 510
503 511
503 514
503 515
504 505
504 506
504 507
504 508
504 509
504 510
504 511
504 514
504 515
505 506
505 507
505 508
505 509
505 510
505 511
505 514
505 515
506 507
506 508
506 509
506 510
506 511
506 514
506 515
507 508
507 509
507 510
507 511
507 514
507 515
508 509
508 510
508 511
508 514
508 515
509 510
509 511
509 514
509 515
510 511
510 514
510 515
511 514
511 515
512 513
512 514
512 515
512 516
512 517
512 518
513 514
513 515
513 516
513 517
513 518
514 515
514 516
514 517
514 518
515 516
515 517
515 518
516 517
516 518
517 518
