110:2992
0 2
0 4
0 5
0 8
0 9
0 11
0 13
0 14
0 15
0 17
0 19
0 20
0 21
0 22
0 27
0 28
0 29
0 30
0 33
0 34
0 35
0 37
0 39
0 40
0 42
0 43
0 45
0 47
0 49
0 51
0 52
0 53
0 56
0 61
0 62
0 64
0 65
0 68
0 69
0 70
0 72
0 77
0 78
0 82
0 85
0 87
0 88
0 91
0 95
0 96
0 97
0 98
0 102
0 104
0 109
1 3
1 4
1 5
1 6
1 8
1 10
1 11
1 14
1 15
1 23
1 24
1 29
1 31
1 32
1 33
1 35
1 39
1 42
1 43
1 45
1 46
1 47
1 48
1 49
1 50
1 51
1 53
1 55
1 58
1 59
1 60
1 61
1 63
1 64
1 65
1 68
1 70
1 75
1 76
1 78
1 79
1 80
1 82
1 85
1 86
1 88
1 89
1 91
1 93
1 100
1 104
1 105
1 107
1 108
2 3
2 5
2 6
2 7
2 11
2 12
2 17
2 18
2 19
2 21
2 23
2 24
2 25
2 26
2 29
2 30
2 31
2 33
2 35
2 36
2 40
2 42
2 44
2 47
2 48
2 50
2 51
2 54
2 57
2 60
2 63
2 65
2 66
2 67
2 70
2 71
2 74
2 75
2 78
2 80
2 81
2 83
2 85
2 86
2 87
2 92
2 93
2 94
2 95
2 98
2 99
2 100
2 104
2 105
2 106
2 107
2 109
3 4
3 5
3 7
3 9
3 10
3 11
3 12
3 15
3 16
3 19
3 20
3 21
3 22
3 24
3 26
3 27
3 29
3 32
3 33
3 34
3 36
3 39
3 40
3 41
3 43
3 47
3 49
3 51
3 53
3 55
3 57
3 60
3 61
3 62
3 63
3 65
3 68
3 70
3 72
3 77
3 78
3 80
3 81
3 82
3 83
3 87
3 91
3 93
3 95
3 97
3 98
3 99
3 102
3 109
4 6
4 9
4 11
4 12
4 14
4 15
4 17
4 18
4 19
4 21
4 23
4 25
4 27
4 28
4 29
4 30
4 31
4 32
4 37
4 40
4 41
4 43
4 45
4 48
4 49
4 51
4 55
4 56
4 57
4 58
4 60
4 65
4 67
4 69
4 70
4 77
4 79
4 81
4 88
4 89
4 90
4 93
4 96
4 97
4 100
4 101
4 103
4 104
4 105
4 108
4 109
5 7
5 9
5 12
5 13
5 15
5 16
5 18
5 19
5 20
5 21
5 22
5 23
5 30
5 31
5 34
5 35
5 39
5 41
5 42
5 46
5 47
5 48
5 49
5 53
5 54
5 55
5 56
5 57
5 61
5 63
5 64
5 67
5 70
5 71
5 77
5 79
5 82
5 84
5 91
5 94
5 95
5 97
5 98
5 103
5 104
5 105
5 108
5 109
6 7
6 8
6 12
6 13
6 14
6 18
6 19
6 20
6 21
6 22
6 24
6 27
6 28
6 29
6 33
6 35
6 36
6 37
6 44
6 47
6 48
6 49
6 51
6 53
6 54
6 56
6 57
6 60
6 67
6 70
6 73
6 74
6 75
6 77
6 80
6 81
6 84
6 88
6 89
6 93
6 94
6 95
6 96
6 101
6 102
6 104
6 105
6 108
6 109
7 8
7 9
7 10
7 11
7 14
7 16
7 17
7 18
7 20
7 21
7 24
7 27
7 28
7 29
7 31
7 32
7 36
7 37
7 39
7 41
7 42
7 47
7 48
7 54
7 56
7 57
7 58
7 62
7 63
7 64
7 65
7 66
7 67
7 69
7 74
7 76
7 77
7 78
7 80
7 82
7 89
7 90
7 96
7 99
7 100
7 101
7 102
7 105
7 108
7 109
8 9
8 10
8 18
8 19
8 20
8 22
8 23
8 25
8 26
8 29
8 32
8 33
8 34
8 35
8 36
8 37
8 38
8 39
8 40
8 41
8 44
8 45
8 47
8 48
8 49
8 50
8 52
8 53
8 54
8 57
8 58
8 59
8 60
8 61
8 62
8 63
8 64
8 65
8 68
8 70
8 71
8 73
8 78
8 79
8 81
8 84
8 85
8 87
8 89
8 90
8 93
8 94
8 95
8 97
8 99
8 100
8 101
8 102
8 103
8 104
8 107
8 109
9 10
9 11
9 14
9 18
9 19
9 21
9 22
9 27
9 29
9 30
9 31
9 33
9 36
9 40
9 42
9 43
9 46
9 51
9 53
9 55
9 57
9 59
9 60
9 62
9 64
9 67
9 70
9 71
9 73
9 76
9 78
9 79
9 81
9 84
9 85
9 86
9 88
9 90
9 91
9 94
9 95
9 97
9 99
9 100
9 102
9 105
9 107
9 108
10 15
10 21
10 22
10 25
10 26
10 27
10 28
10 29
10 30
10 32
10 33
10 39
10 41
10 43
10 47
10 48
10 49
10 50
10 52
10 53
10 56
10 59
10 61
10 62
10 63
10 64
10 65
10 66
10 67
10 69
10 71
10 72
10 73
10 74
10 76
10 77
10 78
10 79
10 81
10 82
10 84
10 86
10 87
10 90
10 94
10 95
10 97
10 99
10 101
10 104
10 105
10 106
10 109
11 12
11 15
11 16
11 21
11 25
11 28
11 29
11 31
11 32
11 33
11 35
11 37
11 41
11 42
11 44
11 45
11 46
11 48
11 52
11 53
11 56
11 57
11 58
11 59
11 60
11 61
11 62
11 63
11 64
11 66
11 69
11 70
11 71
11 73
11 77
11 79
11 81
11 88
11 94
11 96
11 98
11 101
11 103
11 105
11 106
11 109
12 13
12 14
12 15
12 18
12 22
12 23
12 25
12 28
12 32
12 33
12 36
12 38
12 41
12 42
12 44
12 46
12 47
12 49
12 50
12 51
12 52
12 55
12 57
12 58
12 60
12 65
12 67
12 68
12 69
12 70
12 72
12 73
12 74
12 76
12 78
12 85
12 86
12 87
12 89
12 92
12 94
12 97
12 98
12 100
12 101
12 105
12 108
13 16
13 18
13 20
13 22
13 23
13 24
13 26
13 30
13 36
13 39
13 44
13 46
13 47
13 49
13 51
13 52
13 54
13 55
13 60
13 62
13 65
13 67
13 68
13 75
13 76
13 77
13 78
13 79
13 81
13 82
13 84
13 87
13 88
13 90
13 93
13 94
13 95
13 97
13 100
13 101
13 103
13 107
13 109
14 15
14 17
14 18
14 20
14 22
14 26
14 28
14 29
14 30
14 31
14 33
14 36
14 37
14 38
14 43
14 44
14 46
14 48
14 53
14 54
14 58
14 61
14 64
14 65
14 67
14 72
14 74
14 75
14 77
14 78
14 81
14 82
14 84
14 86
14 89
14 91
14 92
14 95
14 97
14 98
14 99
14 100
14 101
14 104
14 105
14 107
14 108
15 17
15 18
15 19
15 24
15 25
15 26
15 27
15 28
15 29
15 30
15 31
15 32
15 33
15 35
15 36
15 38
15 41
15 45
15 50
15 51
15 52
15 54
15 56
15 58
15 59
15 60
15 61
15 62
15 63
15 65
15 66
15 70
15 71
15 73
15 75
15 76
15 78
15 80
15 81
15 82
15 83
15 84
15 85
15 88
15 90
15 91
15 93
15 96
15 97
15 100
15 102
15 104
15 109
16 17
16 20
16 21
16 23
16 24
16 27
16 28
16 29
16 31
16 34
16 35
16 38
16 39
16 41
16 42
16 43
16 44
16 45
16 47
16 48
16 50
16 51
16 52
16 59
16 62
16 63
16 64
16 65
16 66
16 71
16 73
16 74
16 78
16 79
16 82
16 84
16 91
16 95
16 96
16 99
16 100
16 101
16 103
16 104
16 105
16 108
17 18
17 19
17 23
17 24
17 25
17 26
17 27
17 28
17 29
17 30
17 31
17 34
17 37
17 42
17 43
17 49
17 50
17 52
17 53
17 55
17 56
17 57
17 59
17 60
17 61
17 62
17 63
17 65
17 66
17 69
17 70
17 74
17 75
17 77
17 78
17 80
17 82
17 83
17 88
17 91
17 93
17 96
17 99
17 101
17 103
17 104
17 106
17 108
17 109
18 21
18 22
18 24
18 27
18 28
18 32
18 33
18 34
18 37
18 40
18 41
18 42
18 43
18 44
18 48
18 50
18 52
18 55
18 56
18 58
18 59
18 61
18 63
18 65
18 67
18 68
18 70
18 72
18 74
18 77
18 85
18 86
18 88
18 90
18 92
18 94
18 95
18 101
18 102
18 106
18 107
18 108
18 109
19 20
19 21
19 22
19 23
19 24
19 26
19 30
19 33
19 35
19 37
19 39
19 41
19 43
19 44
19 46
19 47
19 50
19 51
19 53
19 54
19 56
19 58
19 61
19 62
19 63
19 66
19 70
19 72
19 73
19 76
19 79
19 80
19 83
19 86
19 88
19 91
19 96
19 97
19 99
19 101
19 103
19 104
19 106
19 107
19 109
20 22
20 23
20 24
20 27
20 30
20 31
20 32
20 33
20 36
20 37
20 38
20 39
20 41
20 46
20 47
20 48
20 51
20 53
20 54
20 56
20 58
20 60
20 61
20 62
20 64
20 65
20 67
20 68
20 69
20 70
20 71
20 73
20 75
20 76
20 77
20 79
20 80
20 81
20 85
20 87
20 88
20 91
20 93
20 94
20 95
20 96
20 97
20 98
20 100
20 101
20 102
20 103
20 105
20 108
20 109
21 22
21 25
21 26
21 27
21 28
21 29
21 30
21 33
21 34
21 36
21 37
21 38
21 40
21 42
21 45
21 47
21 51
21 53
21 56
21 57
21 58
21 59
21 63
21 64
21 67
21 68
21 69
21 71
21 73
21 75
21 76
21 77
21 79
21 80
21 81
21 85
21 86
21 87
21 88
21 90
21 92
21 93
21 94
21 97
21 98
21 99
21 101
21 105
21 107
22 23
22 24
22 25
22 26
22 29
22 30
22 31
22 34
22 36
22 37
22 38
22 41
22 44
22 45
22 50
22 52
22 53
22 55
22 56
22 58
22 61
22 64
22 65
22 68
22 69
22 70
22 71
22 75
22 77
22 80
22 82
22 88
22 91
22 93
22 94
22 98
22 99
22 101
22 104
22 106
23 25
23 27
23 28
23 29
23 30
23 31
23 32
23 34
23 35
23 36
23 38
23 40
23 41
23 42
23 43
23 45
23 46
23 47
23 49
23 51
23 57
23 59
23 62
23 67
23 74
23 76
23 77
23 78
23 79
23 81
23 82
23 83
23 84
23 85
23 87
23 88
23 91
23 95
23 100
23 101
23 104
23 105
23 106
23 108
24 25
24 29
24 30
24 41
24 42
24 44
24 45
24 48
24 55
24 56
24 57
24 59
24 60
24 63
24 64
24 66
24 67
24 68
24 70
24 71
24 78
24 79
24 80
24 83
24 84
24 85
24 88
24 89
24 91
24 93
24 97
24 99
24 100
24 103
24 104
24 106
24 107
25 28
25 32
25 35
25 36
25 37
25 38
25 42
25 43
25 44
25 46
25 49
25 50
25 51
25 54
25 55
25 56
25 58
25 59
25 61
25 64
25 66
25 67
25 69
25 70
25 72
25 77
25 82
25 83
25 86
25 94
25 95
25 97
25 98
25 102
25 104
25 105
25 106
25 109
26 27
26 29
26 32
26 33
26 34
26 35
26 36
26 38
26 41
26 43
26 48
26 49
26 53
26 54
26 55
26 56
26 59
26 61
26 64
26 65
26 66
26 69
26 72
26 74
26 75
26 76
26 79
26 80
26 83
26 85
26 86
26 87
26 91
26 92
26 97
26 98
26 99
26 105
26 106
26 109
27 28
27 30
27 32
27 33
27 36
27 43
27 44
27 45
27 48
27 49
27 50
27 51
27 52
27 54
27 59
27 60
27 61
27 62
27 63
27 64
27 65
27 67
27 70
27 71
27 73
27 76
27 77
27 79
27 80
27 85
27 86
27 87
27 88
27 90
27 93
27 94
27 95
27 99
27 101
27 102
27 104
27 108
27 109
28 29
28 31
28 32
28 33
28 34
28 39
28 43
28 50
28 52
28 53
28 56
28 59
28 60
28 61
28 65
28 66
28 68
28 69
28 71
28 74
28 75
28 76
28 77
28 79
28 81
28 82
28 83
28 84
28 85
28 86
28 87
28 88
28 92
28 93
28 96
28 98
28 99
28 100
28 103
28 105
28 107
28 109
29 30
29 32
29 33
29 34
29 35
29 37
29 40
29 42
29 43
29 44
29 45
29 47
29 48
29 49
29 54
29 56
29 58
29 59
29 61
29 62
29 64
29 65
29 66
29 68
29 70
29 71
29 72
29 73
29 76
29 78
29 80
29 81
29 85
29 86
29 87
29 89
29 90
29 91
29 96
29 98
29 99
29 100
29 101
29 103
29 107
29 109
30 34
30 35
30 36
30 38
30 39
30 40
30 41
30 44
30 46
30 47
30 48
30 49
30 52
30 53
30 54
30 55
30 56
30 59
30 60
30 64
30 67
30 68
30 72
30 74
30 79
30 82
30 83
30 89
30 90
30 92
30 96
30 99
30 101
30 102
30 104
30 108
31 32
31 34
31 37
31 38
31 39
31 40
31 42
31 43
31 44
31 45
31 47
31 48
31 51
31 54
31 55
31 57
31 62
31 66
31 68
31 70
31 71
31 73
31 74
31 77
31 78
31 80
31 82
31 85
31 86
31 88
31 94
31 95
31 96
31 97
31 98
31 104
31 105
31 109
32 34
32 35
32 36
32 42
32 43
32 44
32 45
32 46
32 47
32 51
32 52
32 53
32 54
32 55
32 56
32 59
32 60
32 61
32 62
32 64
32 66
32 67
32 69
32 72
32 73
32 79
32 80
32 82
32 83
32 84
32 87
32 88
32 89
32 92
32 97
32 101
32 102
32 106
32 107
32 108
32 109
33 36
33 42
33 45
33 47
33 48
33 55
33 56
33 57
33 60
33 62
33 64
33 65
33 66
33 67
33 70
33 71
33 72
33 74
33 75
33 77
33 79
33 80
33 83
33 84
33 86
33 87
33 88
33 91
33 92
33 93
33 94
33 96
33 98
33 99
33 100
33 101
33 102
33 105
33 106
33 108
33 109
34 35
34 37
34 38
34 42
34 43
34 48
34 49
34 50
34 52
34 53
34 56
34 57
34 60
34 63
34 68
34 69
34 70
34 74
34 77
34 80
34 81
34 84
34 85
34 86
34 87
34 89
34 91
34 92
34 94
34 95
34 97
34 103
34 104
34 106
35 39
35 42
35 43
35 44
35 45
35 46
35 47
35 49
35 51
35 59
35 60
35 63
35 64
35 65
35 67
35 71
35 76
35 79
35 80
35 81
35 84
35 88
35 89
35 90
35 92
35 93
35 94
35 98
35 102
35 105
35 108
36 37
36 39
36 40
36 41
36 42
36 45
36 47
36 48
36 52
36 54
36 58
36 65
36 67
36 75
36 76
36 77
36 79
36 80
36 83
36 87
36 89
36 92
36 93
36 94
36 95
36 97
36 98
36 99
36 100
36 101
36 104
37 38
37 40
37 42
37 44
37 46
37 47
37 49
37 50
37 52
37 54
37 55
37 57
37 59
37 69
37 70
37 75
37 76
37 77
37 81
37 83
37 84
37 85
37 87
37 88
37 92
37 93
37 95
37 97
37 101
37 102
37 104
37 106
37 107
37 108
38 39
38 40
38 41
38 44
38 45
38 46
38 50
38 52
38 53
38 56
38 59
38 60
38 63
38 64
38 68
38 69
38 72
38 74
38 75
38 77
38 78
38 79
38 85
38 86
38 87
38 88
38 89
38 90
38 92
38 93
38 94
38 95
38 96
38 97
38 98
38 99
38 100
38 101
38 103
38 104
38 107
38 109
39 40
39 43
39 46
39 51
39 52
39 54
39 55
39 56
39 57
39 62
39 65
39 66
39 68
39 69
39 71
39 73
39 76
39 77
39 78
39 80
39 85
39 87
39 91
39 94
39 95
39 100
39 102
39 103
39 107
39 108
39 109
40 41
40 43
40 46
40 47
40 48
40 49
40 51
40 54
40 55
40 60
40 63
40 65
40 67
40 70
40 71
40 72
40 76
40 77
40 78
40 79
40 80
40 82
40 84
40 89
40 90
40 92
40 95
40 96
40 98
40 99
40 101
40 102
40 104
40 107
41 42
41 44
41 45
41 46
41 48
41 52
41 54
41 59
41 63
41 64
41 65
41 67
41 68
41 70
41 71
41 72
41 75
41 76
41 77
41 79
41 80
41 82
41 83
41 86
41 87
41 89
41 92
41 95
41 97
41 100
41 101
41 102
41 103
41 104
41 105
41 107
42 44
42 45
42 47
42 51
42 52
42 54
42 55
42 60
42 67
42 71
42 73
42 75
42 76
42 77
42 78
42 79
42 81
42 82
42 86
42 88
42 89
42 91
42 92
42 93
42 97
42 98
42 99
42 101
42 102
42 103
42 104
42 106
42 107
43 44
43 45
43 46
43 47
43 48
43 49
43 50
43 55
43 56
43 58
43 60
43 62
43 63
43 65
43 66
43 68
43 69
43 70
43 72
43 73
43 74
43 75
43 78
43 82
43 83
43 86
43 87
43 88
43 92
43 95
43 97
43 98
43 99
43 100
43 101
43 102
43 104
43 106
43 109
44 45
44 46
44 47
44 50
44 52
44 54
44 56
44 57
44 59
44 61
44 63
44 64
44 66
44 67
44 68
44 69
44 70
44 71
44 72
44 73
44 74
44 75
44 80
44 81
44 82
44 83
44 86
44 88
44 89
44 92
44 93
44 94
44 96
44 99
44 102
44 104
44 105
44 106
44 108
45 47
45 48
45 52
45 54
45 55
45 56
45 57
45 60
45 65
45 69
45 71
45 73
45 75
45 77
45 78
45 79
45 80
45 83
45 86
45 91
45 92
45 93
45 95
45 96
45 98
45 99
45 102
45 103
45 104
45 107
45 109
46 47
46 53
46 55
46 56
46 60
46 62
46 65
46 66
46 69
46 71
46 74
46 77
46 79
46 83
46 86
46 87
46 88
46 90
46 91
46 92
46 94
46 95
46 96
46 100
46 101
46 103
46 104
47 51
47 52
47 56
47 61
47 63
47 64
47 65
47 66
47 67
47 71
47 76
47 77
47 78
47 80
47 82
47 86
47 87
47 88
47 89
47 91
47 92
47 94
47 95
47 97
47 99
47 100
47 102
47 103
47 104
47 105
48 51
48 55
48 57
48 59
48 61
48 62
48 64
48 65
48 66
48 67
48 68
48 70
48 71
48 72
48 73
48 74
48 75
48 77
48 78
48 79
48 80
48 83
48 85
48 88
48 89
48 91
48 93
48 96
48 97
48 99
48 100
48 101
48 102
48 103
48 105
48 106
48 108
49 52
49 54
49 56
49 58
49 59
49 63
49 65
49 66
49 67
49 68
49 69
49 70
49 71
49 72
49 74
49 77
49 78
49 79
49 81
49 82
49 83
49 84
49 85
49 87
49 89
49 92
49 93
49 96
49 97
49 99
49 101
49 102
49 105
49 106
49 107
50 51
50 55
50 58
50 60
50 61
50 68
50 72
50 73
50 74
50 76
50 77
50 78
50 84
50 85
50 86
50 88
50 91
50 92
50 93
50 95
50 96
50 104
50 105
50 106
50 108
50 109
51 53
51 54
51 55
51 56
51 60
51 62
51 64
51 66
51 67
51 68
51 69
51 70
51 71
51 73
51 75
51 81
51 82
51 84
51 86
51 88
51 90
51 92
51 93
51 94
51 98
51 100
51 105
51 106
51 107
52 55
52 56
52 62
52 63
52 65
52 66
52 67
52 73
52 80
52 81
52 85
52 86
52 87
52 88
52 89
52 90
52 91
52 92
52 97
52 98
52 99
52 100
52 101
52 103
52 104
52 106
52 108
52 109
53 55
53 56
53 57
53 58
53 60
53 61
53 63
53 64
53 66
53 67
53 70
53 74
53 78
53 79
53 80
53 83
53 85
53 86
53 95
53 96
53 97
53 98
53 99
53 100
53 101
53 103
53 105
53 109
54 55
54 56
54 57
54 61
54 63
54 65
54 67
54 68
54 69
54 70
54 71
54 72
54 73
54 74
54 75
54 78
54 80
54 81
54 82
54 83
54 84
54 87
54 90
54 93
54 94
54 97
54 98
54 100
54 102
54 103
54 104
54 106
54 108
54 109
55 56
55 58
55 59
55 62
55 65
55 66
55 68
55 70
55 71
55 72
55 73
55 75
55 76
55 77
55 79
55 81
55 86
55 88
55 89
55 90
55 94
55 98
55 99
55 103
55 105
55 108
56 57
56 59
56 60
56 63
56 65
56 66
56 68
56 70
56 72
56 74
56 75
56 79
56 81
56 83
56 85
56 86
56 87
56 89
56 93
56 94
56 97
56 99
56 101
56 102
56 103
56 104
56 105
56 106
56 107
57 59
57 60
57 64
57 66
57 67
57 68
57 69
57 70
57 71
57 75
57 76
57 77
57 80
57 82
57 84
57 91
57 93
57 95
57 96
57 98
57 99
57 101
57 102
57 103
57 104
57 105
57 107
58 60
58 61
58 64
58 66
58 67
58 70
58 71
58 74
58 75
58 76
58 77
58 80
58 82
58 83
58 84
58 85
58 86
58 87
58 90
58 92
58 93
58 97
58 101
58 102
58 104
58 106
58 107
59 62
59 65
59 66
59 70
59 72
59 73
59 74
59 75
59 78
59 80
59 83
59 84
59 88
59 89
59 90
59 92
59 96
59 100
59 101
59 105
60 61
60 62
60 63
60 66
60 69
60 70
60 71
60 72
60 73
60 74
60 79
60 80
60 82
60 85
60 88
60 90
60 91
60 93
60 94
60 96
60 97
60 98
60 99
60 101
60 103
60 105
60 107
60 108
60 109
61 62
61 63
61 65
61 71
61 73
61 74
61 78
61 79
61 81
61 82
61 84
61 85
61 86
61 87
61 90
61 96
61 100
61 101
61 104
61 108
62 65
62 66
62 67
62 71
62 73
62 76
62 77
62 78
62 80
62 82
62 83
62 86
62 88
62 91
62 98
62 99
62 101
62 102
62 103
62 107
62 108
63 64
63 65
63 69
63 71
63 73
63 75
63 76
63 78
63 84
63 86
63 89
63 90
63 92
63 94
63 96
63 98
63 102
63 104
63 106
63 107
63 109
64 65
64 66
64 71
64 72
64 73
64 74
64 75
64 76
64 77
64 79
64 81
64 84
64 90
64 94
64 95
64 96
64 98
64 99
64 100
64 102
64 103
64 104
64 106
64 107
64 108
65 66
65 70
65 71
65 79
65 82
65 84
65 85
65 86
65 87
65 89
65 91
65 95
65 96
65 97
65 98
65 103
65 104
65 105
65 108
65 109
66 70
66 71
66 73
66 75
66 76
66 77
66 78
66 80
66 81
66 82
66 83
66 84
66 85
66 86
66 88
66 92
66 93
66 95
66 96
66 100
66 106
66 107
66 108
66 109
67 68
67 69
67 73
67 74
67 75
67 77
67 80
67 81
67 82
67 84
67 85
67 86
67 88
67 89
67 90
67 94
67 96
67 97
67 101
67 103
67 104
67 105
67 106
68 69
68 70
68 74
68 75
68 78
68 93
68 94
68 96
68 99
68 100
68 101
68 102
68 103
68 105
68 106
68 107
69 73
69 74
69 75
69 80
69 81
69 89
69 90
69 91
69 92
69 93
69 94
69 102
69 104
69 106
69 108
69 109
70 71
70 81
70 82
70 83
70 84
70 87
70 90
70 91
70 92
70 95
70 96
70 97
70 98
70 101
70 103
70 104
70 105
70 109
71 73
71 74
71 77
71 78
71 81
71 82
71 83
71 84
71 88
71 90
71 93
71 97
71 101
71 102
71 105
71 106
71 109
72 74
72 75
72 77
72 78
72 79
72 81
72 85
72 88
72 89
72 92
72 93
72 94
72 97
72 100
72 102
72 106
72 107
72 109
73 74
73 75
73 76
73 77
73 79
73 80
73 81
73 84
73 85
73 88
73 91
73 95
73 99
73 101
73 103
73 106
73 108
73 109
74 76
74 78
74 81
74 84
74 85
74 86
74 97
74 99
74 101
74 103
74 104
74 105
74 107
74 108
74 109
75 76
75 77
75 78
75 79
75 81
75 83
75 84
75 86
75 87
75 89
75 90
75 92
75 95
75 96
75 97
75 98
75 102
75 105
75 107
76 77
76 78
76 84
76 85
76 87
76 88
76 89
76 91
76 92
76 95
76 96
76 99
76 100
76 101
76 105
76 106
76 108
77 80
77 81
77 83
77 85
77 87
77 88
77 92
77 94
77 98
77 99
77 100
77 101
77 103
77 104
77 105
77 108
78 83
78 84
78 86
78 87
78 88
78 89
78 91
78 94
78 98
78 101
78 102
78 103
78 105
78 106
78 108
79 80
79 81
79 85
79 86
79 89
79 93
79 94
79 95
79 99
79 100
79 104
79 106
79 109
80 81
80 82
80 84
80 85
80 88
80 90
80 91
80 94
80 96
80 99
80 101
80 104
80 105
81 82
81 86
81 89
81 93
81 95
81 96
81 97
81 100
81 103
81 105
81 109
82 85
82 88
82 91
82 92
82 93
82 94
82 95
82 97
82 98
82 99
82 100
82 101
82 102
82 103
82 107
82 108
82 109
83 87
83 89
83 91
83 92
83 95
83 96
83 97
83 100
83 103
83 105
84 90
84 91
84 94
84 98
84 99
84 100
84 101
84 104
84 106
84 108
84 109
85 86
85 87
85 88
85 89
85 91
85 92
85 93
85 96
85 98
85 100
85 101
85 105
86 87
86 88
86 89
86 95
86 96
86 98
86 99
86 100
86 102
86 103
86 104
86 107
86 109
87 88
87 89
87 90
87 92
87 93
87 95
87 96
87 98
87 99
87 105
87 108
87 109
88 97
88 98
88 101
88 109
89 91
89 96
89 97
89 100
89 102
89 103
89 107
89 108
89 109
90 91
90 92
90 93
90 101
90 102
90 104
90 107
90 109
91 92
91 95
91 96
91 98
91 99
91 101
91 102
91 105
91 106
91 109
92 93
92 94
92 96
92 98
92 99
92 100
92 101
92 107
92 108
92 109
93 98
93 99
93 100
93 101
93 102
93 108
94 95
94 98
94 99
94 106
94 107
94 108
95 98
95 99
95 102
95 105
95 109
96 102
96 107
96 108
96 109
97 98
97 99
97 100
97 101
97 103
97 105
97 109
98 101
98 102
98 104
98 105
98 107
98 108
98 109
99 102
99 103
99 104
99 105
99 106
99 108
100 107
100 108
100 109
101 103
101 106
101 107
101 109
102 105
102 107
103 104
103 107
103 108
103 109
104 105
104 106
104 109
105 106
105 108
105 109
106 108
107 109
108 109
