110:2985
0 1
0 2
0 3
0 4
0 9
0 10
0 11
0 12
0 15
0 16
0 17
0 19
0 21
0 22
0 24
0 25
0 27
0 29
0 31
0 33
0 34
0 35
0 38
0 43
0 44
0 46
0 47
0 50
0 51
0 52
0 54
0 59
0 60
0 64
0 67
0 69
0 70
0 73
0 77
0 78
0 79
0 80
0 84
0 86
0 91
0 93
0 94
0 95
0 96
0 98
0 100
0 101
0 104
0 105
1 5
1 6
1 11
1 13
1 14
1 15
1 17
1 21
1 24
1 25
1 27
1 28
1 29
1 30
1 31
1 32
1 33
1 35
1 37
1 40
1 41
1 42
1 43
1 45
1 46
1 47
1 50
1 52
1 57
1 58
1 60
1 61
1 62
1 64
1 67
1 68
1 70
1 71
1 73
1 75
1 82
1 86
1 87
1 89
1 90
1 92
1 94
1 95
1 96
1 100
1 101
1 106
1 107
1 108
2 3
2 5
2 6
2 7
2 8
2 11
2 12
2 13
2 15
2 17
2 18
2 22
2 24
2 26
2 29
2 30
2 32
2 33
2 36
2 39
2 42
2 45
2 47
2 48
2 49
2 52
2 53
2 56
2 57
2 60
2 62
2 63
2 65
2 67
2 68
2 69
2 74
2 75
2 76
2 77
2 80
2 81
2 82
2 86
2 87
2 88
2 89
2 91
2 92
2 93
2 95
2 97
2 98
2 99
2 100
2 103
2 104
2 107
2 108
2 109
3 4
3 6
3 8
3 9
3 11
3 14
3 15
3 16
3 18
3 21
3 22
3 23
3 25
3 29
3 31
3 33
3 35
3 37
3 39
3 42
3 43
3 44
3 45
3 47
3 50
3 52
3 54
3 59
3 60
3 62
3 63
3 64
3 65
3 69
3 73
3 75
3 77
3 79
3 80
3 81
3 84
3 91
3 93
3 96
3 98
3 99
3 101
3 102
3 104
3 105
3 106
3 108
4 5
4 7
4 9
4 10
4 11
4 12
4 13
4 14
4 19
4 22
4 23
4 25
4 27
4 30
4 31
4 33
4 37
4 38
4 39
4 40
4 42
4 47
4 49
4 51
4 52
4 59
4 61
4 63
4 70
4 71
4 72
4 75
4 78
4 79
4 82
4 83
4 85
4 86
4 87
4 90
4 91
4 93
4 95
4 98
4 99
4 101
4 102
4 104
4 105
4 106
4 107
4 108
4 109
5 12
5 13
5 16
5 17
5 21
5 23
5 24
5 28
5 29
5 30
5 31
5 35
5 36
5 37
5 38
5 39
5 43
5 45
5 46
5 49
5 52
5 53
5 59
5 61
5 64
5 66
5 73
5 76
5 77
5 79
5 80
5 85
5 86
5 87
5 90
5 91
5 92
5 93
5 97
5 98
5 99
5 103
5 104
5 105
5 106
5 107
5 109
6 9
6 10
6 11
6 15
6 17
6 18
6 19
6 26
6 29
6 30
6 31
6 33
6 35
6 36
6 38
6 39
6 42
6 49
6 52
6 55
6 56
6 57
6 59
6 62
6 63
6 66
6 70
6 71
6 75
6 76
6 77
6 78
6 83
6 84
6 86
6 87
6 90
6 91
6 92
6 93
6 94
6 95
6 98
6 100
6 101
6 102
6 104
6 105
6 108
7 9
7 10
7 11
7 13
7 14
7 18
7 19
7 21
7 23
7 24
7 29
7 30
7 36
7 38
7 39
7 40
7 44
7 45
7 46
7 47
7 48
7 49
7 51
7 56
7 58
7 59
7 60
7 62
7 64
7 71
7 72
7 78
7 81
7 82
7 83
7 84
7 87
7 90
7 91
7 92
7 93
7 101
7 102
7 103
7 105
7 106
7 108
7 109
8 11
8 14
8 15
8 16
8 17
8 18
8 19
8 20
8 21
8 22
8 23
8 26
8 27
8 29
8 30
8 31
8 32
8 34
8 35
8 36
8 39
8 40
8 41
8 42
8 43
8 44
8 45
8 46
8 47
8 50
8 52
8 53
8 55
8 60
8 61
8 63
8 66
8 67
8 69
8 71
8 72
8 75
8 76
8 77
8 79
8 81
8 82
8 83
8 84
8 85
8 86
8 89
8 91
8 92
8 93
8 96
8 100
8 101
8 103
8 104
8 109
9 11
9 12
9 13
9 15
9 18
9 22
9 24
9 25
9 28
9 33
9 35
9 37
9 39
9 41
9 42
9 44
9 46
9 49
9 52
9 53
9 55
9 58
9 60
9 61
9 63
9 66
9 67
9 68
9 70
9 72
9 73
9 76
9 77
9 79
9 81
9 82
9 84
9 87
9 89
9 90
9 96
9 102
9 103
9 106
9 107
9 108
9 109
10 11
10 12
10 14
10 15
10 21
10 23
10 25
10 29
10 30
10 31
10 32
10 34
10 35
10 38
10 41
10 43
10 44
10 45
10 46
10 47
10 48
10 49
10 51
10 53
10 54
10 55
10 56
10 58
10 59
10 60
10 61
10 63
10 64
10 66
10 68
10 69
10 72
10 76
10 77
10 79
10 81
10 83
10 86
10 87
10 88
10 91
10 92
10 95
10 96
10 101
10 105
10 108
10 109
11 13
11 14
11 15
11 17
11 19
11 23
11 24
11 26
11 27
11 28
11 30
11 34
11 35
11 38
11 39
11 40
11 41
11 42
11 43
11 44
11 45
11 46
11 48
11 51
11 52
11 53
11 55
11 59
11 61
11 63
11 70
11 76
11 78
11 80
11 83
11 85
11 87
11 88
11 91
11 92
11 93
11 94
11 97
11 101
11 102
11 104
11 107
12 14
12 15
12 18
12 20
12 23
12 24
12 26
12 28
12 29
12 31
12 32
12 33
12 34
12 37
12 39
12 40
12 42
12 47
12 49
12 50
12 51
12 52
12 54
12 55
12 56
12 58
12 60
12 67
12 68
12 69
12 71
12 74
12 76
12 79
12 80
12 82
12 83
12 87
12 90
12 94
12 96
12 98
12 100
12 101
12 102
12 104
12 108
13 18
13 21
13 26
13 28
13 29
13 31
13 33
13 34
13 36
13 37
13 42
13 44
13 47
13 49
13 50
13 57
13 58
13 59
13 60
13 61
13 63
13 64
13 66
13 69
13 70
13 72
13 75
13 76
13 77
13 79
13 82
13 83
13 85
13 89
13 91
13 92
13 94
13 95
13 97
13 99
13 103
13 105
13 106
13 107
13 108
14 15
14 18
14 19
14 20
14 25
14 26
14 28
14 30
14 35
14 36
14 40
14 43
14 46
14 47
14 49
14 54
14 56
14 57
14 59
14 60
14 63
14 64
14 66
14 68
14 71
14 73
14 74
14 77
14 79
14 80
14 81
14 82
14 83
14 86
14 87
14 89
14 90
14 93
14 94
14 95
14 100
14 101
14 102
14 103
14 104
14 105
14 106
14 107
14 108
14 109
15 17
15 18
15 20
15 23
15 27
15 32
15 33
15 34
15 36
15 38
15 40
15 41
15 42
15 43
15 44
15 45
15 47
15 48
15 52
15 53
15 55
15 57
15 58
15 60
15 62
15 63
15 64
15 65
15 66
15 67
15 70
15 72
15 73
15 75
15 78
15 79
15 82
15 84
15 86
15 91
15 92
15 95
15 96
15 98
15 99
15 102
15 103
15 104
15 106
15 109
16 17
16 20
16 21
16 23
16 24
16 25
16 26
16 27
16 29
16 30
16 32
16 33
16 34
16 41
16 44
16 45
16 46
16 47
16 48
16 53
16 55
16 56
16 60
16 61
16 64
16 66
16 73
16 77
16 78
16 81
16 82
16 83
16 85
16 86
16 87
16 90
16 92
16 93
16 97
16 98
16 99
16 100
16 101
16 102
16 103
16 104
16 105
16 108
17 19
17 24
17 25
17 31
17 32
17 34
17 35
17 37
17 38
17 39
17 41
17 42
17 43
17 44
17 45
17 47
17 48
17 51
17 52
17 56
17 57
17 59
17 60
17 62
17 64
17 65
17 70
17 73
17 75
17 78
17 81
17 83
17 85
17 86
17 88
17 90
17 91
17 94
17 95
17 97
17 100
17 101
17 105
17 106
17 107
18 19
18 22
18 23
18 24
18 25
18 26
18 30
18 32
18 34
18 37
18 38
18 40
18 41
18 43
18 45
18 47
18 49
18 50
18 52
18 54
18 56
18 59
18 67
18 68
18 70
18 72
18 74
18 76
18 77
18 83
18 84
18 88
18 89
18 90
18 91
18 92
18 93
18 94
18 95
18 96
18 98
18 102
18 105
18 107
18 109
19 21
19 23
19 25
19 26
19 28
19 29
19 32
19 33
19 35
19 36
19 38
19 40
19 43
19 44
19 45
19 48
19 52
19 54
19 55
19 58
19 61
19 62
19 65
19 68
19 70
19 73
19 78
19 79
19 81
19 83
19 85
19 86
19 88
19 89
19 91
19 93
19 94
19 95
19 98
19 101
19 102
19 103
19 104
19 107
19 108
19 109
20 21
20 23
20 28
20 29
20 30
20 33
20 35
20 36
20 38
20 40
20 42
20 43
20 44
20 46
20 47
20 49
20 50
20 51
20 52
20 53
20 55
20 57
20 58
20 59
20 61
20 62
20 63
20 67
20 69
20 70
20 73
20 75
20 76
20 77
20 78
20 79
20 80
20 82
20 83
20 84
20 85
20 87
20 90
20 91
20 92
20 95
20 96
20 97
20 98
20 99
20 100
20 103
20 104
20 106
20 107
20 108
21 22
21 24
21 27
21 29
21 33
21 35
21 38
21 39
21 40
21 41
21 45
21 46
21 49
21 50
21 51
21 53
21 55
21 57
21 58
21 59
21 61
21 62
21 63
21 67
21 68
21 69
21 70
21 72
21 74
21 75
21 76
21 79
21 80
21 81
21 83
21 87
21 89
21 92
21 93
21 94
21 95
21 98
21 99
21 100
21 103
21 105
21 106
21 107
22 23
22 26
22 27
22 32
22 34
22 35
22 37
22 38
22 40
22 43
22 46
22 47
22 50
22 51
22 52
22 53
22 57
22 59
22 62
22 64
22 70
22 73
22 75
22 76
22 80
22 81
22 83
22 86
22 88
22 93
22 95
22 96
22 97
22 98
22 99
22 100
22 102
22 103
22 104
22 106
22 108
22 109
23 24
23 25
23 27
23 28
23 29
23 31
23 33
23 39
23 41
23 44
23 49
23 56
23 58
23 59
23 60
23 61
23 63
23 64
23 65
23 66
23 67
23 69
23 70
23 73
23 77
23 82
23 83
23 86
23 87
23 88
23 90
23 92
23 96
23 97
23 108
23 109
24 26
24 27
24 30
24 37
24 38
24 39
24 41
24 42
24 45
24 46
24 48
24 49
24 50
24 52
24 53
24 60
24 61
24 62
24 65
24 66
24 67
24 70
24 71
24 73
24 75
24 79
24 81
24 82
24 85
24 86
24 88
24 89
24 94
24 98
24 101
24 102
24 103
24 104
24 108
24 109
25 26
25 28
25 31
25 32
25 33
25 36
25 37
25 38
25 40
25 41
25 43
25 46
25 48
25 49
25 51
25 52
25 54
25 59
25 64
25 65
25 68
25 76
25 77
25 79
25 80
25 84
25 86
25 87
25 88
25 91
25 92
25 94
25 97
25 98
25 99
25 100
25 101
25 103
25 106
25 108
26 30
26 31
26 35
26 36
26 37
26 38
26 41
26 43
26 46
26 47
26 48
26 51
26 54
26 56
26 57
26 58
26 61
26 62
26 65
26 67
26 68
26 69
26 73
26 74
26 79
26 80
26 81
26 87
26 88
26 91
26 92
26 94
26 96
26 97
26 100
26 107
26 108
26 109
27 30
27 31
27 32
27 33
27 34
27 36
27 41
27 42
27 43
27 44
27 45
27 46
27 47
27 49
27 52
27 53
27 55
27 58
27 59
27 61
27 62
27 67
27 68
27 69
27 70
27 72
27 75
27 76
27 77
27 81
27 83
27 84
27 86
27 90
27 91
27 92
27 94
27 95
27 96
27 97
27 102
27 106
28 32
28 34
28 35
28 38
28 41
28 42
28 43
28 47
28 48
28 50
28 51
28 53
28 56
28 57
28 58
28 59
28 61
28 63
28 64
28 65
28 66
28 67
28 68
28 69
28 70
28 74
28 75
28 78
28 80
28 81
28 82
28 85
28 87
28 89
28 91
28 92
28 94
28 95
28 96
28 97
28 99
28 102
28 104
28 105
28 106
28 107
28 109
29 30
29 31
29 36
29 38
29 40
29 41
29 43
29 44
29 46
29 47
29 48
29 50
29 52
29 53
29 54
29 55
29 58
29 60
29 62
29 63
29 67
29 68
29 69
29 71
29 72
29 73
29 78
29 80
29 81
29 82
29 83
29 85
29 89
29 91
29 95
29 96
29 97
29 99
29 100
29 101
29 102
29 105
29 107
29 108
29 109
30 31
30 34
30 35
30 36
30 37
30 38
30 41
30 42
30 46
30 49
30 50
30 54
30 56
30 61
30 64
30 65
30 71
30 72
30 74
30 78
30 81
30 83
30 84
30 86
30 90
30 92
30 94
30 97
30 98
30 99
30 100
30 102
30 103
30 104
30 105
30 107
30 108
31 33
31 36
31 37
31 39
31 44
31 48
31 50
31 52
31 53
31 55
31 56
31 59
31 60
31 62
31 64
31 67
31 68
31 70
31 76
31 77
31 78
31 79
31 80
31 86
31 87
31 91
31 93
31 94
31 95
31 101
31 102
31 103
31 104
31 105
31 106
32 33
32 34
32 35
32 36
32 37
32 38
32 41
32 42
32 43
32 44
32 46
32 48
32 49
32 51
32 54
32 55
32 61
32 62
32 64
32 65
32 66
32 69
32 70
32 71
32 74
32 79
32 83
32 84
32 88
32 89
32 90
32 91
32 94
32 100
32 103
32 105
32 106
33 37
33 38
33 39
33 42
33 44
33 46
33 47
33 48
33 49
33 52
33 53
33 54
33 56
33 57
33 59
33 61
33 62
33 65
33 66
33 68
33 69
33 70
33 73
33 74
33 75
33 76
33 78
33 80
33 81
33 82
33 83
33 84
33 87
33 88
33 90
33 91
33 92
33 94
33 95
33 99
33 100
33 105
33 106
33 107
33 109
34 35
34 38
34 39
34 42
34 45
34 50
34 51
34 52
34 56
34 59
34 62
34 63
34 66
34 67
34 68
34 69
34 71
34 73
34 74
34 76
34 77
34 79
34 85
34 86
34 88
34 95
34 98
34 99
34 100
34 101
34 102
34 103
34 105
34 107
35 41
35 42
35 45
35 46
35 47
35 49
35 53
35 58
35 61
35 62
35 63
35 66
35 70
35 71
35 72
35 74
35 75
35 76
35 80
35 84
35 87
35 90
35 92
35 94
35 95
35 96
35 97
35 100
35 102
35 103
35 107
35 109
36 40
36 47
36 49
36 57
36 58
36 59
36 61
36 62
36 65
36 69
36 71
36 74
36 75
36 76
36 77
36 79
36 80
36 81
36 82
36 83
36 86
36 92
36 94
36 96
36 98
36 100
36 101
36 103
36 104
36 106
36 108
36 109
37 39
37 41
37 51
37 52
37 57
37 58
37 59
37 63
37 65
37 66
37 67
37 69
37 70
37 74
37 75
37 77
37 79
37 83
37 84
37 86
37 88
37 89
37 90
37 92
37 93
37 94
37 97
37 98
37 99
37 103
37 105
37 106
37 109
38 41
38 42
38 45
38 46
38 50
38 51
38 54
38 56
38 57
38 59
38 60
38 61
38 67
38 68
38 69
38 70
38 71
38 72
38 74
38 75
38 76
38 77
38 78
38 79
38 80
38 81
38 82
38 83
38 85
38 86
38 89
38 91
38 92
38 95
38 98
38 103
38 104
38 106
38 107
38 108
38 109
39 44
39 47
39 48
39 50
39 51
39 53
39 55
39 58
39 59
39 60
39 62
39 67
39 69
39 73
39 76
39 77
39 82
39 84
39 85
39 89
39 90
39 91
39 92
39 94
39 97
39 98
39 99
39 100
39 102
39 105
39 106
40 42
40 45
40 47
40 49
40 52
40 53
40 54
40 58
40 59
40 60
40 61
40 62
40 64
40 66
40 71
40 72
40 74
40 77
40 78
40 80
40 81
40 83
40 84
40 86
40 89
40 92
40 94
40 95
40 96
40 98
40 102
40 104
40 109
41 45
41 46
41 47
41 49
41 50
41 52
41 53
41 54
41 57
41 58
41 59
41 61
41 62
41 64
41 65
41 68
41 69
41 71
41 74
41 77
41 79
41 82
41 83
41 84
41 85
41 86
41 87
41 89
41 93
41 94
41 96
41 100
41 101
41 103
41 104
41 109
42 49
42 53
42 55
42 57
42 58
42 59
42 60
42 61
42 63
42 64
42 68
42 70
42 71
42 73
42 74
42 75
42 79
42 80
42 81
42 83
42 84
42 85
42 86
42 88
42 89
42 92
42 93
42 94
42 95
42 96
42 97
42 98
42 103
42 104
42 106
42 108
43 44
43 45
43 47
43 48
43 50
43 51
43 52
43 54
43 55
43 56
43 57
43 60
43 64
43 65
43 68
43 69
43 70
43 74
43 77
43 79
43 80
43 81
43 82
43 83
43 84
43 86
43 88
43 91
43 92
43 93
43 94
43 97
43 99
43 101
43 103
43 104
43 106
43 108
44 45
44 46
44 48
44 49
44 50
44 51
44 52
44 53
44 54
44 55
44 56
44 57
44 62
44 63
44 64
44 65
44 68
44 70
44 71
44 74
44 75
44 76
44 78
44 81
44 84
44 86
44 87
44 88
44 90
44 93
44 94
44 98
44 100
44 101
44 102
44 103
44 106
45 47
45 51
45 53
45 55
45 57
45 59
45 60
45 61
45 62
45 65
45 68
45 73
45 74
45 75
45 77
45 78
45 80
45 81
45 84
45 85
45 86
45 89
45 91
45 92
45 98
45 100
45 101
45 105
45 107
46 47
46 48
46 51
46 53
46 56
46 59
46 61
46 65
46 68
46 69
46 70
46 72
46 73
46 74
46 76
46 77
46 78
46 82
46 83
46 85
46 86
46 95
46 96
46 100
46 105
46 107
46 108
46 109
47 48
47 49
47 53
47 58
47 59
47 60
47 62
47 64
47 68
47 69
47 70
47 71
47 73
47 74
47 76
47 77
47 79
47 81
47 82
47 84
47 85
47 86
47 87
47 94
47 98
47 100
47 102
47 104
47 105
47 107
47 108
47 109
48 49
48 50
48 52
48 53
48 54
48 55
48 56
48 57
48 59
48 60
48 61
48 62
48 65
48 67
48 70
48 71
48 73
48 75
48 78
48 79
48 81
48 82
48 83
48 84
48 85
48 87
48 88
48 90
48 94
48 96
48 98
48 100
48 101
48 105
48 107
48 108
48 109
49 50
49 51
49 52
49 53
49 54
49 56
49 59
49 60
49 61
49 63
49 64
49 65
49 66
49 67
49 69
49 71
49 74
49 75
49 78
49 79
49 81
49 83
49 84
49 87
49 88
49 89
49 92
49 96
49 99
49 101
49 102
49 109
50 54
50 55
50 56
50 58
50 59
50 60
50 66
50 67
50 68
50 70
50 73
50 74
50 75
50 77
50 78
50 86
50 87
50 88
50 90
50 91
50 93
50 94
50 95
50 96
50 100
50 102
50 104
50 106
50 107
50 108
50 109
51 52
51 53
51 55
51 57
51 63
51 64
51 66
51 68
51 70
51 72
51 74
51 75
51 76
51 80
51 82
51 87
51 88
51 89
51 94
51 95
51 101
51 102
51 104
51 105
51 106
52 55
52 62
52 63
52 67
52 68
52 69
52 70
52 71
52 72
52 73
52 74
52 79
52 80
52 81
52 82
52 83
52 85
52 86
52 88
52 90
52 91
52 93
52 94
52 95
52 96
52 98
52 99
52 101
52 102
52 104
52 105
52 108
53 56
53 60
53 61
53 62
53 65
53 67
53 68
53 77
53 78
53 79
53 80
53 81
53 82
53 83
53 85
53 87
53 91
53 92
53 93
53 94
53 98
53 100
53 102
53 104
53 105
53 106
53 107
53 108
53 109
54 55
54 56
54 57
54 60
54 62
54 63
54 64
54 65
54 66
54 69
54 72
54 75
54 76
54 79
54 80
54 82
54 84
54 85
54 86
54 88
54 90
54 91
54 92
54 94
54 95
54 98
54 101
54 102
54 104
54 106
54 107
54 108
54 109
55 57
55 58
55 59
55 61
55 63
55 68
55 70
55 71
55 72
55 76
55 80
55 81
55 85
55 87
55 90
55 92
55 94
55 95
55 98
55 100
55 101
55 103
55 105
55 107
55 109
56 57
56 61
56 63
56 65
56 67
56 68
56 69
56 71
56 75
56 76
56 79
56 81
56 83
56 84
56 85
56 86
56 87
56 88
56 89
56 93
56 94
56 98
56 100
56 101
56 102
56 103
56 104
56 105
56 109
57 58
57 59
57 62
57 64
57 66
57 73
57 75
57 77
57 78
57 80
57 81
57 83
57 84
57 85
57 86
57 87
57 89
57 93
57 94
57 97
57 99
57 100
57 103
57 104
57 107
57 108
57 109
58 59
58 62
58 64
58 65
58 66
58 67
58 68
58 69
58 72
58 74
58 75
58 79
58 83
58 84
58 86
58 88
58 89
58 94
58 97
58 98
58 102
58 104
58 105
58 106
58 107
59 60
59 62
59 65
59 66
59 70
59 71
59 72
59 74
59 78
59 82
59 83
59 87
59 92
59 93
59 94
59 97
59 100
59 101
59 102
59 103
59 104
59 105
60 61
60 62
60 64
60 67
60 70
60 72
60 73
60 75
60 76
60 78
60 79
60 80
60 81
60 83
60 85
60 87
60 89
60 90
60 91
60 92
60 93
60 95
60 101
60 103
60 104
60 108
60 109
61 63
61 64
61 66
61 67
61 68
61 69
61 72
61 78
61 82
61 83
61 86
61 90
61 94
61 95
61 96
61 100
61 102
61 105
61 106
61 107
61 109
62 64
62 65
62 68
62 70
62 73
62 80
62 81
62 83
62 84
62 85
62 89
62 90
62 92
62 93
62 97
62 99
62 101
62 103
62 104
62 106
63 66
63 68
63 71
63 72
63 74
63 76
63 78
63 80
63 84
63 86
63 88
63 89
63 91
63 92
63 93
63 98
63 99
63 100
63 101
63 102
63 103
63 104
63 106
63 108
64 66
64 72
64 76
64 77
64 78
64 80
64 81
64 82
64 84
64 85
64 86
64 88
64 89
64 90
64 92
64 96
64 97
64 105
64 108
65 66
65 67
65 68
65 69
65 71
65 73
65 77
65 78
65 79
65 80
65 85
65 86
65 87
65 90
65 91
65 95
65 96
65 98
65 100
65 101
65 102
65 103
65 105
65 106
65 107
65 108
65 109
66 67
66 68
66 70
66 74
66 75
66 77
66 78
66 82
66 88
66 89
66 90
66 91
66 92
66 93
66 97
66 98
66 99
66 101
66 104
66 105
66 106
66 108
66 109
67 68
67 70
67 71
67 72
67 76
67 78
67 79
67 83
67 85
67 86
67 87
67 88
67 92
67 93
67 97
67 98
67 101
68 75
68 76
68 78
68 81
68 82
68 83
68 84
68 85
68 87
68 88
68 89
68 95
68 96
68 97
68 102
68 103
69 71
69 72
69 73
69 74
69 75
69 76
69 84
69 86
69 88
69 90
69 91
69 92
69 102
69 103
69 104
69 105
69 108
70 72
70 73
70 74
70 77
70 78
70 79
70 80
70 83
70 85
70 86
70 87
70 91
70 93
70 94
70 97
70 98
70 101
70 102
70 103
70 104
70 108
71 72
71 75
71 79
71 83
71 84
71 87
71 88
71 91
71 93
71 94
71 96
71 97
71 98
71 100
71 104
71 107
71 108
72 74
72 75
72 76
72 79
72 82
72 84
72 88
72 89
72 91
72 92
72 93
72 94
72 95
72 97
72 98
72 99
72 102
72 103
72 106
72 109
73 77
73 81
73 83
73 85
73 88
73 90
73 91
73 93
73 95
73 98
73 101
73 102
73 103
74 79
74 81
74 83
74 85
74 86
74 87
74 89
74 90
74 91
74 92
74 93
74 94
74 95
74 97
74 99
74 100
74 102
74 103
74 105
74 106
74 108
75 77
75 78
75 79
75 80
75 84
75 87
75 89
75 92
75 93
75 99
75 100
75 102
75 103
75 104
75 106
75 107
76 77
76 78
76 81
76 82
76 83
76 87
76 88
76 90
76 94
76 95
76 97
76 99
76 101
76 102
76 106
76 108
77 80
77 81
77 82
77 83
77 85
77 86
77 87
77 90
77 96
77 97
77 99
77 100
77 101
77 102
77 104
77 107
78 80
78 83
78 84
78 85
78 87
78 88
78 90
78 92
78 93
78 97
78 98
78 101
78 105
78 106
78 107
79 81
79 82
79 86
79 88
79 91
79 92
79 93
79 95
79 96
79 99
79 101
79 102
79 105
79 107
80 81
80 83
80 86
80 87
80 92
80 96
80 99
80 103
80 105
80 106
80 107
81 82
81 85
81 87
81 91
81 94
81 97
81 100
81 101
81 102
81 103
81 104
81 106
81 107
81 108
81 109
82 83
82 84
82 85
82 89
82 90
82 91
82 95
82 97
82 99
82 100
82 103
82 104
82 105
82 108
83 85
83 87
83 97
83 98
83 101
83 105
83 106
83 107
83 108
84 86
84 88
84 90
84 91
84 92
84 93
84 94
84 95
84 97
84 98
84 99
84 102
84 104
84 106
84 107
85 87
85 92
85 93
85 94
85 100
85 101
85 103
85 104
85 105
85 107
85 108
85 109
86 89
86 91
86 92
86 93
86 94
86 96
86 97
86 99
86 100
86 102
86 103
86 109
87 90
87 91
87 100
87 101
87 104
88 91
88 93
88 98
88 99
88 102
88 104
88 105
88 109
89 90
89 91
89 92
89 93
89 94
89 102
89 103
89 105
89 108
90 91
90 92
90 95
90 96
90 98
90 99
90 101
90 102
90 105
90 106
90 109
91 92
91 93
91 95
91 97
91 98
91 99
91 100
91 106
91 107
91 108
92 96
92 97
92 98
92 99
92 100
92 106
92 108
93 95
93 96
93 103
93 104
93 105
93 109
94 95
94 98
94 101
94 105
95 97
95 102
95 103
95 104
95 105
95 106
95 107
95 108
96 97
96 99
96 103
96 106
96 107
96 109
97 98
97 100
97 101
97 102
97 105
97 106
97 107
97 108
97 109
98 100
98 108
98 109
99 100
99 102
99 105
99 106
99 108
100 102
100 104
100 107
101 102
101 103
101 104
101 105
101 106
101 109
102 103
102 105
102 106
102 108
103 105
103 106
103 109
104 108
107 108
