110:1520
0 12
0 17
0 19
0 22
0 27
0 29
0 35
0 38
0 43
0 44
0 50
0 52
0 60
0 64
0 69
0 70
0 78
0 79
0 86
0 91
0 98
0 101
1 13
1 14
1 15
1 17
1 21
1 29
1 30
1 32
1 35
1 37
1 40
1 41
1 43
1 47
1 52
1 60
1 67
1 70
1 71
1 82
1 86
1 89
1 90
1 92
1 94
1 100
1 101
2 3
2 6
2 7
2 8
2 12
2 15
2 22
2 26
2 29
2 30
2 32
2 36
2 42
2 45
2 53
2 57
2 60
2 63
2 67
2 68
2 74
2 75
2 76
2 77
2 80
2 81
2 86
2 88
2 92
2 93
2 95
2 97
2 98
2 100
2 104
2 108
2 109
3 8
3 9
3 21
3 33
3 35
3 39
3 42
3 44
3 47
3 50
3 65
3 69
3 73
3 80
3 81
3 98
3 99
3 106
3 108
4 7
4 10
4 12
4 19
4 22
4 33
4 37
4 38
4 71
4 75
4 78
4 85
4 87
4 91
4 93
4 95
4 98
4 99
4 101
4 109
5 12
5 16
5 17
5 23
5 24
5 31
5 37
5 38
5 43
5 45
5 46
5 53
5 59
5 61
5 76
5 77
5 79
5 80
5 85
5 98
5 99
5 103
6 10
6 11
6 17
6 18
6 26
6 30
6 33
6 35
6 38
6 39
6 42
6 49
6 52
6 55
6 57
6 62
6 66
6 70
6 71
6 75
6 76
6 78
6 86
6 87
6 90
6 91
6 94
6 100
6 101
6 108
7 10
7 13
7 14
7 21
7 24
7 29
7 36
7 38
7 40
7 44
7 45
7 46
7 48
7 49
7 51
7 58
7 59
7 62
7 64
7 71
7 84
7 87
7 90
7 92
7 102
7 106
7 108
8 15
8 19
8 20
8 23
8 27
8 34
8 36
8 40
8 42
8 43
8 44
8 46
8 50
8 52
8 60
8 67
8 79
8 84
8 85
8 89
8 92
8 100
8 101
8 104
8 109
9 11
9 13
9 15
9 18
9 22
9 24
9 25
9 28
9 33
9 35
9 37
9 39
9 44
9 46
9 52
9 55
9 66
9 68
9 72
9 73
9 77
9 82
9 89
9 90
9 106
9 107
9 108
9 109
10 12
10 15
10 25
10 29
10 31
10 32
10 34
10 41
10 43
10 44
10 45
10 48
10 49
10 54
10 55
10 59
10 61
10 63
10 64
10 66
10 76
10 77
10 83
10 86
10 87
10 96
10 101
10 105
10 108
11 13
11 15
11 19
11 23
11 24
11 28
11 30
11 34
11 35
11 40
11 45
11 52
11 53
11 55
11 61
11 70
11 76
11 83
11 85
11 87
11 91
11 92
11 97
12 18
12 23
12 24
12 26
12 32
12 50
12 51
12 56
12 58
12 67
12 68
12 69
12 71
12 76
12 79
12 83
12 87
12 90
12 94
12 96
12 101
12 108
13 21
13 26
13 29
13 31
13 33
13 34
13 36
13 37
13 47
13 50
13 57
13 58
13 61
13 63
13 70
13 77
13 82
13 83
13 91
13 92
13 94
13 97
13 106
14 18
14 20
14 25
14 28
14 46
14 49
14 56
14 63
14 66
14 71
14 74
14 77
14 79
14 80
14 81
14 82
14 87
14 93
14 94
14 95
14 102
14 104
14 106
14 107
14 108
14 109
15 17
15 18
15 20
15 32
15 34
15 38
15 41
15 42
15 43
15 45
15 48
15 55
15 58
15 60
15 62
15 63
15 64
15 66
15 67
15 72
15 78
15 84
15 96
15 102
15 109
16 17
16 21
16 24
16 25
16 26
16 29
16 32
16 33
16 34
16 41
16 44
16 45
16 47
16 48
16 56
16 73
16 77
16 81
16 82
16 87
16 90
16 92
16 93
16 99
16 101
16 102
16 103
16 104
16 105
17 19
17 25
17 32
17 35
17 37
17 38
17 42
17 43
17 45
17 47
17 48
17 56
17 60
17 64
17 65
17 73
17 78
17 81
17 83
17 85
17 90
17 95
17 97
17 105
17 106
17 107
18 22
18 23
18 24
18 25
18 26
18 30
18 32
18 34
18 37
18 41
18 43
18 45
18 49
18 52
18 54
18 56
18 68
18 72
18 77
18 89
18 90
18 93
18 95
18 102
18 105
18 107
18 109
19 21
19 23
19 25
19 28
19 29
19 32
19 33
19 40
19 43
19 44
19 45
19 48
19 52
19 58
19 61
19 65
19 68
19 70
19 73
19 79
19 81
19 83
19 88
19 89
19 91
19 93
19 94
19 101
19 102
19 103
19 109
20 23
20 28
20 29
20 44
20 46
20 47
20 53
20 55
20 57
20 63
20 67
20 70
20 76
20 77
20 80
20 82
20 84
20 85
20 90
20 91
20 95
20 96
20 97
20 98
20 104
20 107
21 24
21 27
21 38
21 39
21 40
21 45
21 46
21 55
21 57
21 59
21 61
21 67
21 68
21 72
21 74
21 79
21 81
21 89
21 92
21 93
21 95
21 98
21 99
21 100
21 103
21 106
21 107
22 34
22 37
22 38
22 40
22 43
22 46
22 47
22 51
22 52
22 57
22 64
22 73
22 75
22 76
22 81
22 83
22 86
22 104
22 106
22 108
23 24
23 28
23 39
23 41
23 44
23 56
23 59
23 60
23 63
23 65
23 66
23 69
23 77
23 83
23 90
23 92
23 96
23 97
23 108
23 109
24 26
24 30
24 41
24 46
24 48
24 49
24 52
24 53
24 62
24 65
24 66
24 67
24 70
24 73
24 79
24 82
24 85
24 94
24 103
24 109
25 26
25 28
25 31
25 36
25 37
25 38
25 41
25 43
25 46
25 59
25 64
25 76
25 79
25 86
25 87
25 88
25 94
25 97
25 99
25 100
25 101
25 106
25 108
26 30
26 31
26 35
26 36
26 38
26 43
26 46
26 47
26 48
26 54
26 56
26 57
26 65
26 68
26 69
26 73
26 74
26 79
26 80
26 96
26 100
26 107
26 108
26 109
27 30
27 31
27 32
27 34
27 42
27 43
27 45
27 46
27 47
27 49
27 52
27 53
27 58
27 59
27 62
27 68
27 70
27 75
27 77
27 81
27 91
27 94
27 95
27 96
28 34
28 38
28 41
28 42
28 47
28 48
28 50
28 53
28 57
28 61
28 64
28 65
28 66
28 67
28 74
28 75
28 78
28 80
28 81
28 82
28 87
28 91
28 92
28 94
28 96
28 97
28 99
28 102
28 104
28 105
28 106
28 107
28 109
29 30
29 41
29 44
29 46
29 48
29 50
29 54
29 55
29 58
29 62
29 71
29 72
29 73
29 81
29 95
29 96
29 99
29 100
29 105
29 108
29 109
30 31
30 35
30 37
30 38
30 46
30 50
30 54
30 61
30 72
30 74
30 78
30 83
30 84
30 92
30 94
30 97
30 100
30 102
30 104
30 105
30 108
31 33
31 36
31 37
31 39
31 52
31 53
31 55
31 59
31 77
31 86
31 91
31 94
32 33
32 34
32 36
32 37
32 42
32 43
32 44
32 46
32 51
32 54
32 64
32 65
32 69
32 70
32 71
32 74
32 79
32 83
32 84
32 88
32 89
32 90
32 94
32 100
32 103
33 37
33 38
33 46
33 53
33 56
33 57
33 59
33 61
33 65
33 69
33 70
33 76
33 80
33 87
33 90
33 91
33 92
33 94
33 100
33 105
33 106
33 109
34 35
34 42
34 52
34 62
34 66
34 67
34 68
34 69
34 76
34 86
34 99
34 100
34 101
34 102
34 103
34 105
35 41
35 45
35 46
35 49
35 53
35 63
35 66
35 71
35 75
35 80
35 87
35 90
35 92
35 94
35 95
35 103
35 107
35 109
36 40
36 47
36 57
36 62
36 74
36 75
36 76
36 79
36 80
36 81
36 82
36 83
36 86
36 94
36 101
36 104
37 41
37 51
37 52
37 63
37 67
37 75
37 79
37 90
37 93
37 103
37 109
38 41
38 42
38 50
38 57
38 59
38 61
38 69
38 70
38 74
38 75
38 80
38 83
38 89
38 91
38 103
38 108
38 109
39 44
39 47
39 50
39 58
39 60
39 76
39 77
39 82
39 85
39 90
39 92
39 98
39 99
39 102
39 105
40 42
40 47
40 49
40 52
40 53
40 54
40 64
40 72
40 78
40 81
40 86
40 89
40 92
40 94
40 96
40 102
40 109
41 45
41 50
41 54
41 59
41 62
41 64
41 65
41 68
41 69
41 71
41 77
41 79
41 82
41 83
41 84
41 85
41 86
41 87
41 93
41 94
41 96
41 103
41 109
42 49
42 55
42 57
42 59
42 60
42 64
42 71
42 73
42 74
42 75
42 80
42 81
42 83
42 84
42 88
42 92
42 93
42 94
42 95
42 98
42 104
42 108
43 45
43 47
43 50
43 52
43 54
43 55
43 56
43 64
43 65
43 69
43 77
43 82
43 83
43 86
43 88
43 94
43 99
43 106
44 48
44 49
44 50
44 52
44 53
44 54
44 55
44 57
44 62
44 63
44 65
44 71
44 81
44 87
44 90
44 100
44 103
45 55
45 61
45 62
45 73
45 74
45 78
45 84
45 85
45 86
45 89
45 92
45 98
45 100
46 59
46 61
46 65
46 68
46 69
46 72
46 73
46 74
46 76
46 77
46 85
46 108
47 48
47 58
47 64
47 68
47 70
47 71
47 76
47 84
47 86
47 87
47 94
47 100
48 49
48 52
48 56
48 57
48 59
48 60
48 61
48 62
48 67
48 70
48 75
48 78
48 81
48 83
48 84
48 94
48 96
48 98
48 100
48 101
48 105
48 107
48 108
48 109
49 50
49 53
49 54
49 56
49 59
49 60
49 65
49 67
49 75
49 78
49 79
49 83
49 84
49 89
49 92
49 96
49 99
49 101
50 54
50 58
50 59
50 66
50 68
50 70
50 75
50 87
50 88
50 96
50 100
50 102
50 106
50 108
51 52
51 55
51 57
51 76
51 87
51 95
51 102
51 104
51 105
51 106
52 67
52 68
52 79
52 80
52 81
52 82
52 88
52 90
52 93
52 99
52 101
52 102
52 108
53 56
53 60
53 61
53 65
53 68
53 79
53 81
53 83
53 87
53 93
53 100
53 102
53 107
54 55
54 57
54 60
54 62
54 64
54 65
54 66
54 69
54 76
54 80
54 84
54 85
54 86
54 88
54 90
54 91
54 92
54 95
54 98
54 104
54 106
54 109
55 58
55 59
55 63
55 70
55 71
55 81
55 94
55 98
55 109
56 57
56 61
56 63
56 76
56 79
56 83
56 86
56 88
56 89
56 93
56 103
56 104
56 105
57 58
57 59
57 62
57 64
57 73
57 87
57 89
57 94
57 97
57 99
57 103
57 104
57 108
57 109
58 65
58 66
58 68
58 69
58 74
58 75
58 79
58 89
58 97
58 105
58 106
58 107
59 65
59 71
59 72
59 78
59 82
59 92
59 94
59 101
59 102
59 103
59 104
59 105
60 61
60 67
60 70
60 75
60 78
60 79
60 80
60 83
60 87
60 92
60 103
60 109
61 63
61 64
61 68
61 72
61 78
61 82
61 83
61 86
61 94
61 96
61 100
61 102
61 105
61 107
61 109
62 64
62 65
62 70
62 73
62 83
62 90
62 92
62 93
62 97
62 101
62 106
63 66
63 68
63 71
63 72
63 78
63 91
63 93
63 98
63 100
63 102
63 103
64 76
64 77
64 78
64 82
64 88
64 89
64 90
64 96
64 97
64 105
65 71
65 77
65 80
65 91
65 98
65 100
65 101
65 102
65 105
65 106
65 107
65 108
66 70
66 74
66 75
66 78
66 82
66 89
66 91
66 97
66 105
66 106
66 108
67 72
67 76
67 78
67 79
67 83
67 87
67 92
67 93
67 98
67 101
68 76
68 81
68 82
68 83
68 84
68 85
68 87
68 88
68 96
68 97
68 102
69 72
69 74
69 84
69 88
69 92
69 105
69 108
70 73
70 74
70 77
70 79
70 91
70 93
70 97
70 104
70 108
71 79
71 83
71 87
71 88
71 94
71 97
71 100
71 104
71 107
72 75
72 76
72 89
72 92
72 93
72 94
72 95
72 97
72 98
72 99
72 102
73 77
73 85
73 91
73 93
73 98
73 103
74 79
74 86
74 94
74 95
74 99
74 100
74 108
75 89
75 100
75 102
76 77
76 78
76 81
76 88
76 94
76 95
76 102
76 108
77 80
77 81
77 82
77 87
77 97
77 100
77 102
78 83
78 85
78 88
78 93
78 101
78 107
79 81
79 82
79 86
79 88
79 93
79 101
79 102
79 107
80 83
80 86
80 87
80 103
80 106
80 107
81 85
81 94
81 97
81 100
81 101
81 108
82 84
82 89
82 95
82 99
83 85
83 87
83 97
83 98
83 101
83 106
83 107
84 86
84 90
84 92
84 93
84 97
84 98
84 99
84 102
84 104
84 107
85 92
85 94
85 100
85 103
85 105
85 109
86 93
86 96
86 97
86 99
87 90
87 91
87 101
87 104
88 93
88 98
88 99
88 104
88 109
89 90
89 102
89 105
89 108
90 91
90 95
90 101
90 102
90 106
90 109
91 92
91 97
91 98
91 108
92 96
92 97
92 100
93 95
93 105
94 101
94 105
95 97
95 102
95 103
95 104
95 105
95 108
96 99
96 107
96 109
97 98
97 100
97 101
97 105
97 109
99 102
99 105
99 106
100 107
101 102
101 103
101 104
101 105
101 106
101 109
102 105
102 108
