110:1490
0 3
0 4
0 5
0 9
0 10
0 11
0 12
0 20
0 27
0 32
0 33
0 36
0 39
0 44
0 46
0 48
0 49
0 50
0 53
0 56
0 58
0 59
0 61
0 78
0 83
0 88
0 92
0 96
0 100
0 102
0 105
1 2
1 14
1 18
1 23
1 25
1 26
1 36
1 45
1 46
1 47
1 60
1 62
1 64
1 67
1 72
1 77
1 81
1 82
1 98
1 99
1 100
1 102
1 103
1 108
1 109
2 7
2 8
2 17
2 22
2 25
2 29
2 38
2 43
2 44
2 50
2 54
2 65
2 67
2 72
2 73
2 75
2 78
2 80
2 85
2 86
2 87
2 88
2 93
2 97
2 105
2 106
3 5
3 7
3 18
3 21
3 34
3 36
3 37
3 38
3 39
3 45
3 48
3 51
3 52
3 61
3 72
3 73
3 74
3 79
3 81
3 82
3 84
3 87
3 100
3 104
4 7
4 10
4 13
4 14
4 25
4 29
4 30
4 35
4 38
4 48
4 49
4 51
4 52
4 58
4 63
4 65
4 66
4 75
4 76
4 80
4 81
4 84
4 88
4 95
4 106
4 108
5 11
5 17
5 29
5 35
5 38
5 48
5 52
5 53
5 54
5 55
5 62
5 65
5 66
5 73
5 78
5 83
5 92
5 98
5 99
5 101
5 102
5 107
5 108
5 109
6 7
6 9
6 12
6 14
6 22
6 25
6 29
6 34
6 35
6 36
6 38
6 39
6 46
6 47
6 48
6 51
6 54
6 61
6 63
6 65
6 66
6 68
6 73
6 75
6 81
6 82
6 84
6 85
6 87
6 91
6 103
6 108
6 109
7 8
7 18
7 23
7 37
7 39
7 40
7 45
7 46
7 56
7 58
7 62
7 67
7 76
7 78
7 80
7 84
7 93
7 105
7 108
8 14
8 15
8 19
8 25
8 26
8 27
8 28
8 40
8 41
8 43
8 52
8 53
8 54
8 57
8 64
8 70
8 73
8 74
8 78
8 83
8 85
8 86
8 87
8 92
8 94
8 96
8 97
8 100
8 108
9 12
9 17
9 19
9 20
9 23
9 24
9 27
9 30
9 34
9 41
9 59
9 60
9 65
9 69
9 70
9 72
9 74
9 80
9 83
9 85
9 89
9 90
9 97
9 106
9 108
10 25
10 26
10 34
10 36
10 40
10 46
10 48
10 62
10 65
10 77
10 81
10 91
10 94
10 98
10 99
10 102
10 105
10 106
11 12
11 22
11 23
11 28
11 29
11 33
11 35
11 37
11 40
11 41
11 47
11 58
11 60
11 63
11 66
11 70
11 75
11 77
11 80
11 87
11 88
11 90
11 92
11 93
11 97
11 104
11 109
12 13
12 14
12 23
12 25
12 26
12 28
12 29
12 33
12 35
12 42
12 44
12 45
12 53
12 54
12 58
12 62
12 66
12 68
12 72
12 73
12 74
12 79
12 82
12 91
12 100
12 101
12 104
12 105
12 106
13 14
13 15
13 17
13 19
13 20
13 24
13 32
13 36
13 41
13 43
13 46
13 47
13 57
13 59
13 61
13 69
13 70
13 75
13 76
13 80
13 82
13 83
13 85
13 87
13 89
13 94
13 96
13 98
13 102
13 105
13 106
14 21
14 23
14 25
14 27
14 32
14 34
14 35
14 38
14 47
14 48
14 52
14 57
14 60
14 66
14 67
14 72
14 76
14 78
14 92
14 93
14 99
14 101
14 107
14 108
15 20
15 21
15 22
15 24
15 27
15 29
15 41
15 43
15 45
15 50
15 51
15 53
15 56
15 57
15 61
15 64
15 66
15 76
15 80
15 81
15 84
15 86
15 94
15 96
15 99
15 103
15 104
15 107
16 17
16 22
16 26
16 35
16 38
16 45
16 47
16 49
16 62
16 66
16 69
16 74
16 79
16 81
16 84
16 88
16 92
16 109
17 22
17 31
17 33
17 36
17 40
17 42
17 43
17 44
17 47
17 52
17 58
17 59
17 73
17 77
17 81
17 82
17 84
17 91
17 93
17 99
17 100
17 107
18 28
18 29
18 31
18 36
18 37
18 40
18 42
18 45
18 53
18 55
18 61
18 64
18 68
18 70
18 76
18 79
18 82
18 89
18 94
18 95
18 97
18 100
18 101
18 103
18 104
18 106
18 109
19 23
19 27
19 29
19 30
19 33
19 34
19 35
19 36
19 40
19 41
19 45
19 46
19 49
19 60
19 66
19 67
19 72
19 77
19 78
19 81
19 83
19 84
19 90
19 93
19 94
19 102
19 109
20 21
20 24
20 25
20 26
20 30
20 33
20 37
20 38
20 40
20 43
20 52
20 54
20 56
20 70
20 72
20 75
20 76
20 77
20 81
20 83
20 96
20 98
20 99
20 105
20 109
21 26
21 27
21 30
21 34
21 44
21 48
21 49
21 54
21 55
21 65
21 70
21 71
21 72
21 75
21 81
21 87
21 90
21 93
21 96
21 103
21 106
21 108
22 26
22 28
22 34
22 38
22 47
22 49
22 51
22 54
22 59
22 61
22 62
22 70
22 75
22 90
22 92
22 100
22 106
22 108
22 109
23 28
23 32
23 36
23 40
23 50
23 53
23 54
23 60
23 61
23 67
23 69
23 73
23 89
23 90
23 95
23 96
23 97
23 99
23 104
23 109
24 32
24 33
24 36
24 42
24 48
24 55
24 56
24 58
24 60
24 66
24 67
24 73
24 75
24 79
24 80
24 81
24 83
24 84
24 89
24 92
24 96
24 102
24 103
24 104
25 29
25 31
25 35
25 36
25 46
25 47
25 50
25 53
25 57
25 58
25 59
25 77
25 83
25 84
25 87
25 89
25 90
25 94
25 97
25 99
25 103
25 105
26 28
26 29
26 30
26 31
26 32
26 34
26 36
26 37
26 38
26 53
26 55
26 59
26 62
26 69
26 70
26 71
26 81
26 83
26 88
26 99
26 101
26 103
26 106
26 108
27 28
27 30
27 35
27 36
27 39
27 40
27 42
27 43
27 48
27 49
27 53
27 54
27 62
27 76
27 82
27 86
27 91
27 92
27 93
27 94
27 97
27 101
27 103
27 106
28 31
28 32
28 34
28 40
28 50
28 52
28 61
28 74
28 76
28 80
28 85
28 88
28 89
28 91
28 92
28 93
28 95
29 40
29 46
29 56
29 61
29 65
29 71
29 72
29 75
29 81
29 83
29 85
29 86
29 90
29 91
29 92
29 95
29 98
29 99
29 100
29 106
30 32
30 33
30 34
30 38
30 41
30 42
30 48
30 50
30 52
30 55
30 58
30 75
30 79
30 81
30 84
30 87
30 89
30 92
30 93
30 102
30 105
31 36
31 40
31 52
31 55
31 56
31 65
31 66
31 67
31 68
31 71
31 73
31 76
31 79
31 89
31 93
31 95
31 98
31 99
31 109
32 33
32 35
32 36
32 39
32 40
32 41
32 50
32 51
32 53
32 54
32 56
32 62
32 64
32 72
32 83
32 84
32 85
32 87
32 93
32 95
32 97
32 99
32 100
32 103
32 105
32 108
33 40
33 42
33 45
33 50
33 52
33 53
33 57
33 65
33 66
33 67
33 70
33 72
33 73
33 74
33 87
33 88
33 90
33 91
33 92
33 94
33 96
33 104
33 109
34 46
34 51
34 57
34 58
34 65
34 66
34 71
34 72
34 73
34 75
34 78
34 80
34 83
34 85
34 94
34 102
34 108
35 36
35 40
35 45
35 47
35 48
35 51
35 52
35 59
35 60
35 62
35 63
35 67
35 79
35 82
35 85
35 92
35 96
35 99
35 102
35 109
36 40
36 44
36 47
36 48
36 53
36 60
36 63
36 68
36 82
36 85
36 93
36 98
36 99
37 42
37 43
37 44
37 55
37 60
37 66
37 69
37 70
37 71
37 78
37 83
37 85
37 86
37 107
38 43
38 46
38 55
38 62
38 65
38 66
38 73
38 76
38 77
38 84
38 88
38 89
38 94
38 97
38 99
38 100
39 44
39 45
39 47
39 50
39 51
39 53
39 54
39 58
39 60
39 65
39 69
39 70
39 73
39 78
39 90
39 95
39 99
39 102
39 108
40 41
40 47
40 49
40 51
40 59
40 61
40 62
40 68
40 71
40 73
40 76
40 78
40 81
40 84
40 85
40 89
40 90
40 92
40 99
40 100
40 102
40 108
41 43
41 52
41 61
41 62
41 74
41 85
41 90
41 97
41 99
41 100
41 102
41 104
42 44
42 53
42 55
42 60
42 65
42 67
42 74
42 75
42 76
42 78
42 85
42 86
42 92
42 96
42 101
42 104
42 108
42 109
43 49
43 50
43 54
43 56
43 57
43 58
43 66
43 73
43 85
43 86
43 89
43 90
43 91
43 94
43 98
43 99
43 101
43 104
43 105
44 45
44 48
44 54
44 55
44 61
44 67
44 68
44 70
44 72
44 76
44 84
44 91
45 47
45 51
45 56
45 71
45 77
45 80
45 86
45 87
45 88
45 91
45 93
45 101
45 107
46 49
46 52
46 57
46 58
46 64
46 68
46 74
46 78
46 82
46 85
46 86
46 90
46 103
46 106
46 107
47 48
47 56
47 57
47 58
47 68
47 70
47 77
47 85
47 92
47 94
47 101
47 105
47 109
48 52
48 56
48 60
48 62
48 75
48 77
48 86
48 91
49 50
49 51
49 54
49 56
49 61
49 66
49 78
49 85
49 86
49 91
49 92
49 94
49 98
49 102
49 107
50 55
50 59
50 60
50 64
50 69
50 71
50 74
50 75
50 78
50 86
50 88
50 89
50 91
50 95
50 97
51 55
51 61
51 63
51 67
51 68
51 70
51 73
51 76
51 84
51 90
51 94
51 103
52 58
52 65
52 75
52 81
52 82
52 85
52 89
52 90
52 97
52 101
52 103
52 106
52 108
52 109
53 54
53 55
53 63
53 65
53 70
53 72
53 73
53 80
53 92
53 93
53 94
53 95
53 96
53 99
54 56
54 57
54 59
54 60
54 61
54 68
54 72
54 77
54 79
54 83
54 87
54 90
54 91
54 102
54 109
55 74
55 78
55 89
55 90
55 91
55 94
55 97
55 107
55 109
56 57
56 59
56 63
56 66
56 67
56 73
56 82
56 84
56 88
56 89
56 93
56 94
56 96
56 97
56 103
56 106
56 108
57 61
57 69
57 71
57 74
57 76
57 92
57 95
57 97
57 101
57 105
57 108
58 69
58 70
58 74
58 75
58 82
58 84
58 85
58 86
58 91
58 93
58 94
58 100
58 104
58 107
59 60
59 68
59 73
59 81
59 82
59 90
59 97
59 102
59 104
60 67
60 71
60 74
60 76
60 82
60 83
60 91
60 96
60 97
60 104
61 62
61 67
61 68
61 69
61 74
61 79
61 89
61 95
61 98
61 100
61 107
61 109
62 64
62 67
62 70
62 74
62 75
62 78
62 82
62 84
62 90
62 91
62 95
62 103
62 104
62 107
63 67
63 69
63 72
63 76
63 85
63 90
63 92
63 93
63 96
63 101
63 103
63 104
63 105
63 106
63 109
64 67
64 73
64 92
64 97
64 99
64 103
64 104
64 107
64 109
65 71
65 75
65 76
65 78
65 79
65 96
65 99
65 100
66 75
66 78
66 82
66 91
66 92
66 95
66 96
66 99
66 101
66 109
67 69
67 71
67 73
67 75
67 77
67 81
67 82
67 83
67 90
67 95
67 100
67 101
67 103
67 108
68 69
68 70
68 75
68 81
68 82
68 83
68 84
68 90
68 92
68 102
68 104
68 105
68 107
68 108
69 75
69 77
69 79
69 85
69 89
69 91
69 93
69 96
69 99
69 104
70 72
70 76
70 78
70 80
70 84
70 88
70 100
70 101
70 104
70 106
70 107
70 108
71 72
71 73
71 92
71 97
71 101
71 104
71 106
71 108
72 76
72 79
72 83
72 84
72 87
72 89
72 103
72 109
73 77
73 78
73 81
73 95
73 98
73 108
74 81
74 83
74 89
74 91
74 93
74 100
74 103
74 105
74 108
75 84
75 86
75 89
75 96
75 101
75 102
75 104
76 78
76 80
76 82
76 84
76 85
76 86
76 94
76 95
76 104
76 106
77 79
77 80
77 83
77 85
77 91
77 92
77 100
77 102
77 105
78 81
78 91
78 93
78 96
78 98
78 105
79 81
79 87
79 89
79 90
79 97
79 99
79 100
79 101
79 102
79 105
79 107
80 84
80 96
80 107
80 108
81 82
81 85
81 86
81 88
81 103
82 83
82 84
82 103
82 106
83 84
83 89
83 94
83 104
83 108
84 85
84 95
84 102
84 107
85 86
85 92
85 97
86 99
86 102
86 103
86 105
86 107
86 108
86 109
87 88
87 89
87 95
87 98
87 102
87 107
88 89
88 92
88 94
88 95
88 97
88 101
88 103
89 91
89 92
90 95
90 100
90 103
91 95
91 97
91 104
91 106
91 107
92 94
92 99
92 105
92 108
93 96
93 102
93 109
94 95
94 98
94 99
94 109
95 101
95 106
95 109
96 101
96 103
96 108
97 102
98 104
98 108
99 101
99 105
99 107
99 109
100 101
100 102
100 107
101 102
101 104
101 108
102 103
102 106
102 108
103 105
104 109
105 108
106 109
108 109
