110:1448
0 26
0 36
0 41
0 44
0 47
0 49
0 53
0 57
0 71
0 72
0 76
0 98
0 103
0 105
0 106
1 2
1 3
1 5
1 10
1 17
1 18
1 20
1 21
1 22
1 25
1 27
1 29
1 32
1 34
1 35
1 37
1 42
1 45
1 52
1 62
1 65
1 67
1 79
1 80
1 82
1 92
1 95
1 107
2 3
2 9
2 11
2 14
2 15
2 20
2 23
2 28
2 34
2 35
2 41
2 50
2 52
2 53
2 59
2 60
2 67
2 68
2 69
2 71
2 75
2 92
2 93
2 95
2 96
3 4
3 10
3 12
3 13
3 15
3 16
3 17
3 20
3 23
3 33
3 35
3 40
3 41
3 48
3 49
3 51
3 52
3 53
3 54
3 57
3 58
3 71
3 82
3 83
3 86
3 92
3 94
3 97
3 98
3 104
3 109
4 6
4 7
4 10
4 21
4 25
4 34
4 40
4 41
4 48
4 49
4 56
4 62
4 65
4 68
4 72
4 73
4 75
4 77
4 80
4 82
4 83
4 86
4 87
4 89
4 92
4 93
4 96
4 104
4 106
4 108
5 9
5 13
5 14
5 15
5 16
5 17
5 21
5 24
5 28
5 33
5 46
5 49
5 53
5 54
5 57
5 62
5 67
5 71
5 73
5 78
5 84
5 89
5 91
5 106
6 7
6 16
6 19
6 21
6 24
6 26
6 31
6 32
6 38
6 41
6 44
6 51
6 58
6 59
6 62
6 64
6 65
6 66
6 67
6 69
6 87
6 89
6 90
6 91
6 93
6 101
6 107
6 108
7 8
7 10
7 11
7 19
7 21
7 24
7 28
7 29
7 30
7 35
7 39
7 40
7 42
7 50
7 56
7 57
7 59
7 61
7 68
7 70
7 76
7 78
7 81
7 84
7 89
7 90
7 94
7 100
7 108
8 12
8 13
8 27
8 28
8 41
8 42
8 44
8 45
8 46
8 48
8 49
8 53
8 56
8 67
8 71
8 72
8 76
8 80
8 81
8 83
8 86
8 87
8 92
8 97
8 99
8 100
8 102
8 103
9 22
9 24
9 30
9 35
9 48
9 58
9 59
9 60
9 61
9 69
9 73
9 74
9 76
9 77
9 91
9 96
9 106
9 107
10 16
10 21
10 29
10 38
10 39
10 40
10 48
10 51
10 54
10 57
10 60
10 61
10 62
10 64
10 77
10 78
10 79
10 83
10 85
10 92
10 95
10 102
10 105
10 108
11 13
11 16
11 18
11 27
11 35
11 37
11 39
11 41
11 43
11 46
11 51
11 52
11 60
11 62
11 65
11 67
11 70
11 75
11 76
11 82
11 87
11 91
11 93
11 95
11 96
11 99
11 106
11 107
11 109
12 13
12 14
12 18
12 20
12 22
12 26
12 29
12 31
12 36
12 40
12 41
12 44
12 51
12 60
12 63
12 64
12 68
12 70
12 72
12 79
12 92
12 94
12 104
12 106
12 109
13 19
13 20
13 21
13 29
13 52
13 53
13 60
13 63
13 68
13 72
13 81
13 84
13 90
13 93
13 94
13 100
13 106
14 16
14 18
14 21
14 22
14 23
14 28
14 29
14 30
14 32
14 35
14 37
14 47
14 48
14 49
14 52
14 57
14 59
14 63
14 70
14 88
14 89
14 92
14 105
14 108
15 18
15 19
15 20
15 22
15 25
15 26
15 28
15 29
15 32
15 34
15 35
15 38
15 39
15 40
15 55
15 65
15 67
15 68
15 70
15 80
15 81
15 84
15 86
15 93
15 100
15 105
15 106
16 20
16 29
16 38
16 40
16 44
16 45
16 46
16 49
16 59
16 67
16 76
16 77
16 82
16 83
16 85
16 90
16 93
16 99
16 101
16 104
16 109
17 23
17 24
17 27
17 32
17 38
17 40
17 46
17 51
17 53
17 61
17 84
17 90
17 95
17 98
17 107
18 19
18 20
18 23
18 32
18 36
18 46
18 49
18 52
18 57
18 60
18 61
18 66
18 70
18 71
18 73
18 76
18 77
18 82
18 86
18 87
18 96
18 97
18 99
18 102
18 103
18 104
18 106
19 27
19 28
19 29
19 30
19 33
19 38
19 41
19 42
19 48
19 52
19 69
19 70
19 84
19 88
19 89
19 90
19 93
19 96
19 97
19 101
19 103
20 28
20 31
20 33
20 34
20 35
20 43
20 45
20 56
20 64
20 66
20 67
20 72
20 78
20 84
20 91
20 92
20 93
20 95
20 96
20 102
20 106
20 109
21 30
21 33
21 35
21 36
21 43
21 45
21 47
21 48
21 54
21 58
21 60
21 66
21 72
21 73
21 77
21 78
21 79
21 95
21 100
21 101
21 102
21 107
21 108
22 24
22 29
22 31
22 38
22 39
22 43
22 53
22 64
22 70
22 74
22 79
22 86
22 88
22 94
22 97
22 99
22 109
23 24
23 33
23 38
23 45
23 47
23 51
23 54
23 60
23 64
23 65
23 66
23 71
23 75
23 77
23 80
23 89
23 90
23 91
23 93
23 94
23 96
23 98
23 99
23 102
23 106
24 26
24 28
24 32
24 41
24 42
24 50
24 53
24 54
24 61
24 63
24 66
24 67
24 68
24 74
24 75
24 77
24 78
24 79
24 89
24 92
24 97
24 98
24 99
24 109
25 26
25 30
25 31
25 33
25 34
25 39
25 45
25 51
25 58
25 59
25 62
25 64
25 71
25 74
25 75
25 76
25 85
25 94
25 95
25 98
25 100
25 104
26 29
26 31
26 35
26 37
26 40
26 42
26 57
26 65
26 73
26 74
26 75
26 81
26 84
26 85
26 89
26 90
26 96
26 98
27 28
27 33
27 35
27 36
27 43
27 44
27 45
27 48
27 55
27 56
27 59
27 62
27 65
27 69
27 72
27 76
27 77
27 101
27 105
28 29
28 30
28 33
28 38
28 43
28 45
28 53
28 54
28 58
28 66
28 67
28 80
28 95
28 96
28 99
28 100
28 104
28 107
28 108
29 30
29 32
29 41
29 44
29 45
29 50
29 54
29 57
29 61
29 64
29 68
29 69
29 70
29 74
29 75
29 79
29 80
29 82
29 86
29 92
29 96
29 98
29 100
29 109
30 32
30 39
30 40
30 44
30 45
30 48
30 52
30 57
30 59
30 61
30 62
30 64
30 71
30 79
30 84
30 86
30 95
30 96
30 103
30 107
30 109
31 44
31 56
31 58
31 62
31 68
31 69
31 72
31 75
31 76
31 77
31 89
31 99
31 102
32 35
32 37
32 40
32 41
32 44
32 49
32 62
32 65
32 67
32 68
32 71
32 75
32 77
32 83
32 91
32 97
32 101
32 102
32 103
32 108
33 37
33 41
33 46
33 52
33 55
33 58
33 62
33 64
33 68
33 69
33 73
33 74
33 76
33 88
33 89
33 91
33 98
33 103
33 107
34 35
34 37
34 38
34 39
34 52
34 53
34 57
34 58
34 67
34 72
34 75
34 77
34 78
34 80
34 96
34 103
35 50
35 58
35 62
35 64
35 68
35 71
35 74
35 76
35 77
35 79
35 81
35 83
35 87
35 91
35 92
35 96
35 98
35 101
36 38
36 47
36 49
36 54
36 69
36 72
36 81
36 85
36 92
36 95
36 100
36 101
36 106
37 42
37 58
37 70
37 76
37 79
37 86
37 94
37 95
37 96
37 102
38 41
38 43
38 47
38 54
38 55
38 59
38 63
38 64
38 65
38 70
38 74
38 87
38 89
38 90
38 91
38 92
38 96
38 99
39 47
39 49
39 52
39 53
39 54
39 55
39 64
39 65
39 73
39 82
39 84
39 86
39 90
39 93
39 95
39 97
39 99
39 101
39 106
40 49
40 55
40 60
40 66
40 67
40 69
40 71
40 72
40 75
40 85
40 87
40 91
40 95
40 99
40 101
40 102
40 105
40 109
41 48
41 49
41 53
41 61
41 70
41 76
41 81
41 83
41 84
41 85
41 87
41 90
41 92
41 99
41 103
41 105
41 107
42 43
42 58
42 59
42 60
42 61
42 62
42 63
42 70
42 76
42 94
43 44
43 50
43 66
43 73
43 74
43 78
43 80
43 81
43 85
43 87
43 95
43 100
43 104
43 105
43 107
43 109
44 59
44 60
44 65
44 69
44 75
44 77
44 80
44 83
44 89
44 95
44 96
44 100
44 104
44 108
44 109
45 48
45 52
45 60
45 61
45 65
45 74
45 75
45 78
45 80
45 81
45 83
45 85
45 91
45 92
45 97
45 98
45 99
46 56
46 58
46 60
46 62
46 63
46 64
46 70
46 72
46 79
46 80
46 83
46 99
46 109
47 54
47 57
47 60
47 62
47 63
47 64
47 68
47 69
47 73
47 82
47 85
47 92
47 101
47 102
47 105
48 53
48 55
48 58
48 62
48 65
48 66
48 67
48 70
48 71
48 74
48 78
48 83
48 91
48 92
48 94
48 96
48 97
48 99
48 102
48 105
48 107
48 109
49 50
49 52
49 56
49 58
49 59
49 62
49 73
49 84
49 85
49 87
49 91
49 94
49 95
49 104
49 106
50 53
50 58
50 62
50 63
50 64
50 65
50 69
50 72
50 73
50 77
50 80
50 92
50 104
51 59
51 60
51 62
51 63
51 66
51 79
51 86
51 90
51 91
51 92
51 95
51 98
51 105
51 106
52 58
52 60
52 62
52 64
52 85
52 93
52 95
52 98
52 100
52 101
52 106
52 109
53 54
53 65
53 69
53 70
53 72
53 80
53 87
53 88
53 92
53 97
53 103
54 56
54 65
54 66
54 68
54 70
54 73
54 74
54 75
54 81
54 82
54 83
54 84
54 95
54 96
54 97
54 98
54 99
54 100
54 103
55 63
55 64
55 70
55 73
55 74
55 79
55 82
55 87
55 91
55 94
55 108
56 61
56 64
56 66
56 67
56 70
56 80
56 86
56 87
56 90
56 93
56 95
56 97
56 99
56 103
56 107
57 59
57 61
57 62
57 63
57 67
57 71
57 80
57 83
57 84
57 85
57 90
57 92
57 94
57 95
57 97
57 104
57 105
57 106
57 108
58 61
58 63
58 71
58 72
58 73
58 77
58 83
58 85
58 88
58 89
58 92
58 96
59 69
59 79
59 81
59 82
59 86
59 90
59 91
59 98
59 100
59 105
60 61
60 65
60 70
60 72
60 73
60 74
60 79
60 82
60 94
60 95
60 102
60 103
61 66
61 67
61 69
61 79
61 80
61 83
61 89
61 93
61 109
62 71
62 80
62 83
62 84
62 94
62 95
62 97
62 99
62 100
62 106
63 66
63 69
63 76
63 82
63 88
63 92
63 96
63 97
63 106
64 65
64 75
64 78
64 80
64 81
64 88
64 99
64 109
65 67
65 68
65 70
65 72
65 76
65 79
65 88
65 94
65 103
65 104
65 105
65 107
66 70
66 81
66 88
66 95
66 97
66 101
66 103
66 108
67 71
67 72
67 88
67 90
67 96
67 98
67 103
67 105
68 69
68 78
68 81
68 83
68 84
68 85
68 89
68 91
68 92
68 97
68 98
68 100
68 104
69 74
69 76
69 81
69 82
69 88
69 89
69 90
69 91
69 92
69 94
69 95
69 99
69 101
69 105
69 106
69 107
70 73
70 74
70 81
70 84
70 88
70 89
70 92
70 105
71 72
71 85
71 89
71 96
71 109
72 75
72 79
72 82
72 86
72 94
72 98
72 105
72 106
72 109
73 74
73 77
73 78
73 79
73 80
73 82
73 88
73 95
73 98
73 99
73 100
73 101
73 106
74 76
74 80
74 81
74 87
74 90
74 95
74 101
74 102
74 103
75 89
75 91
75 92
75 99
75 103
76 77
76 80
76 81
76 91
76 98
76 100
76 101
76 103
76 108
77 78
77 79
77 91
77 92
77 96
77 99
77 103
78 83
78 84
78 85
78 86
78 91
78 104
78 108
79 83
79 84
79 86
79 92
79 95
79 98
79 106
80 81
80 89
80 91
80 92
80 95
80 97
80 105
81 86
81 92
81 93
81 96
81 100
81 101
82 84
82 90
82 93
82 96
82 97
82 98
82 104
82 109
83 84
83 85
83 99
83 100
83 105
84 92
84 97
84 98
84 99
84 108
85 86
85 92
85 96
86 88
86 92
86 93
86 98
86 102
86 107
87 88
87 93
87 100
87 101
87 104
87 105
87 108
88 94
88 104
88 106
88 107
88 109
89 99
89 101
89 102
89 105
89 109
90 92
90 94
90 97
90 98
90 99
90 104
90 107
90 108
90 109
91 101
91 104
91 105
91 106
92 103
93 94
93 96
93 98
93 99
93 101
93 109
94 95
94 96
94 97
95 108
96 99
96 100
96 103
96 106
97 104
98 103
99 101
99 103
99 104
99 108
100 101
100 103
100 109
101 102
101 104
101 105
102 105
102 106
102 108
103 108
105 109
107 108
107 109
