110:1486
0 6
0 13
0 18
0 19
0 22
0 25
0 30
0 32
0 34
0 35
0 36
0 39
0 42
0 44
0 45
0 47
0 64
0 69
0 74
0 78
0 82
0 86
0 88
0 91
0 96
0 108
1 4
1 9
1 11
1 12
1 22
1 31
1 32
1 33
1 46
1 48
1 50
1 53
1 58
1 63
1 67
1 68
1 84
1 85
1 86
1 88
1 89
1 94
1 95
1 100
1 101
2 3
2 8
2 11
2 15
2 24
2 29
2 30
2 36
2 40
2 51
2 53
2 58
2 59
2 61
2 64
2 66
2 71
2 72
2 73
2 74
2 79
2 83
2 91
2 92
2 97
2 99
3 4
3 7
3 20
3 22
3 23
3 24
3 25
3 31
3 34
3 37
3 38
3 47
3 58
3 59
3 60
3 65
3 67
3 68
3 70
3 73
3 86
3 90
3 98
3 101
3 104
3 105
4 11
4 15
4 16
4 21
4 24
4 34
4 35
4 37
4 38
4 44
4 49
4 51
4 52
4 61
4 62
4 66
4 67
4 70
4 74
4 81
4 92
4 94
4 101
4 107
5 15
5 21
5 24
5 34
5 38
5 39
5 40
5 41
5 48
5 51
5 52
5 59
5 64
5 69
5 78
5 84
5 85
5 87
5 88
5 93
5 94
5 95
5 96
5 98
5 101
5 103
6 8
6 11
6 15
6 20
6 21
6 22
6 24
6 25
6 32
6 33
6 34
6 37
6 40
6 47
6 49
6 51
6 52
6 54
6 59
6 61
6 67
6 68
6 70
6 71
6 73
6 77
6 89
6 94
6 95
6 96
6 106
7 9
7 23
7 25
7 26
7 31
7 32
7 42
7 44
7 48
7 53
7 62
7 64
7 66
7 70
7 79
7 91
7 94
7 101
7 102
7 106
8 11
8 12
8 13
8 14
8 26
8 27
8 29
8 38
8 39
8 40
8 43
8 50
8 56
8 59
8 60
8 64
8 69
8 71
8 72
8 73
8 78
8 80
8 82
8 83
8 86
8 94
8 98
8 103
8 105
8 106
8 109
9 10
9 13
9 16
9 20
9 27
9 45
9 46
9 51
9 55
9 56
9 58
9 60
9 66
9 69
9 71
9 75
9 76
9 83
9 92
9 94
10 11
10 12
10 20
10 22
10 26
10 32
10 34
10 48
10 51
10 63
10 67
10 77
10 80
10 84
10 85
10 88
10 91
10 92
10 96
10 106
10 107
11 14
11 15
11 19
11 21
11 23
11 26
11 27
11 33
11 44
11 46
11 49
11 52
11 56
11 61
11 63
11 66
11 73
11 74
11 76
11 78
11 79
11 83
11 90
11 95
11 96
11 97
11 106
11 108
11 109
12 14
12 15
12 19
12 21
12 28
12 30
12 31
12 39
12 40
12 44
12 48
12 52
12 54
12 58
12 59
12 60
12 65
12 68
12 77
12 86
12 87
12 90
12 91
12 92
12 96
12 97
12 99
12 101
12 102
12 106
13 18
13 22
13 27
13 29
13 32
13 33
13 43
13 45
13 47
13 55
13 56
13 61
13 62
13 66
13 68
13 69
13 71
13 73
13 75
13 80
13 82
13 84
13 88
13 91
13 92
13 102
13 104
13 106
13 108
14 18
14 20
14 21
14 24
14 33
14 34
14 38
14 43
14 46
14 52
14 53
14 58
14 62
14 64
14 78
14 79
14 85
14 87
14 93
14 94
14 100
14 101
14 102
14 104
14 107
14 109
15 27
15 29
15 31
15 36
15 37
15 39
15 42
15 43
15 47
15 50
15 52
15 62
15 66
15 67
15 70
15 72
15 80
15 82
15 85
15 89
15 90
15 93
15 96
15 101
15 105
16 21
16 24
16 31
16 33
16 35
16 48
16 52
16 55
16 60
16 65
16 67
16 70
16 74
16 78
16 95
16 100
16 109
17 19
17 22
17 26
17 28
17 29
17 30
17 33
17 38
17 44
17 45
17 59
17 63
17 67
17 68
17 70
17 77
17 79
17 85
17 86
17 93
17 105
17 106
17 108
18 22
18 23
18 26
18 28
18 31
18 39
18 41
18 47
18 50
18 54
18 56
18 62
18 65
18 68
18 75
18 80
18 81
18 83
18 86
18 87
18 89
18 90
18 92
18 95
18 99
18 103
18 105
18 106
18 109
19 20
19 21
19 22
19 26
19 27
19 31
19 32
19 35
19 46
19 52
19 53
19 58
19 63
19 64
19 67
19 69
19 70
19 76
19 79
19 80
19 88
19 95
19 96
19 99
19 100
19 101
19 105
19 108
20 23
20 24
20 26
20 29
20 38
20 40
20 42
20 56
20 58
20 61
20 62
20 63
20 67
20 69
20 82
20 84
20 85
20 91
20 95
20 100
20 101
20 104
20 108
21 30
21 34
21 35
21 40
21 41
21 51
21 56
21 57
21 58
21 61
21 67
21 73
21 76
21 79
21 82
21 89
21 92
21 94
21 99
21 101
21 107
22 24
22 33
22 35
22 37
22 40
22 45
22 47
22 48
22 56
22 61
22 76
22 78
22 86
22 92
22 94
22 95
22 100
22 104
22 108
23 26
23 36
23 39
23 40
23 46
23 47
23 53
23 55
23 59
23 75
23 76
23 81
23 82
23 83
23 85
23 90
23 95
23 103
23 104
23 107
24 28
24 34
24 41
24 42
24 44
24 46
24 52
24 53
24 59
24 61
24 65
24 66
24 67
24 69
24 70
24 75
24 78
24 82
24 88
24 89
24 90
24 99
24 101
24 105
24 106
25 32
25 33
25 36
25 39
25 43
25 44
25 45
25 63
25 69
25 70
25 73
25 75
25 76
25 80
25 83
25 85
25 89
25 91
25 97
25 98
25 99
25 100
25 101
25 103
25 105
25 106
25 107
26 39
26 41
26 45
26 48
26 55
26 56
26 57
26 67
26 69
26 74
26 85
26 87
26 89
26 92
26 94
26 96
26 98
26 103
26 104
26 107
26 108
27 28
27 29
27 34
27 35
27 39
27 40
27 48
27 62
27 68
27 72
27 77
27 78
27 79
27 80
27 83
27 87
27 89
27 92
27 98
27 99
27 101
27 107
28 36
28 38
28 47
28 60
28 62
28 66
28 71
28 74
28 75
28 77
28 78
28 79
28 81
28 106
29 32
29 42
29 47
29 51
29 57
29 58
29 61
29 67
29 69
29 71
29 72
29 76
29 77
29 78
29 81
29 84
29 85
29 86
29 92
29 97
29 98
29 99
29 103
29 106
29 107
30 34
30 36
30 38
30 41
30 44
30 61
30 65
30 67
30 70
30 73
30 75
30 78
30 79
30 88
30 91
30 100
30 104
31 38
31 41
31 42
31 51
31 52
31 53
31 54
31 57
31 59
31 62
31 65
31 75
31 79
31 81
31 84
31 85
31 95
31 96
31 98
31 99
31 102
31 103
31 104
32 36
32 37
32 39
32 40
32 42
32 48
32 50
32 58
32 69
32 70
32 71
32 73
32 79
32 81
32 83
32 85
32 86
32 89
32 91
32 94
32 102
32 104
32 107
33 36
33 38
33 39
33 43
33 51
33 52
33 53
33 56
33 58
33 59
33 60
33 73
33 74
33 76
33 77
33 78
33 80
33 82
33 90
33 95
33 107
34 37
34 43
34 44
34 51
34 52
34 57
34 58
34 59
34 61
34 64
34 66
34 69
34 71
34 80
34 88
34 94
34 96
34 100
34 105
34 107
34 108
35 37
35 38
35 45
35 46
35 48
35 49
35 53
35 65
35 68
35 71
35 78
35 82
35 85
35 88
35 95
35 99
35 103
35 106
35 107
36 39
36 46
36 49
36 54
36 68
36 71
36 79
36 84
36 85
36 100
36 101
36 102
37 41
37 46
37 52
37 55
37 56
37 57
37 64
37 69
37 71
37 72
37 93
37 100
37 103
38 41
38 48
38 51
38 52
38 59
38 62
38 63
38 70
38 74
38 75
38 80
38 83
38 85
38 86
38 100
38 101
38 103
38 106
38 107
38 109
39 40
39 44
39 46
39 51
39 55
39 56
39 59
39 64
39 76
39 81
39 85
39 88
39 94
39 96
39 102
39 104
39 106
40 45
40 47
40 48
40 54
40 57
40 59
40 62
40 64
40 67
40 70
40 71
40 75
40 76
40 78
40 85
40 86
40 88
40 94
40 97
40 106
41 47
41 48
41 60
41 71
41 76
41 83
41 85
41 86
41 88
41 90
41 97
41 106
41 108
42 46
42 51
42 53
42 60
42 61
42 62
42 64
42 71
42 72
42 78
42 82
42 87
42 90
42 94
42 95
42 101
42 102
42 106
42 108
42 109
43 44
43 52
43 59
43 71
43 72
43 75
43 76
43 77
43 80
43 84
43 85
43 87
43 90
43 91
43 96
43 99
43 105
43 106
44 47
44 53
44 54
44 56
44 58
44 62
44 70
44 77
44 97
44 101
44 106
45 57
45 63
45 66
45 72
45 73
45 74
45 77
45 79
45 87
45 93
45 98
45 101
45 106
45 107
46 50
46 54
46 60
46 64
46 68
46 71
46 72
46 76
46 89
46 92
46 93
46 96
46 104
46 105
46 106
47 54
47 56
47 63
47 71
47 78
47 80
47 87
47 91
47 95
47 99
47 103
47 107
47 109
48 61
48 63
48 72
48 77
48 96
48 97
48 100
48 102
48 107
49 52
49 64
49 71
49 72
49 77
49 78
49 80
49 84
49 88
49 93
49 100
49 104
49 105
49 109
50 55
50 57
50 60
50 61
50 64
50 72
50 74
50 75
50 77
50 81
50 83
50 99
50 105
50 107
51 53
51 54
51 56
51 59
51 62
51 70
51 76
51 80
51 89
51 101
51 108
52 61
52 67
52 68
52 71
52 75
52 76
52 83
52 87
52 89
52 92
52 94
52 95
52 96
52 97
52 105
52 107
53 56
53 58
53 59
53 66
53 78
53 79
53 80
53 81
53 82
53 85
53 97
53 98
53 100
53 101
53 102
53 109
54 58
54 63
54 65
54 69
54 73
54 76
54 77
54 88
54 95
55 60
55 64
55 75
55 76
55 77
55 80
55 83
55 93
55 95
55 96
55 98
55 102
55 105
55 106
56 59
56 68
56 70
56 74
56 75
56 79
56 80
56 82
56 83
56 89
56 92
56 94
56 99
56 107
56 109
57 60
57 62
57 78
57 81
57 83
57 87
57 91
57 94
57 106
57 107
58 60
58 61
58 68
58 70
58 71
58 72
58 77
58 79
58 80
58 86
58 90
58 93
58 96
58 104
58 109
59 67
59 68
59 76
59 83
59 88
59 90
59 102
59 106
59 109
60 62
60 68
60 69
60 77
60 82
60 83
60 90
60 96
60 101
60 102
60 103
60 108
61 65
61 75
61 81
61 84
61 86
61 93
61 95
61 97
61 100
61 103
61 107
61 108
62 64
62 68
62 70
62 76
62 77
62 81
62 89
62 90
62 93
62 99
62 101
62 104
62 108
63 71
63 76
63 78
63 79
63 82
63 87
63 89
63 90
63 91
63 92
63 95
63 98
63 104
64 78
64 83
64 85
64 89
64 90
64 93
64 95
64 101
64 105
64 106
64 108
64 109
65 82
65 85
65 86
65 104
65 107
66 68
66 77
66 78
66 81
66 82
66 85
66 87
66 95
66 97
66 99
66 101
66 103
66 105
66 109
67 68
67 69
67 76
67 81
67 86
67 87
67 89
67 94
67 96
67 97
67 102
67 108
67 109
68 69
68 70
68 76
68 78
68 88
68 90
68 91
68 93
68 94
68 101
68 103
68 105
69 71
69 75
69 77
69 79
69 82
69 85
69 90
69 97
69 101
69 103
69 105
69 109
70 74
70 86
70 87
70 90
70 92
70 93
70 94
70 96
70 97
71 78
71 83
71 87
71 90
71 92
71 94
71 99
71 102
71 106
71 107
72 73
72 75
72 89
72 95
72 99
72 100
72 103
73 81
73 84
73 94
73 102
73 104
74 75
74 77
74 79
74 86
74 89
74 91
74 94
74 104
74 106
74 109
75 82
75 87
75 88
75 90
75 97
75 99
75 101
75 103
75 104
75 105
76 80
76 81
76 90
76 92
76 97
76 98
76 101
76 103
76 109
77 78
77 86
77 88
77 91
77 98
77 108
78 79
78 82
78 84
78 91
78 97
78 103
78 105
78 106
79 83
79 85
79 86
79 87
79 88
79 91
79 93
79 99
80 82
80 93
80 94
80 96
80 99
80 100
80 102
81 89
81 96
81 97
82 89
82 92
82 96
82 101
82 106
83 90
83 94
83 96
83 106
84 88
84 93
84 96
84 102
84 107
85 108
86 88
86 89
86 91
86 93
86 94
86 95
86 96
86 97
86 103
86 106
87 88
87 93
87 96
87 99
87 101
87 102
87 104
87 108
88 89
88 97
88 98
89 100
89 105
89 108
90 99
90 101
90 108
91 92
91 93
91 97
91 102
91 108
92 94
92 98
92 104
93 95
93 96
93 99
93 100
94 95
94 101
94 106
94 109
95 100
95 102
95 107
96 100
97 101
97 105
97 108
98 101
98 103
98 105
98 106
98 107
99 102
99 105
99 107
100 102
100 104
100 107
100 109
101 104
102 106
102 109
103 107
104 105
104 108
106 107
106 109
