110:1528
0 2
0 5
0 8
0 9
0 11
0 13
0 14
0 15
0 30
0 35
0 37
0 40
0 45
0 47
0 53
0 56
0 61
0 62
0 68
0 70
0 78
0 82
0 87
0 88
0 96
0 97
0 104
0 109
1 8
1 11
1 31
1 32
1 33
1 35
1 39
1 47
1 48
1 50
1 53
1 55
1 58
1 59
1 61
1 65
1 70
1 78
1 85
1 88
1 89
1 100
1 104
1 107
1 108
2 3
2 5
2 11
2 12
2 21
2 24
2 25
2 26
2 30
2 33
2 40
2 44
2 47
2 48
2 50
2 54
2 60
2 63
2 71
2 75
2 78
2 81
2 85
2 86
2 92
2 93
2 94
2 95
2 98
2 99
2 104
2 106
3 4
3 5
3 7
3 9
3 10
3 12
3 16
3 20
3 21
3 26
3 27
3 39
3 51
3 53
3 57
3 60
3 62
3 65
3 68
3 83
3 87
3 91
3 98
3 99
4 11
4 12
4 19
4 21
4 25
4 28
4 30
4 37
4 40
4 51
4 55
4 56
4 89
4 93
4 96
4 103
4 105
4 109
5 7
5 9
5 12
5 13
5 15
5 23
5 30
5 34
5 35
5 41
5 42
5 49
5 55
5 56
5 61
5 63
5 64
5 71
5 77
5 79
5 94
5 95
5 97
5 98
5 103
6 13
6 14
6 18
6 28
6 29
6 35
6 36
6 44
6 48
6 51
6 53
6 56
6 57
6 60
6 67
6 70
6 73
6 75
6 80
6 84
6 88
6 89
6 93
6 94
6 96
6 104
6 105
6 108
6 109
7 10
7 16
7 17
7 24
7 28
7 31
7 32
7 39
7 42
7 47
7 54
7 56
7 58
7 62
7 63
7 64
7 66
7 67
7 69
7 76
7 77
7 80
7 82
7 89
7 102
7 105
7 108
8 9
8 19
8 23
8 25
8 33
8 37
8 38
8 41
8 45
8 52
8 54
8 58
8 60
8 61
8 62
8 64
8 68
8 70
8 78
8 85
8 97
8 102
8 103
8 107
9 10
9 18
9 19
9 22
9 27
9 29
9 31
9 33
9 36
9 40
9 42
9 43
9 46
9 51
9 53
9 55
9 57
9 62
9 64
9 70
9 73
9 84
9 86
9 90
9 91
9 95
9 100
9 107
9 108
10 25
10 26
10 27
10 28
10 30
10 33
10 43
10 47
10 49
10 50
10 52
10 59
10 61
10 62
10 63
10 66
10 67
10 72
10 73
10 77
10 79
10 81
10 82
10 84
10 94
10 95
10 101
10 104
10 105
11 16
11 21
11 25
11 28
11 31
11 33
11 37
11 41
11 42
11 46
11 48
11 52
11 53
11 58
11 63
11 70
11 71
11 73
11 79
11 88
11 94
11 101
11 103
11 105
11 109
12 13
12 18
12 36
12 41
12 42
12 44
12 50
12 68
12 69
12 74
12 76
12 85
12 86
12 87
12 89
12 94
12 97
12 101
12 105
12 108
13 16
13 18
13 23
13 30
13 39
13 44
13 47
13 49
13 51
13 52
13 54
13 55
13 65
13 68
13 75
13 76
13 79
13 81
13 88
13 95
13 100
13 101
13 109
14 15
14 17
14 20
14 29
14 36
14 38
14 43
14 46
14 64
14 67
14 74
14 81
14 84
14 89
14 92
14 95
14 97
14 98
14 99
14 100
14 105
15 17
15 18
15 19
15 26
15 28
15 30
15 31
15 32
15 33
15 35
15 36
15 38
15 50
15 52
15 56
15 59
15 60
15 61
15 63
15 66
15 73
15 76
15 78
15 80
15 81
15 82
15 84
15 85
15 90
15 96
15 102
16 21
16 27
16 34
16 35
16 39
16 42
16 43
16 44
16 47
16 50
16 51
16 52
16 59
16 62
16 63
16 65
16 66
16 74
16 91
16 95
16 99
16 100
16 105
16 108
17 18
17 19
17 25
17 27
17 28
17 29
17 30
17 31
17 37
17 43
17 50
17 53
17 55
17 56
17 60
17 61
17 63
17 65
17 66
17 74
17 78
17 82
17 83
17 91
17 96
17 99
17 101
17 103
17 108
18 22
18 24
18 32
18 33
18 34
18 40
18 41
18 42
18 43
18 44
18 48
18 50
18 52
18 55
18 59
18 61
18 63
18 67
18 70
18 72
18 74
18 86
18 90
18 95
18 107
18 108
19 21
19 23
19 30
19 33
19 35
19 37
19 39
19 41
19 43
19 46
19 47
19 50
19 51
19 58
19 61
19 62
19 63
19 66
19 70
19 76
19 79
19 83
19 86
19 88
19 91
19 97
19 99
19 101
19 106
19 107
19 109
20 22
20 23
20 30
20 31
20 32
20 38
20 41
20 46
20 47
20 62
20 64
20 65
20 71
20 73
20 75
20 81
20 85
20 88
20 94
20 95
20 98
20 100
20 102
20 103
20 108
20 109
21 25
21 26
21 27
21 28
21 34
21 37
21 42
21 45
21 56
21 57
21 58
21 63
21 64
21 73
21 75
21 77
21 79
21 85
21 86
21 90
21 92
21 97
21 99
21 107
22 23
22 24
22 26
22 29
22 30
22 31
22 34
22 37
22 38
22 52
22 55
22 56
22 58
22 61
22 64
22 65
22 69
22 70
22 75
22 82
22 91
22 93
22 94
22 99
22 101
22 104
23 36
23 38
23 40
23 42
23 46
23 57
23 59
23 62
23 74
23 77
23 78
23 81
23 83
23 84
23 87
23 95
23 101
23 108
24 25
24 29
24 30
24 41
24 42
24 44
24 48
24 59
24 64
24 66
24 67
24 70
24 71
24 80
24 83
24 84
24 85
24 88
24 91
24 97
24 100
24 103
25 28
25 37
25 43
25 44
25 46
25 49
25 54
25 55
25 56
25 59
25 61
25 64
25 77
25 82
25 94
25 97
25 104
25 105
25 106
26 29
26 32
26 34
26 35
26 36
26 41
26 43
26 48
26 49
26 53
26 54
26 56
26 61
26 64
26 65
26 66
26 72
26 74
26 75
26 83
26 86
26 87
26 91
26 92
26 97
26 98
27 32
27 36
27 43
27 44
27 45
27 48
27 49
27 50
27 52
27 60
27 61
27 63
27 64
27 65
27 67
27 70
27 71
27 76
27 77
27 80
27 86
27 88
27 93
27 95
27 99
27 109
28 31
28 32
28 33
28 52
28 56
28 59
28 60
28 65
28 66
28 68
28 71
28 75
28 79
28 82
28 83
28 84
28 85
28 92
28 93
28 96
28 98
28 99
28 100
28 105
28 109
29 30
29 32
29 34
29 35
29 37
29 40
29 42
29 43
29 44
29 45
29 47
29 48
29 59
29 62
29 64
29 66
29 68
29 72
29 73
29 76
29 80
29 89
29 90
29 91
29 99
30 34
30 35
30 38
30 39
30 44
30 47
30 48
30 49
30 53
30 55
30 56
30 64
30 68
30 72
30 79
30 90
30 92
30 96
30 101
30 102
31 32
31 34
31 37
31 40
31 42
31 44
31 45
31 48
31 51
31 54
31 55
31 57
31 70
31 71
31 73
31 77
31 95
31 104
31 109
32 35
32 51
32 52
32 54
32 55
32 60
32 61
32 62
32 64
32 69
32 72
32 82
32 83
32 87
32 88
32 89
32 92
32 97
32 101
32 102
32 106
32 107
32 108
33 36
33 42
33 45
33 55
33 56
33 64
33 71
33 74
33 75
33 77
33 79
33 83
33 87
33 88
33 94
33 98
33 105
33 108
33 109
34 35
34 37
34 43
34 48
34 49
34 52
34 53
34 60
34 70
34 80
34 84
34 85
34 86
34 87
34 94
34 104
35 43
35 44
35 45
35 46
35 47
35 49
35 59
35 63
35 64
35 67
35 71
35 81
35 84
35 89
35 93
35 98
35 105
35 108
36 37
36 39
36 40
36 48
36 52
36 54
36 58
36 65
36 75
36 80
36 92
36 93
36 94
36 97
36 98
36 99
36 100
36 101
36 104
37 40
37 47
37 50
37 59
37 69
37 70
37 81
37 85
37 93
37 97
37 108
38 40
38 50
38 56
38 59
38 60
38 68
38 75
38 77
38 79
38 87
38 88
38 92
38 93
38 98
38 101
38 107
38 109
39 51
39 56
39 57
39 62
39 65
39 68
39 76
39 78
39 94
39 95
39 100
39 103
39 108
40 41
40 47
40 48
40 51
40 54
40 60
40 65
40 67
40 70
40 71
40 72
40 82
40 90
40 96
40 99
40 104
40 107
41 42
41 44
41 46
41 52
41 59
41 63
41 68
41 72
41 77
41 80
41 82
41 83
41 86
41 87
41 89
41 95
41 97
41 100
41 101
41 102
41 103
41 104
41 105
42 44
42 45
42 47
42 54
42 60
42 67
42 73
42 75
42 77
42 78
42 82
42 89
42 91
42 92
42 93
42 98
42 99
42 101
42 102
42 106
43 44
43 45
43 46
43 47
43 50
43 56
43 60
43 63
43 65
43 68
43 70
43 72
43 73
43 74
43 82
43 83
43 87
43 95
43 100
43 101
43 104
43 106
44 47
44 52
44 59
44 66
44 67
44 68
44 70
44 71
44 72
44 73
44 75
44 80
44 81
44 83
44 89
44 99
44 105
44 108
45 54
45 57
45 73
45 79
45 80
45 91
45 92
45 96
45 102
45 103
45 104
45 107
46 47
46 53
46 55
46 77
46 79
46 83
46 86
46 87
46 90
46 91
46 92
46 94
46 95
46 103
47 64
47 66
47 76
47 82
47 86
47 88
47 89
47 94
47 102
47 104
47 105
48 51
48 57
48 67
48 70
48 74
48 75
48 77
48 78
48 79
48 80
48 85
48 88
48 93
48 96
48 99
48 101
48 102
49 52
49 54
49 56
49 58
49 59
49 63
49 65
49 66
49 67
49 68
49 71
49 72
49 74
49 77
49 78
49 83
49 85
49 93
49 96
49 97
49 101
49 102
49 107
50 51
50 55
50 58
50 60
50 72
50 76
50 77
50 84
50 86
50 88
50 93
50 105
50 106
51 56
51 60
51 62
51 66
51 68
51 70
51 73
51 75
51 94
51 105
52 56
52 63
52 65
52 66
52 67
52 85
52 86
52 97
52 98
52 99
52 100
52 106
52 108
53 55
53 61
53 63
53 64
53 70
53 74
53 78
53 79
53 83
53 86
53 97
53 99
53 101
53 105
54 56
54 63
54 65
54 70
54 73
54 75
54 78
54 80
54 82
54 83
54 84
54 87
54 94
54 98
54 102
54 103
54 104
54 106
54 108
54 109
55 56
55 59
55 62
55 68
55 70
55 73
55 76
55 77
55 81
55 88
55 89
55 99
56 59
56 63
56 74
56 75
56 79
56 81
56 94
56 97
56 101
56 104
56 106
56 107
57 59
57 69
57 70
57 71
57 76
57 77
57 80
57 82
57 91
57 105
57 107
58 61
58 64
58 66
58 70
58 71
58 75
58 76
58 83
58 84
58 86
58 87
58 92
58 93
58 97
58 107
59 65
59 73
59 74
59 75
59 83
59 89
59 90
59 96
59 100
60 61
60 63
60 70
60 71
60 72
60 73
60 74
60 79
60 85
60 88
60 93
60 96
60 97
60 98
60 101
60 105
61 62
61 73
61 79
61 81
61 82
61 86
61 90
61 96
61 100
61 101
61 104
62 65
62 67
62 71
62 73
62 76
62 78
62 80
62 82
62 83
62 88
62 91
62 101
62 108
63 64
63 65
63 69
63 73
63 78
63 84
63 86
63 89
63 90
63 96
63 109
64 66
64 71
64 73
64 75
64 76
64 94
64 95
64 96
64 100
64 106
64 107
64 108
65 70
65 71
65 79
65 89
65 95
65 98
65 109
66 73
66 75
66 76
66 77
66 80
66 81
66 82
66 83
66 88
66 92
66 93
66 96
66 100
66 107
66 109
67 73
67 81
67 82
67 84
67 90
67 94
67 96
67 97
67 101
67 105
68 69
68 70
68 75
68 78
68 94
68 99
68 100
68 101
68 102
68 103
68 105
68 106
69 74
69 75
69 80
69 90
69 92
69 102
69 106
70 71
70 84
70 87
70 91
70 92
70 95
70 97
70 109
71 73
71 77
71 84
71 88
71 97
71 101
71 105
71 106
72 75
72 78
72 81
72 85
72 88
72 93
72 94
72 107
73 74
73 75
73 76
73 77
73 79
73 80
73 81
73 84
73 95
73 103
73 109
74 76
74 81
74 86
74 97
74 104
75 78
75 79
75 83
75 84
75 92
75 107
76 85
76 87
76 95
76 96
76 99
76 106
77 80
77 81
77 88
77 94
77 98
77 99
77 100
77 105
78 84
78 87
78 89
78 101
78 103
78 106
79 81
79 89
79 95
79 99
79 100
79 104
79 106
80 82
80 90
80 91
80 96
80 101
80 104
80 105
81 93
81 96
81 97
81 103
82 85
82 88
82 91
82 92
82 99
82 102
82 107
83 87
83 91
83 103
83 105
84 90
84 91
84 94
84 99
84 100
84 104
84 108
85 86
85 87
85 91
85 92
85 93
85 96
85 98
85 101
86 87
86 89
86 95
86 98
86 100
86 104
87 89
87 92
87 93
87 95
87 108
87 109
88 98
88 101
89 91
89 96
89 97
89 102
89 107
89 108
90 101
90 104
90 107
90 109
91 95
91 101
91 102
91 106
91 109
92 93
92 98
92 99
92 109
93 98
93 99
93 102
94 98
94 108
95 105
95 109
96 102
96 107
96 108
96 109
97 98
97 101
97 105
98 102
98 104
98 105
98 107
98 108
99 102
99 106
101 103
101 106
101 107
103 104
103 107
103 108
103 109
104 105
104 106
104 109
105 108
106 108
