110:2983
0 2
0 3
0 6
0 7
0 9
0 11
0 13
0 16
0 17
0 18
0 19
0 22
0 25
0 26
0 27
0 28
0 29
0 30
0 31
0 32
0 33
0 34
0 35
0 36
0 37
0 39
0 41
0 42
0 44
0 45
0 47
0 48
0 49
0 60
0 61
0 62
0 64
0 65
0 66
0 67
0 69
0 74
0 75
0 76
0 77
0 78
0 82
0 83
0 84
0 86
0 87
0 88
0 90
0 91
0 93
0 96
0 98
0 99
0 100
0 101
0 102
0 104
0 108
0 109
1 4
1 6
1 9
1 11
1 12
1 14
1 16
1 19
1 22
1 23
1 24
1 31
1 32
1 33
1 37
1 40
1 43
1 44
1 45
1 46
1 48
1 49
1 50
1 53
1 55
1 57
1 58
1 59
1 61
1 63
1 64
1 66
1 67
1 68
1 70
1 79
1 80
1 83
1 84
1 85
1 86
1 88
1 89
1 90
1 91
1 93
1 94
1 95
1 99
1 100
1 101
1 108
2 3
2 8
2 11
2 15
2 18
2 22
2 24
2 29
2 30
2 31
2 32
2 34
2 36
2 39
2 40
2 50
2 51
2 53
2 54
2 55
2 57
2 58
2 59
2 61
2 63
2 64
2 65
2 66
2 67
2 68
2 70
2 71
2 72
2 73
2 74
2 76
2 77
2 78
2 79
2 81
2 82
2 83
2 84
2 86
2 91
2 92
2 94
2 95
2 97
2 99
2 100
2 104
2 107
3 4
3 6
3 7
3 11
3 12
3 13
3 17
3 18
3 20
3 21
3 22
3 23
3 24
3 25
3 28
3 31
3 33
3 34
3 35
3 37
3 38
3 40
3 43
3 44
3 46
3 47
3 52
3 54
3 58
3 59
3 60
3 65
3 66
3 67
3 68
3 70
3 71
3 72
3 73
3 75
3 78
3 79
3 81
3 83
3 86
3 90
3 91
3 92
3 96
3 97
3 98
3 100
3 101
3 104
3 105
3 108
4 9
4 10
4 11
4 15
4 16
4 20
4 21
4 23
4 24
4 29
4 30
4 33
4 34
4 35
4 36
4 37
4 38
4 41
4 42
4 44
4 45
4 48
4 49
4 51
4 52
4 54
4 56
4 60
4 61
4 62
4 63
4 64
4 65
4 66
4 67
4 70
4 72
4 73
4 74
4 77
4 78
4 80
4 81
4 83
4 85
4 90
4 92
4 94
4 96
4 101
4 102
4 107
5 6
5 12
5 13
5 15
5 16
5 20
5 21
5 22
5 24
5 25
5 27
5 34
5 35
5 36
5 38
5 39
5 40
5 41
5 42
5 44
5 48
5 50
5 51
5 52
5 54
5 56
5 57
5 59
5 60
5 63
5 64
5 66
5 69
5 72
5 74
5 76
5 78
5 79
5 81
5 82
5 84
5 85
5 87
5 88
5 90
5 91
5 92
5 93
5 94
5 95
5 96
5 98
5 99
5 101
5 103
5 107
6 7
6 8
6 11
6 13
6 15
6 20
6 21
6 22
6 24
6 25
6 27
6 28
6 30
6 31
6 32
6 33
6 34
6 35
6 36
6 37
6 39
6 40
6 41
6 42
6 43
6 47
6 49
6 51
6 52
6 54
6 56
6 59
6 61
6 66
6 67
6 68
6 70
6 71
6 73
6 77
6 78
6 84
6 88
6 89
6 93
6 94
6 95
6 96
6 101
6 102
6 105
6 106
7 9
7 13
7 16
7 20
7 23
7 25
7 26
7 28
7 29
7 30
7 31
7 32
7 33
7 38
7 42
7 44
7 48
7 53
7 55
7 59
7 60
7 62
7 64
7 66
7 70
7 77
7 79
7 80
7 81
7 83
7 87
7 88
7 91
7 93
7 94
7 96
7 101
7 102
7 106
7 109
8 9
8 11
8 12
8 13
8 14
8 15
8 20
8 22
8 24
8 26
8 27
8 29
8 33
8 38
8 39
8 40
8 43
8 49
8 50
8 55
8 56
8 58
8 59
8 60
8 64
8 67
8 69
8 71
8 72
8 73
8 74
8 78
8 79
8 80
8 82
8 83
8 86
8 89
8 92
8 94
8 95
8 96
8 97
8 98
8 100
8 102
8 103
8 105
8 106
8 108
8 109
9 10
9 11
9 13
9 15
9 16
9 19
9 20
9 27
9 28
9 31
9 32
9 33
9 35
9 43
9 45
9 46
9 51
9 53
9 55
9 56
9 57
9 58
9 60
9 63
9 65
9 66
9 69
9 70
9 71
9 74
9 75
9 76
9 82
9 83
9 84
9 87
9 88
9 89
9 90
9 91
9 92
9 94
9 95
9 101
9 105
9 107
9 108
10 11
10 12
10 13
10 14
10 16
10 20
10 22
10 25
10 26
10 32
10 34
10 38
10 39
10 40
10 44
10 48
10 50
10 51
10 52
10 55
10 58
10 62
10 63
10 67
10 69
10 72
10 73
10 77
10 80
10 81
10 84
10 85
10 87
10 88
10 91
10 92
10 94
10 96
10 99
10 103
10 106
10 107
10 108
11 12
11 14
11 15
11 16
11 19
11 20
11 21
11 23
11 25
11 26
11 27
11 29
11 30
11 33
11 35
11 39
11 40
11 44
11 46
11 48
11 49
11 52
11 55
11 56
11 58
11 59
11 61
11 62
11 63
11 65
11 66
11 67
11 71
11 73
11 74
11 75
11 76
11 78
11 79
11 83
11 84
11 85
11 86
11 90
11 91
11 93
11 94
11 95
11 96
11 97
11 98
11 106
11 108
11 109
12 13
12 14
12 15
12 16
12 17
12 18
12 19
12 21
12 22
12 23
12 28
12 30
12 31
12 32
12 33
12 36
12 38
12 39
12 40
12 41
12 42
12 44
12 48
12 52
12 54
12 57
12 58
12 59
12 60
12 65
12 68
12 73
12 74
12 75
12 77
12 80
12 81
12 82
12 83
12 86
12 87
12 89
12 90
12 91
12 92
12 94
12 96
12 97
12 99
12 100
12 101
12 102
12 103
12 104
12 106
13 15
13 16
13 18
13 19
13 21
13 22
13 23
13 24
13 25
13 26
13 27
13 28
13 29
13 32
13 33
13 34
13 35
13 36
13 39
13 40
13 42
13 43
13 45
13 47
13 48
13 55
13 56
13 60
13 61
13 62
13 63
13 65
13 66
13 67
13 68
13 69
13 71
13 73
13 74
13 75
13 76
13 80
13 82
13 84
13 85
13 86
13 88
13 90
13 91
13 92
13 93
13 94
13 95
13 102
13 103
13 104
13 106
13 107
13 108
14 15
14 18
14 20
14 21
14 23
14 24
14 26
14 27
14 28
14 32
14 33
14 34
14 38
14 40
14 41
14 43
14 46
14 48
14 52
14 53
14 54
14 55
14 56
14 58
14 59
14 61
14 62
14 64
14 65
14 73
14 74
14 75
14 76
14 78
14 79
14 85
14 86
14 87
14 93
14 94
14 96
14 97
14 99
14 100
14 101
14 102
14 104
14 105
14 107
14 109
15 17
15 18
15 24
15 27
15 29
15 31
15 32
15 35
15 36
15 37
15 39
15 42
15 43
15 45
15 47
15 50
15 51
15 52
15 56
15 58
15 59
15 60
15 61
15 62
15 65
15 66
15 67
15 68
15 69
15 70
15 71
15 72
15 79
15 80
15 82
15 83
15 85
15 86
15 89
15 90
15 93
15 96
15 97
15 98
15 101
15 102
15 105
15 106
15 109
16 18
16 21
16 22
16 24
16 27
16 29
16 31
16 33
16 35
16 42
16 45
16 46
16 47
16 48
16 49
16 51
16 52
16 55
16 60
16 65
16 67
16 70
16 73
16 74
16 75
16 78
16 79
16 80
16 82
16 85
16 88
16 94
16 95
16 96
16 100
16 102
16 106
16 109
17 19
17 21
17 22
17 25
17 26
17 28
17 29
17 30
17 31
17 32
17 33
17 35
17 38
17 44
17 45
17 51
17 53
17 54
17 55
17 58
17 59
17 60
17 61
17 63
17 64
17 66
17 67
17 68
17 70
17 72
17 73
17 74
17 76
17 77
17 79
17 81
17 83
17 85
17 86
17 87
17 92
17 93
17 94
17 100
17 101
17 104
17 105
17 106
17 108
18 19
18 22
18 23
18 25
18 26
18 28
18 31
18 32
18 35
18 36
18 39
18 41
18 47
18 50
18 52
18 54
18 56
18 62
18 64
18 65
18 68
18 69
18 75
18 78
18 80
18 81
18 82
18 83
18 84
18 86
18 87
18 89
18 90
18 91
18 92
18 95
18 98
18 99
18 103
18 105
18 106
18 108
18 109
19 20
19 21
19 22
19 26
19 27
19 31
19 32
19 33
19 35
19 39
19 41
19 42
19 43
19 45
19 46
19 48
19 49
19 52
19 53
19 54
19 55
19 58
19 59
19 63
19 64
19 67
19 68
19 69
19 70
19 74
19 75
19 76
19 79
19 80
19 81
19 82
19 83
19 85
19 86
19 87
19 88
19 89
19 92
19 93
19 95
19 96
19 98
19 99
19 100
19 101
19 102
19 103
19 105
19 106
19 108
20 23
20 24
20 26
20 28
20 29
20 34
20 35
20 36
20 38
20 40
20 42
20 44
20 55
20 56
20 57
20 58
20 59
20 60
20 61
20 62
20 63
20 67
20 69
20 70
20 76
20 82
20 84
20 85
20 88
20 90
20 91
20 92
20 94
20 95
20 100
20 101
20 103
20 104
20 105
20 108
21 22
21 25
21 26
21 30
21 34
21 35
21 40
21 41
21 42
21 43
21 47
21 49
21 51
21 56
21 57
21 58
21 59
21 60
21 61
21 62
21 63
21 64
21 66
21 67
21 71
21 73
21 75
21 76
21 79
21 80
21 82
21 83
21 86
21 87
21 89
21 92
21 94
21 97
21 98
21 99
21 101
21 107
21 109
22 24
22 28
22 30
22 31
22 33
22 34
22 35
22 37
22 38
22 39
22 40
22 45
22 47
22 48
22 56
22 58
22 61
22 63
22 66
22 67
22 68
22 69
22 70
22 71
22 73
22 75
22 76
22 78
22 79
22 85
22 86
22 87
22 88
22 90
22 92
22 93
22 94
22 95
22 96
22 97
22 100
22 101
22 104
22 108
22 109
23 26
23 27
23 31
23 33
23 36
23 37
23 39
23 40
23 42
23 43
23 44
23 46
23 47
23 53
23 54
23 55
23 58
23 59
23 61
23 67
23 72
23 75
23 76
23 81
23 82
23 83
23 85
23 86
23 90
23 91
23 95
23 97
23 102
23 103
23 104
23 107
23 108
23 109
24 25
24 27
24 28
24 29
24 30
24 31
24 32
24 33
24 34
24 35
24 38
24 39
24 41
24 42
24 44
24 45
24 46
24 47
24 49
24 51
24 52
24 53
24 58
24 59
24 61
24 63
24 64
24 65
24 66
24 67
24 69
24 70
24 71
24 75
24 78
24 82
24 83
24 84
24 87
24 88
24 89
24 90
24 91
24 93
24 99
24 101
24 102
24 105
24 106
24 107
25 26
25 32
25 33
25 36
25 38
25 39
25 41
25 43
25 44
25 45
25 47
25 48
25 50
25 51
25 53
25 62
25 63
25 65
25 67
25 68
25 69
25 70
25 72
25 73
25 75
25 76
25 80
25 83
25 85
25 88
25 89
25 90
25 91
25 95
25 97
25 98
25 99
25 100
25 101
25 102
25 103
25 105
25 106
25 107
25 108
26 31
26 33
26 35
26 36
26 39
26 41
26 45
26 46
26 48
26 51
26 53
26 55
26 56
26 57
26 58
26 60
26 61
26 65
26 67
26 69
26 71
26 72
26 74
26 76
26 77
26 78
26 80
26 81
26 83
26 84
26 85
26 86
26 87
26 88
26 89
26 90
26 92
26 93
26 94
26 95
26 96
26 98
26 99
26 103
26 104
26 105
26 107
26 108
27 28
27 29
27 34
27 35
27 38
27 39
27 40
27 42
27 44
27 45
27 46
27 48
27 50
27 55
27 59
27 62
27 66
27 67
27 68
27 72
27 74
27 75
27 76
27 77
27 78
27 79
27 80
27 83
27 84
27 87
27 89
27 90
27 92
27 94
27 96
27 98
27 99
27 100
27 101
27 106
27 107
27 109
28 31
28 33
28 34
28 36
28 38
28 39
28 40
28 47
28 48
28 51
28 58
28 60
28 62
28 63
28 66
28 69
28 71
28 73
28 74
28 75
28 77
28 78
28 79
28 80
28 81
28 85
28 86
28 93
28 96
28 97
28 100
28 105
28 106
28 107
29 30
29 32
29 34
29 36
29 37
29 42
29 47
29 51
29 57
29 58
29 61
29 67
29 69
29 71
29 72
29 76
29 77
29 78
29 81
29 84
29 85
29 86
29 89
29 92
29 93
29 95
29 96
29 97
29 98
29 99
29 100
29 101
29 103
29 104
29 105
29 106
29 107
29 109
30 31
30 34
30 35
30 36
30 38
30 41
30 44
30 47
30 49
30 54
30 55
30 60
30 61
30 65
30 67
30 68
30 70
30 73
30 75
30 76
30 78
30 79
30 80
30 81
30 82
30 86
30 88
30 90
30 91
30 95
30 100
30 104
30 106
31 33
31 35
31 36
31 38
31 40
31 41
31 42
31 45
31 48
31 51
31 52
31 53
31 54
31 57
31 58
31 59
31 62
31 64
31 65
31 69
31 71
31 72
31 75
31 77
31 79
31 81
31 84
31 85
31 86
31 95
31 96
31 98
31 99
31 102
31 103
31 104
31 105
32 34
32 36
32 37
32 38
32 39
32 40
32 42
32 46
32 48
32 49
32 50
32 53
32 54
32 56
32 58
32 64
32 65
32 66
32 68
32 69
32 70
32 71
32 73
32 74
32 75
32 76
32 78
32 79
32 81
32 82
32 83
32 85
32 86
32 89
32 91
32 93
32 94
32 100
32 102
32 104
32 105
32 106
32 107
32 108
33 35
33 36
33 38
33 39
33 41
33 43
33 48
33 51
33 52
33 53
33 55
33 56
33 57
33 58
33 59
33 60
33 62
33 63
33 64
33 66
33 67
33 69
33 73
33 74
33 76
33 77
33 78
33 80
33 82
33 84
33 85
33 90
33 93
33 95
33 96
33 99
33 100
33 103
33 104
33 105
33 107
33 109
34 36
34 37
34 39
34 43
34 44
34 46
34 48
34 51
34 52
34 53
34 55
34 56
34 57
34 58
34 59
34 61
34 64
34 65
34 66
34 69
34 71
34 72
34 73
34 74
34 77
34 78
34 79
34 80
34 82
34 83
34 84
34 87
34 88
34 90
34 94
34 96
34 97
34 100
34 101
34 105
34 107
34 108
35 36
35 37
35 38
35 40
35 45
35 46
35 47
35 48
35 49
35 53
35 56
35 60
35 61
35 62
35 63
35 65
35 67
35 68
35 71
35 73
35 78
35 80
35 81
35 82
35 85
35 88
35 89
35 90
35 91
35 92
35 95
35 97
35 98
35 99
35 101
35 102
35 103
35 104
35 106
35 107
35 109
36 39
36 46
36 47
36 49
36 50
36 51
36 54
36 55
36 59
36 62
36 64
36 66
36 68
36 70
36 71
36 77
36 79
36 84
36 85
36 90
36 94
36 95
36 99
36 100
36 101
36 102
36 103
36 105
36 106
37 38
37 41
37 43
37 44
37 45
37 46
37 52
37 55
37 56
37 57
37 61
37 62
37 63
37 64
37 65
37 68
37 69
37 70
37 71
37 72
37 73
37 74
37 75
37 76
37 78
37 81
37 82
37 83
37 86
37 89
37 92
37 93
37 98
37 100
37 103
37 105
37 106
37 107
37 108
38 39
38 40
38 41
38 42
38 47
38 48
38 50
38 51
38 52
38 54
38 59
38 60
38 62
38 63
38 66
38 67
38 68
38 70
38 71
38 74
38 75
38 76
38 80
38 82
38 83
38 85
38 86
38 87
38 89
38 94
38 100
38 101
38 102
38 103
38 105
38 106
38 107
38 108
38 109
39 40
39 41
39 43
39 44
39 46
39 49
39 51
39 53
39 54
39 55
39 56
39 58
39 59
39 63
39 64
39 65
39 68
39 69
39 73
39 76
39 81
39 82
39 84
39 85
39 88
39 94
39 96
39 100
39 102
39 104
39 106
40 45
40 46
40 47
40 48
40 49
40 54
40 56
40 57
40 59
40 61
40 62
40 64
40 67
40 69
40 70
40 71
40 75
40 76
40 78
40 80
40 81
40 84
40 85
40 86
40 88
40 92
40 93
40 94
40 97
40 98
40 104
40 105
40 106
41 47
41 48
41 49
41 53
41 56
41 57
41 58
41 60
41 61
41 64
41 65
41 68
41 70
41 71
41 72
41 75
41 76
41 78
41 79
41 81
41 83
41 84
41 85
41 86
41 88
41 90
41 91
41 96
41 97
41 101
41 103
41 106
41 108
41 109
42 43
42 45
42 46
42 51
42 53
42 57
42 60
42 61
42 62
42 64
42 66
42 67
42 68
42 70
42 71
42 72
42 74
42 75
42 78
42 81
42 82
42 87
42 90
42 94
42 95
42 97
42 101
42 102
42 105
42 106
42 107
42 108
42 109
43 44
43 46
43 47
43 48
43 52
43 53
43 54
43 57
43 59
43 60
43 62
43 64
43 66
43 70
43 71
43 72
43 75
43 76
43 77
43 79
43 80
43 84
43 85
43 87
43 90
43 91
43 93
43 96
43 99
43 101
43 103
43 105
43 106
43 107
44 45
44 47
44 48
44 49
44 53
44 54
44 56
44 58
44 61
44 62
44 66
44 68
44 70
44 77
44 78
44 84
44 86
44 87
44 88
44 94
44 96
44 97
44 99
44 100
44 101
44 102
44 103
44 106
44 107
45 46
45 47
45 48
45 51
45 54
45 57
45 60
45 63
45 64
45 66
45 69
45 72
45 73
45 74
45 75
45 77
45 78
45 79
45 84
45 86
45 87
45 88
45 93
45 94
45 98
45 100
45 101
45 106
45 107
45 109
46 50
46 52
46 53
46 54
46 60
46 61
46 64
46 65
46 67
46 68
46 71
46 72
46 73
46 75
46 76
46 78
46 89
46 90
46 92
46 93
46 94
46 96
46 99
46 104
46 105
46 106
47 52
47 54
47 55
47 56
47 58
47 62
47 63
47 65
47 68
47 70
47 71
47 75
47 78
47 80
47 82
47 85
47 87
47 88
47 89
47 91
47 92
47 93
47 94
47 95
47 99
47 100
47 101
47 102
47 103
47 104
47 107
47 109
48 50
48 56
48 58
48 61
48 63
48 64
48 65
48 66
48 67
48 69
48 70
48 72
48 75
48 77
48 78
48 79
48 80
48 81
48 83
48 93
48 96
48 97
48 100
48 101
48 102
48 107
49 51
49 52
49 54
49 61
49 62
49 64
49 71
49 72
49 73
49 74
49 75
49 77
49 78
49 79
49 80
49 82
49 84
49 86
49 88
49 91
49 92
49 93
49 96
49 97
49 98
49 100
49 104
49 105
49 106
49 109
50 53
50 55
50 57
50 58
50 60
50 61
50 63
50 64
50 67
50 68
50 71
50 72
50 74
50 75
50 77
50 81
50 83
50 84
50 87
50 88
50 89
50 91
50 94
50 97
50 99
50 100
50 104
50 105
50 107
51 52
51 53
51 54
51 56
51 59
51 62
51 63
51 66
51 68
51 70
51 71
51 75
51 76
51 77
51 80
51 84
51 88
51 89
51 93
51 95
51 98
51 99
51 101
51 102
51 103
51 104
51 105
51 108
51 109
52 54
52 57
52 59
52 61
52 66
52 67
52 68
52 71
52 75
52 76
52 78
52 83
52 87
52 88
52 89
52 91
52 92
52 93
52 94
52 95
52 96
52 97
52 100
52 104
52 105
52 107
52 109
53 54
53 55
53 56
53 58
53 59
53 61
53 63
53 66
53 68
53 69
53 75
53 78
53 79
53 80
53 81
53 82
53 85
53 86
53 89
53 91
53 95
53 96
53 97
53 98
53 100
53 101
53 102
53 104
53 107
53 109
54 58
54 63
54 65
54 67
54 68
54 69
54 73
54 75
54 76
54 77
54 81
54 83
54 86
54 88
54 91
54 92
54 95
54 96
54 98
54 102
54 103
54 107
55 59
55 60
55 61
55 62
55 64
55 65
55 68
55 75
55 76
55 77
55 80
55 81
55 82
55 83
55 88
55 90
55 91
55 93
55 95
55 96
55 98
55 99
55 102
55 104
55 105
55 106
55 107
55 108
56 57
56 58
56 59
56 60
56 61
56 66
56 68
56 70
56 74
56 75
56 77
56 78
56 79
56 80
56 81
56 82
56 83
56 85
56 86
56 87
56 89
56 90
56 91
56 92
56 93
56 94
56 96
56 99
56 100
56 101
56 103
56 104
56 107
56 109
57 60
57 61
57 62
57 63
57 72
57 74
57 78
57 80
57 81
57 82
57 83
57 87
57 88
57 91
57 93
57 94
57 99
57 101
57 105
57 106
57 107
58 59
58 60
58 61
58 63
58 65
58 67
58 68
58 70
58 71
58 72
58 74
58 76
58 77
58 78
58 79
58 80
58 82
58 84
58 85
58 86
58 88
58 89
58 90
58 93
58 94
58 96
58 99
58 104
58 105
58 108
58 109
59 67
59 68
59 70
59 71
59 74
59 76
59 78
59 79
59 81
59 83
59 88
59 90
59 92
59 93
59 94
59 95
59 101
59 102
59 103
59 105
59 106
59 109
60 62
60 68
60 69
60 73
60 77
60 78
60 81
60 82
60 83
60 84
60 88
60 89
60 90
60 92
60 95
60 96
60 100
60 101
60 102
60 103
60 105
60 108
61 65
61 67
61 68
61 71
61 75
61 76
61 77
61 81
61 83
61 84
61 86
61 89
61 91
61 92
61 93
61 94
61 95
61 97
61 100
61 101
61 103
61 107
61 108
61 109
62 64
62 65
62 68
62 70
62 73
62 74
62 75
62 76
62 77
62 81
62 82
62 84
62 86
62 87
62 88
62 89
62 90
62 91
62 92
62 93
62 94
62 95
62 99
62 101
62 104
62 105
62 107
62 108
63 71
63 76
63 77
63 78
63 79
63 82
63 87
63 88
63 89
63 90
63 91
63 92
63 95
63 97
63 98
63 103
63 104
64 70
64 72
64 77
64 78
64 79
64 83
64 85
64 87
64 89
64 90
64 93
64 95
64 98
64 100
64 101
64 104
64 105
64 106
64 107
64 108
64 109
65 67
65 70
65 71
65 80
65 81
65 82
65 83
65 84
65 85
65 86
65 90
65 94
65 95
65 104
65 105
65 107
65 108
66 68
66 70
66 77
66 78
66 81
66 82
66 83
66 85
66 87
66 89
66 91
66 92
66 93
66 95
66 97
66 99
66 101
66 103
66 105
66 106
66 107
66 108
66 109
67 68
67 69
67 72
67 76
67 78
67 81
67 84
67 86
67 87
67 89
67 90
67 92
67 94
67 95
67 96
67 97
67 98
67 102
67 104
67 106
67 108
67 109
68 69
68 70
68 71
68 73
68 74
68 76
68 78
68 83
68 85
68 88
68 89
68 90
68 91
68 92
68 93
68 94
68 99
68 101
68 102
68 103
68 105
68 106
68 108
68 109
69 71
69 74
69 75
69 77
69 79
69 82
69 83
69 85
69 86
69 89
69 90
69 94
69 96
69 97
69 101
69 102
69 103
69 105
69 109
70 74
70 78
70 80
70 81
70 83
70 86
70 87
70 88
70 90
70 91
70 92
70 93
70 94
70 96
70 97
70 99
70 101
70 102
70 104
70 108
71 75
71 76
71 78
71 83
71 84
71 86
71 87
71 88
71 90
71 91
71 92
71 93
71 94
71 95
71 96
71 98
71 99
71 102
71 105
71 106
71 107
72 73
72 75
72 76
72 78
72 80
72 84
72 89
72 95
72 96
72 99
72 100
72 103
72 104
73 75
73 76
73 79
73 80
73 81
73 84
73 90
73 94
73 95
73 98
73 102
73 104
73 107
73 109
74 75
74 77
74 78
74 79
74 86
74 89
74 91
74 94
74 96
74 100
74 104
74 106
74 107
74 108
74 109
75 77
75 79
75 80
75 82
75 84
75 85
75 87
75 88
75 89
75 90
75 92
75 95
75 97
75 99
75 101
75 103
75 104
75 105
76 77
76 78
76 79
76 80
76 81
76 87
76 89
76 90
76 92
76 94
76 97
76 98
76 99
76 101
76 103
76 104
76 105
76 106
76 108
76 109
77 78
77 79
77 81
77 84
77 86
77 87
77 88
77 91
77 93
77 98
77 99
77 103
77 108
77 109
78 79
78 80
78 82
78 83
78 84
78 89
78 91
78 92
78 93
78 95
78 96
78 97
78 99
78 103
78 105
78 106
78 107
79 81
79 82
79 83
79 84
79 85
79 86
79 87
79 88
79 90
79 91
79 93
79 97
79 99
79 100
79 101
80 82
80 93
80 94
80 95
80 96
80 99
80 100
80 102
80 104
81 86
81 87
81 89
81 91
81 96
81 97
81 99
81 100
81 104
81 106
81 107
82 84
82 87
82 88
82 89
82 91
82 92
82 94
82 96
82 101
82 105
82 106
82 109
83 84
83 90
83 93
83 94
83 95
83 96
83 101
83 102
83 106
83 107
83 108
83 109
84 85
84 88
84 92
84 93
84 94
84 96
84 97
84 99
84 102
84 107
85 87
85 88
85 90
85 93
85 94
85 97
85 98
85 103
85 104
85 106
85 108
86 88
86 89
86 91
86 93
86 94
86 95
86 96
86 97
86 102
86 103
86 105
86 106
87 88
87 89
87 90
87 91
87 93
87 96
87 98
87 99
87 101
87 102
87 104
87 105
87 108
87 109
88 89
88 94
88 97
88 98
88 102
88 104
88 105
88 108
89 92
89 98
89 99
89 100
89 104
89 105
89 108
89 109
90 91
90 95
90 99
90 101
90 105
90 108
91 92
91 93
91 97
91 99
91 102
91 104
91 105
91 108
92 93
92 94
92 97
92 98
92 100
92 102
92 104
92 106
92 107
92 108
93 94
93 95
93 96
93 99
93 100
93 105
93 107
93 108
93 109
94 95
94 97
94 100
94 101
94 102
94 106
94 109
95 97
95 99
95 100
95 102
95 103
95 104
95 105
95 107
96 98
96 99
96 100
96 101
96 103
96 108
97 100
97 101
97 105
97 106
97 108
97 109
98 101
98 103
98 105
98 106
98 107
98 109
99 100
99 102
99 105
99 106
99 107
100 102
100 104
100 106
100 107
100 108
100 109
101 102
101 104
101 105
101 106
102 103
102 106
102 109
103 107
103 108
103 109
104 105
104 107
104 108
106 107
106 108
106 109
107 108
