110:3001
0 1
0 3
0 5
0 6
0 7
0 9
0 10
0 12
0 13
0 14
0 19
0 21
0 25
0 26
0 27
0 28
0 29
0 33
0 35
0 37
0 38
0 39
0 41
0 42
0 44
0 45
0 46
0 48
0 49
0 50
0 51
0 52
0 56
0 60
0 61
0 64
0 65
0 67
0 68
0 72
0 74
0 80
0 81
0 82
0 83
0 84
0 85
0 86
0 87
0 88
0 89
0 91
0 92
0 95
0 96
0 97
0 101
0 102
0 103
0 105
0 108
1 2
1 3
1 5
1 10
1 11
1 17
1 20
1 22
1 24
1 29
1 31
1 34
1 36
1 38
1 39
1 40
1 42
1 44
1 45
1 47
1 53
1 54
1 59
1 60
1 61
1 62
1 63
1 65
1 66
1 67
1 68
1 70
1 71
1 75
1 76
1 77
1 80
1 82
1 85
1 87
1 88
1 89
1 93
1 95
1 96
1 97
1 98
1 99
1 100
1 107
1 109
2 3
2 5
2 10
2 11
2 12
2 15
2 16
2 17
2 27
2 28
2 29
2 32
2 33
2 34
2 36
2 37
2 41
2 43
2 45
2 46
2 48
2 49
2 54
2 56
2 58
2 61
2 62
2 63
2 64
2 65
2 72
2 75
2 76
2 77
2 78
2 80
2 84
2 86
2 93
2 94
2 96
2 97
2 99
2 101
2 102
2 104
2 105
2 108
3 9
3 12
3 13
3 15
3 16
3 20
3 21
3 23
3 24
3 31
3 36
3 38
3 43
3 44
3 45
3 46
3 47
3 49
3 52
3 53
3 56
3 58
3 59
3 61
3 62
3 63
3 65
3 69
3 71
3 72
3 73
3 74
3 75
3 80
3 81
3 85
3 86
3 89
3 90
3 91
3 95
3 96
3 99
3 102
3 103
3 106
3 107
3 109
4 7
4 8
4 10
4 11
4 17
4 19
4 20
4 27
4 30
4 31
4 33
4 34
4 35
4 38
4 40
4 41
4 42
4 45
4 47
4 50
4 52
4 54
4 57
4 60
4 61
4 62
4 64
4 67
4 68
4 69
4 72
4 76
4 77
4 81
4 83
4 86
4 88
4 95
4 96
4 98
4 101
4 102
4 107
4 108
4 109
5 6
5 7
5 9
5 11
5 15
5 16
5 18
5 19
5 20
5 21
5 25
5 26
5 27
5 28
5 32
5 33
5 34
5 35
5 37
5 39
5 41
5 42
5 43
5 44
5 48
5 54
5 57
5 60
5 61
5 63
5 64
5 66
5 68
5 70
5 76
5 78
5 79
5 80
5 81
5 82
5 84
5 88
5 89
5 90
5 95
5 97
5 99
5 104
5 107
5 108
5 109
6 7
6 8
6 11
6 12
6 15
6 16
6 17
6 18
6 20
6 21
6 24
6 27
6 30
6 32
6 33
6 36
6 38
6 39
6 40
6 43
6 45
6 48
6 52
6 55
6 56
6 61
6 62
6 64
6 65
6 67
6 69
6 70
6 73
6 76
6 77
6 78
6 80
6 88
6 89
6 90
6 93
6 95
6 97
6 98
6 99
6 101
6 102
6 104
6 108
7 8
7 9
7 13
7 15
7 17
7 19
7 20
7 21
7 22
7 24
7 26
7 27
7 29
7 31
7 32
7 33
7 34
7 36
7 39
7 41
7 43
7 44
7 48
7 49
7 50
7 51
7 54
7 57
7 62
7 63
7 64
7 66
7 67
7 70
7 71
7 72
7 73
7 75
7 77
7 79
7 80
7 82
7 83
7 84
7 85
7 89
7 92
7 93
7 95
7 97
7 100
7 101
7 102
7 104
7 105
7 106
7 107
8 10
8 11
8 13
8 14
8 19
8 22
8 23
8 24
8 25
8 26
8 27
8 28
8 29
8 30
8 33
8 34
8 35
8 38
8 39
8 41
8 43
8 44
8 46
8 47
8 48
8 50
8 51
8 52
8 53
8 54
8 55
8 57
8 58
8 64
8 67
8 69
8 71
8 72
8 76
8 80
8 81
8 82
8 86
8 87
8 88
8 93
8 96
8 97
8 99
8 101
8 105
8 107
8 108
8 109
9 10
9 12
9 14
9 15
9 16
9 18
9 21
9 25
9 26
9 27
9 32
9 33
9 34
9 35
9 37
9 39
9 40
9 48
9 49
9 53
9 58
9 59
9 60
9 61
9 62
9 65
9 67
9 70
9 74
9 75
9 76
9 77
9 78
9 81
9 82
9 83
9 85
9 86
9 88
9 93
9 96
9 98
9 100
9 101
9 103
9 106
9 108
9 109
10 15
10 17
10 18
10 20
10 21
10 22
10 24
10 28
10 29
10 30
10 31
10 32
10 34
10 35
10 38
10 41
10 42
10 43
10 44
10 46
10 47
10 50
10 51
10 53
10 58
10 60
10 61
10 63
10 65
10 67
10 69
10 70
10 73
10 74
10 75
10 77
10 79
10 81
10 82
10 84
10 85
10 89
10 90
10 92
10 96
10 97
10 99
10 100
10 103
10 105
10 108
10 109
11 13
11 15
11 17
11 23
11 24
11 27
11 29
11 30
11 31
11 33
11 39
11 41
11 44
11 49
11 50
11 53
11 54
11 55
11 57
11 58
11 60
11 61
11 65
11 66
11 67
11 68
11 73
11 74
11 78
11 79
11 81
11 83
11 90
11 93
11 94
11 95
11 98
11 100
11 102
11 104
11 105
11 109
12 13
12 15
12 16
12 21
12 22
12 25
12 32
12 35
12 37
12 42
12 43
12 45
12 47
12 51
12 52
12 54
12 56
12 57
12 58
12 64
12 65
12 66
12 67
12 69
12 71
12 72
12 74
12 76
12 79
12 82
12 83
12 84
12 85
12 86
12 87
12 89
12 90
12 92
12 93
12 96
12 97
12 101
12 102
12 103
12 105
12 107
12 108
13 16
13 18
13 19
13 20
13 26
13 27
13 28
13 31
13 32
13 34
13 36
13 39
13 41
13 42
13 43
13 46
13 47
13 48
13 50
13 53
13 54
13 55
13 56
13 59
13 60
13 61
13 64
13 65
13 67
13 68
13 69
13 70
13 72
13 73
13 74
13 75
13 76
13 78
13 80
13 81
13 83
13 85
13 88
13 89
13 92
13 93
13 94
13 95
13 96
13 98
13 99
13 100
13 101
13 103
13 105
13 108
13 109
14 16
14 17
14 18
14 19
14 23
14 26
14 27
14 28
14 35
14 36
14 37
14 38
14 40
14 41
14 42
14 45
14 46
14 48
14 49
14 50
14 51
14 53
14 54
14 57
14 59
14 60
14 61
14 64
14 66
14 68
14 73
14 75
14 77
14 79
14 80
14 81
14 82
14 87
14 89
14 90
14 94
14 95
14 98
14 99
14 102
14 103
14 104
15 17
15 19
15 20
15 25
15 27
15 34
15 36
15 38
15 39
15 40
15 43
15 46
15 48
15 49
15 51
15 56
15 57
15 58
15 60
15 61
15 63
15 64
15 65
15 67
15 70
15 72
15 73
15 75
15 77
15 79
15 80
15 81
15 83
15 86
15 87
15 88
15 90
15 91
15 94
15 95
15 96
15 98
15 101
15 102
15 103
15 105
15 107
15 108
16 17
16 18
16 20
16 21
16 22
16 25
16 26
16 28
16 31
16 37
16 38
16 39
16 43
16 44
16 46
16 47
16 49
16 53
16 54
16 55
16 56
16 59
16 61
16 63
16 64
16 65
16 66
16 67
16 68
16 70
16 73
16 76
16 77
16 78
16 81
16 88
16 89
16 90
16 93
16 95
16 97
16 98
16 99
16 100
16 101
16 102
16 103
16 106
16 107
16 108
16 109
17 18
17 22
17 30
17 31
17 32
17 33
17 35
17 36
17 39
17 40
17 41
17 42
17 44
17 46
17 47
17 54
17 56
17 62
17 63
17 65
17 69
17 70
17 72
17 77
17 80
17 82
17 83
17 85
17 86
17 91
17 92
17 93
17 95
17 96
17 99
17 103
17 104
17 105
17 106
17 108
17 109
18 19
18 21
18 23
18 24
18 25
18 27
18 30
18 31
18 32
18 33
18 35
18 39
18 42
18 43
18 46
18 48
18 51
18 52
18 53
18 54
18 55
18 58
18 64
18 66
18 67
18 69
18 71
18 73
18 74
18 75
18 78
18 79
18 81
18 83
18 84
18 85
18 86
18 87
18 89
18 90
18 92
18 93
18 96
18 101
18 103
18 104
18 105
19 22
19 23
19 24
19 26
19 28
19 32
19 33
19 37
19 39
19 40
19 41
19 44
19 46
19 53
19 54
19 60
19 61
19 63
19 66
19 68
19 69
19 72
19 74
19 76
19 77
19 84
19 86
19 88
19 89
19 90
19 91
19 92
19 93
19 94
19 95
19 96
19 100
19 101
19 102
19 103
19 105
19 106
19 108
20 21
20 24
20 25
20 26
20 27
20 28
20 30
20 31
20 32
20 33
20 34
20 40
20 47
20 49
20 50
20 53
20 54
20 55
20 56
20 57
20 58
20 60
20 62
20 66
20 70
20 71
20 72
20 75
20 77
20 78
20 81
20 82
20 83
20 88
20 89
20 91
20 92
20 93
20 94
20 96
20 103
20 104
20 105
20 106
20 107
20 108
21 22
21 25
21 26
21 27
21 32
21 33
21 35
21 36
21 40
21 41
21 45
21 46
21 50
21 51
21 56
21 58
21 59
21 63
21 64
21 65
21 74
21 75
21 76
21 79
21 82
21 83
21 84
21 85
21 86
21 88
21 94
21 95
21 96
21 98
21 100
21 101
21 102
21 103
21 108
21 109
22 24
22 35
22 39
22 41
22 49
22 50
22 53
22 54
22 55
22 56
22 58
22 59
22 60
22 62
22 64
22 67
22 72
22 75
22 79
22 80
22 83
22 85
22 86
22 87
22 90
22 92
22 93
22 94
22 95
22 96
22 98
22 100
22 101
22 109
23 25
23 26
23 27
23 31
23 34
23 36
23 38
23 39
23 42
23 47
23 55
23 56
23 57
23 58
23 60
23 61
23 62
23 64
23 66
23 69
23 72
23 74
23 76
23 78
23 79
23 80
23 81
23 83
23 87
23 91
23 93
23 94
23 95
23 96
23 98
23 100
23 101
23 102
23 103
23 104
23 105
23 107
23 108
24 25
24 28
24 32
24 34
24 35
24 36
24 37
24 39
24 40
24 46
24 47
24 49
24 50
24 51
24 53
24 58
24 59
24 60
24 61
24 62
24 66
24 67
24 68
24 69
24 70
24 71
24 74
24 76
24 77
24 78
24 79
24 82
24 83
24 84
24 86
24 88
24 89
24 90
24 91
24 93
24 95
24 99
24 100
24 101
24 102
24 105
24 107
24 109
25 28
25 32
25 33
25 34
25 38
25 40
25 41
25 43
25 47
25 48
25 50
25 51
25 54
25 59
25 62
25 63
25 67
25 68
25 69
25 70
25 71
25 72
25 73
25 74
25 75
25 76
25 77
25 79
25 84
25 89
25 94
25 96
25 98
25 99
25 100
25 104
25 105
25 108
26 27
26 28
26 30
26 31
26 33
26 35
26 37
26 38
26 39
26 41
26 43
26 47
26 48
26 51
26 52
26 53
26 56
26 57
26 58
26 61
26 63
26 64
26 67
26 68
26 69
26 70
26 71
26 72
26 73
26 78
26 80
26 81
26 82
26 83
26 87
26 88
26 89
26 90
26 92
26 94
26 99
26 100
26 104
26 107
26 108
27 28
27 29
27 34
27 37
27 38
27 40
27 42
27 45
27 47
27 48
27 49
27 50
27 52
27 53
27 54
27 55
27 59
27 61
27 67
27 69
27 70
27 71
27 72
27 75
27 78
27 79
27 84
27 87
27 88
27 89
27 93
27 95
27 96
27 97
27 99
27 101
27 104
28 30
28 34
28 37
28 40
28 41
28 43
28 49
28 53
28 55
28 56
28 57
28 58
28 62
28 64
28 67
28 68
28 70
28 71
28 72
28 75
28 79
28 80
28 82
28 83
28 86
28 87
28 89
28 93
28 97
28 98
28 101
28 102
28 104
28 106
28 107
28 108
28 109
29 32
29 33
29 36
29 37
29 38
29 39
29 40
29 44
29 45
29 48
29 50
29 51
29 52
29 53
29 56
29 57
29 58
29 59
29 60
29 61
29 63
29 64
29 66
29 68
29 69
29 72
29 73
29 76
29 77
29 78
29 79
29 82
29 83
29 85
29 86
29 87
29 88
29 91
29 92
29 93
29 94
29 96
29 101
29 102
29 103
29 106
29 107
29 108
29 109
30 31
30 33
30 35
30 36
30 38
30 39
30 40
30 42
30 43
30 44
30 46
30 47
30 50
30 56
30 61
30 62
30 64
30 66
30 67
30 69
30 71
30 72
30 74
30 77
30 82
30 83
30 84
30 85
30 89
30 90
30 91
30 93
30 95
30 96
30 97
30 99
30 100
30 101
30 102
30 106
30 107
30 109
31 32
31 34
31 38
31 40
31 41
31 42
31 43
31 44
31 46
31 49
31 51
31 52
31 55
31 56
31 58
31 60
31 61
31 62
31 63
31 66
31 72
31 73
31 76
31 78
31 81
31 84
31 85
31 87
31 88
31 90
31 92
31 94
31 95
31 96
31 101
31 102
31 103
31 104
31 105
31 106
32 33
32 39
32 41
32 44
32 45
32 50
32 51
32 52
32 55
32 56
32 57
32 62
32 66
32 67
32 69
32 72
32 73
32 74
32 75
32 78
32 79
32 80
32 81
32 82
32 84
32 85
32 86
32 87
32 88
32 89
32 92
32 93
32 94
32 95
32 97
32 100
32 101
32 102
32 107
32 109
33 34
33 38
33 39
33 42
33 46
33 48
33 49
33 50
33 51
33 52
33 53
33 54
33 55
33 56
33 58
33 60
33 65
33 66
33 67
33 68
33 69
33 71
33 75
33 76
33 77
33 80
33 83
33 85
33 86
33 90
33 91
33 92
33 94
33 95
33 98
33 99
33 100
33 102
33 104
33 105
33 106
33 107
33 109
34 39
34 40
34 42
34 43
34 44
34 46
34 47
34 48
34 49
34 51
34 52
34 56
34 58
34 59
34 61
34 65
34 67
34 70
34 72
34 73
34 74
34 75
34 76
34 77
34 78
34 79
34 80
34 82
34 84
34 85
34 87
34 88
34 90
34 91
34 92
34 94
34 99
34 100
34 101
34 102
34 105
34 107
34 109
35 36
35 37
35 38
35 39
35 41
35 42
35 43
35 44
35 45
35 47
35 48
35 49
35 50
35 51
35 52
35 54
35 55
35 59
35 60
35 61
35 62
35 65
35 70
35 72
35 76
35 79
35 80
35 82
35 84
35 87
35 89
35 90
35 91
35 92
35 96
35 97
35 101
35 105
35 106
35 107
35 109
36 37
36 42
36 48
36 50
36 54
36 55
36 56
36 58
36 59
36 60
36 63
36 64
36 66
36 67
36 69
36 70
36 73
36 78
36 80
36 82
36 83
36 84
36 85
36 86
36 87
36 88
36 90
36 93
36 97
36 107
36 108
36 109
37 39
37 46
37 47
37 48
37 50
37 52
37 53
37 54
37 57
37 58
37 60
37 61
37 62
37 64
37 65
37 66
37 67
37 68
37 70
37 75
37 76
37 78
37 79
37 80
37 81
37 82
37 87
37 89
37 94
37 99
37 100
37 102
37 104
37 105
37 106
37 107
37 109
38 39
38 40
38 42
38 43
38 45
38 48
38 49
38 51
38 53
38 54
38 56
38 60
38 62
38 63
38 64
38 65
38 68
38 69
38 73
38 74
38 75
38 76
38 78
38 79
38 80
38 87
38 88
38 89
38 90
38 91
38 94
38 95
38 99
38 102
38 103
38 104
38 105
38 107
38 108
39 40
39 41
39 42
39 43
39 45
39 46
39 50
39 51
39 52
39 54
39 55
39 56
39 57
39 59
39 63
39 66
39 67
39 68
39 69
39 70
39 71
39 72
39 73
39 76
39 77
39 79
39 81
39 83
39 84
39 85
39 87
39 88
39 89
39 90
39 94
39 96
39 97
39 99
39 100
39 102
39 104
39 105
39 106
40 42
40 43
40 44
40 48
40 49
40 53
40 54
40 56
40 57
40 58
40 62
40 65
40 67
40 68
40 69
40 70
40 72
40 74
40 75
40 77
40 79
40 80
40 86
40 87
40 90
40 91
40 92
40 93
40 95
40 96
40 98
40 99
40 102
40 103
40 104
40 108
40 109
41 42
41 45
41 50
41 52
41 53
41 55
41 56
41 57
41 58
41 59
41 60
41 61
41 63
41 65
41 68
41 74
41 76
41 78
41 79
41 80
41 85
41 87
41 90
41 92
41 93
41 95
41 96
41 98
41 99
41 103
41 109
42 45
42 46
42 47
42 48
42 50
42 51
42 52
42 57
42 58
42 59
42 61
42 62
42 68
42 75
42 79
42 80
42 83
42 84
42 85
42 86
42 87
42 89
42 92
42 94
42 95
42 96
42 99
42 100
42 101
42 102
42 103
42 104
42 109
43 44
43 45
43 50
43 54
43 57
43 58
43 62
43 69
43 70
43 71
43 73
43 75
43 76
43 78
43 81
43 82
43 84
43 88
43 89
43 90
43 91
43 92
43 93
43 99
43 107
43 108
44 45
44 46
44 47
44 49
44 50
44 51
44 52
44 55
44 56
44 57
44 61
44 64
44 65
44 66
44 67
44 69
44 71
44 72
44 73
44 77
44 79
44 82
44 83
44 91
44 94
44 95
44 98
44 102
44 103
44 106
44 107
44 108
44 109
45 47
45 50
45 51
45 53
45 54
45 57
45 58
45 60
45 61
45 63
45 66
45 67
45 68
45 69
45 70
45 71
45 72
45 75
45 76
45 77
45 78
45 80
45 81
45 83
45 85
45 87
45 88
45 90
45 91
45 94
45 95
45 96
45 97
45 98
45 100
45 101
45 102
45 105
45 106
46 47
46 48
46 53
46 54
46 59
46 60
46 62
46 65
46 69
46 70
46 72
46 73
46 74
46 80
46 81
46 82
46 83
46 85
46 86
46 87
46 88
46 91
46 95
46 100
46 101
46 106
47 49
47 50
47 51
47 52
47 55
47 57
47 58
47 62
47 64
47 67
47 68
47 71
47 72
47 74
47 76
47 80
47 86
47 90
47 91
47 94
47 96
47 98
47 100
47 107
48 50
48 51
48 54
48 56
48 57
48 63
48 64
48 65
48 66
48 68
48 69
48 70
48 71
48 72
48 75
48 78
48 81
48 85
48 86
48 87
48 89
48 90
48 94
48 95
48 96
48 98
48 100
48 106
48 107
48 108
49 50
49 51
49 53
49 54
49 55
49 58
49 59
49 61
49 65
49 66
49 68
49 72
49 73
49 74
49 76
49 77
49 78
49 80
49 83
49 84
49 87
49 89
49 90
49 91
49 92
49 93
49 95
49 98
49 101
49 103
49 105
49 106
50 54
50 56
50 57
50 58
50 61
50 62
50 65
50 67
50 69
50 70
50 73
50 75
50 77
50 83
50 86
50 87
50 89
50 90
50 92
50 93
50 94
50 95
50 98
50 101
50 102
50 103
50 107
51 55
51 57
51 58
51 59
51 60
51 62
51 66
51 68
51 69
51 72
51 73
51 74
51 75
51 77
51 78
51 79
51 80
51 83
51 85
51 88
51 89
51 92
51 93
51 95
51 96
51 98
51 104
51 106
51 107
51 108
52 53
52 56
52 57
52 59
52 64
52 65
52 66
52 68
52 69
52 70
52 73
52 74
52 76
52 77
52 81
52 83
52 85
52 86
52 88
52 89
52 91
52 92
52 94
52 96
52 98
52 99
52 100
52 101
52 102
52 103
52 105
52 108
52 109
53 54
53 57
53 59
53 62
53 67
53 69
53 72
53 73
53 74
53 76
53 77
53 78
53 80
53 81
53 84
53 85
53 86
53 90
53 93
53 94
53 96
53 99
53 103
53 105
53 106
53 108
54 55
54 56
54 62
54 64
54 65
54 66
54 67
54 69
54 70
54 71
54 72
54 73
54 76
54 78
54 84
54 85
54 88
54 91
54 92
54 94
54 95
54 96
54 98
54 102
54 108
55 56
55 57
55 58
55 59
55 60
55 62
55 64
55 67
55 68
55 70
55 72
55 75
55 77
55 78
55 83
55 87
55 89
55 90
55 91
55 96
55 97
55 99
55 100
55 101
55 103
55 105
55 106
56 57
56 60
56 64
56 66
56 67
56 68
56 69
56 72
56 76
56 79
56 82
56 83
56 84
56 85
56 90
56 93
56 101
56 103
56 104
56 107
56 109
57 58
57 59
57 61
57 64
57 71
57 74
57 75
57 76
57 81
57 82
57 83
57 84
57 86
57 87
57 88
57 90
57 91
57 92
57 93
57 94
57 95
57 96
57 98
57 99
57 101
57 102
57 103
57 105
57 106
57 108
58 59
58 60
58 61
58 62
58 64
58 68
58 69
58 71
58 72
58 73
58 75
58 79
58 81
58 82
58 83
58 85
58 86
58 87
58 88
58 94
58 96
58 97
58 99
58 100
58 102
58 103
58 104
59 60
59 66
59 69
59 74
59 75
59 77
59 78
59 79
59 82
59 85
59 86
59 89
59 90
59 98
59 100
59 105
59 107
60 63
60 64
60 65
60 69
60 70
60 73
60 75
60 76
60 78
60 79
60 81
60 85
60 86
60 87
60 88
60 90
60 91
60 93
60 97
60 100
60 103
60 105
60 106
60 109
61 63
61 66
61 67
61 68
61 70
61 71
61 73
61 74
61 75
61 79
61 81
61 82
61 84
61 85
61 86
61 89
61 94
61 95
61 98
61 99
61 103
61 105
61 107
61 108
61 109
62 66
62 67
62 68
62 69
62 72
62 73
62 74
62 75
62 76
62 81
62 82
62 83
62 84
62 85
62 86
62 87
62 88
62 90
62 92
62 94
62 96
62 97
62 99
62 101
62 102
62 104
62 105
62 106
62 107
62 108
62 109
63 65
63 68
63 71
63 72
63 73
63 74
63 78
63 79
63 84
63 85
63 87
63 90
63 93
63 96
63 100
63 103
63 105
63 109
64 68
64 70
64 76
64 77
64 79
64 80
64 81
64 83
64 86
64 87
64 90
64 91
64 92
64 93
64 94
64 95
64 96
64 97
64 99
64 100
64 101
64 102
65 66
65 67
65 68
65 69
65 72
65 74
65 75
65 80
65 82
65 83
65 86
65 87
65 88
65 89
65 91
65 93
65 96
65 98
65 99
65 102
65 103
65 104
65 105
65 106
65 107
65 108
65 109
66 69
66 71
66 72
66 74
66 75
66 76
66 78
66 79
66 80
66 84
66 85
66 88
66 91
66 92
66 95
66 96
66 97
66 98
66 101
66 102
66 103
66 108
67 70
67 74
67 75
67 76
67 81
67 84
67 89
67 90
67 91
67 92
67 95
67 96
67 99
67 100
67 101
67 103
67 104
67 105
67 107
67 108
68 70
68 71
68 73
68 74
68 75
68 78
68 79
68 80
68 82
68 83
68 84
68 85
68 86
68 88
68 90
68 92
68 95
68 98
68 99
68 101
68 102
68 105
68 108
68 109
69 72
69 74
69 75
69 76
69 78
69 79
69 81
69 82
69 83
69 84
69 85
69 88
69 91
69 92
69 94
69 97
69 98
69 99
69 101
69 104
69 105
69 108
69 109
70 74
70 75
70 76
70 77
70 78
70 81
70 82
70 84
70 85
70 86
70 87
70 88
70 91
70 95
70 96
70 98
70 100
70 101
70 103
70 105
70 106
71 72
71 73
71 74
71 75
71 76
71 78
71 81
71 82
71 86
71 92
71 93
71 94
71 97
71 98
71 100
71 105
71 106
71 107
71 109
72 74
72 75
72 76
72 77
72 81
72 82
72 84
72 86
72 88
72 90
72 92
72 97
72 99
72 101
72 103
72 104
72 106
72 107
72 108
73 75
73 77
73 78
73 79
73 80
73 81
73 82
73 85
73 86
73 89
73 90
73 92
73 93
73 94
73 95
73 98
73 100
73 101
73 102
73 105
73 106
73 107
73 109
74 77
74 79
74 80
74 81
74 87
74 89
74 90
74 91
74 96
74 97
74 98
74 99
74 101
74 103
74 107
74 109
75 76
75 77
75 79
75 81
75 82
75 83
75 84
75 85
75 86
75 88
75 89
75 90
75 91
75 93
75 94
75 98
75 106
76 84
76 86
76 87
76 92
76 96
76 98
76 99
76 100
76 101
76 103
76 105
76 106
76 107
76 108
76 109
77 81
77 85
77 86
77 89
77 90
77 91
77 92
77 93
77 94
77 95
77 96
77 99
77 100
77 105
77 107
77 109
78 79
78 81
78 84
78 85
78 87
78 88
78 90
78 92
78 93
78 95
78 98
78 99
78 100
78 104
78 106
78 107
78 108
78 109
79 81
79 83
79 84
79 88
79 89
79 90
79 92
79 93
79 96
79 97
79 98
79 103
79 104
79 106
80 82
80 86
80 87
80 88
80 91
80 93
80 95
80 100
80 101
80 103
80 104
80 107
80 109
81 82
81 83
81 85
81 86
81 87
81 88
81 89
81 92
81 93
81 94
81 96
81 98
81 100
81 101
81 102
81 107
81 109
82 83
82 85
82 87
82 90
82 91
82 92
82 95
82 98
82 102
82 104
83 92
83 93
83 97
83 101
83 102
83 105
84 86
84 87
84 90
84 94
84 95
84 99
84 101
84 102
84 104
84 105
84 106
84 108
85 86
85 88
85 89
85 92
85 94
85 95
85 96
85 97
85 99
85 101
85 102
85 104
85 105
85 106
86 88
86 91
86 93
86 94
86 96
86 97
86 100
86 101
86 108
86 109
87 88
87 91
87 92
87 93
87 94
87 95
87 96
87 97
87 99
87 103
87 105
87 106
87 107
87 109
88 89
88 90
88 92
88 93
88 95
88 100
88 104
88 107
88 109
89 90
89 94
89 97
89 98
89 99
89 101
89 102
89 104
90 93
90 94
90 95
90 96
90 99
90 101
90 103
90 104
90 107
90 108
91 92
91 94
91 95
91 97
91 98
91 102
91 103
92 93
92 94
92 96
92 97
92 99
92 102
92 103
92 104
93 97
93 98
93 100
93 101
93 103
93 108
93 109
94 95
94 96
94 97
94 98
94 101
94 102
94 105
94 107
95 96
95 98
95 99
95 100
95 103
95 107
96 97
96 99
96 100
96 101
96 102
96 103
96 104
96 105
97 99
97 101
97 102
97 103
97 104
97 105
97 107
98 100
98 101
98 109
99 100
99 102
99 103
99 104
99 107
99 108
100 102
100 103
100 104
100 105
100 107
100 109
101 103
101 104
101 107
101 109
102 103
102 105
102 106
102 107
102 108
103 108
103 109
104 105
104 106
104 107
104 108
104 109
105 108
105 109
106 109
108 109
