110:1487
0 3
0 8
0 9
0 12
0 15
0 20
0 22
0 24
0 25
0 26
0 29
0 32
0 34
0 35
0 37
0 54
0 59
0 64
0 68
0 72
0 76
0 78
0 81
0 86
0 98
0 102
0 107
0 109
1 2
1 12
1 21
1 22
1 23
1 36
1 38
1 40
1 43
1 48
1 53
1 57
1 58
1 74
1 75
1 76
1 78
1 79
1 84
1 85
1 90
1 91
1 100
1 105
1 108
2 5
2 14
2 19
2 20
2 26
2 30
2 41
2 43
2 48
2 49
2 51
2 54
2 56
2 61
2 62
2 63
2 64
2 69
2 73
2 81
2 82
2 87
2 89
2 100
2 103
3 10
3 12
3 13
3 14
3 15
3 21
3 24
3 27
3 28
3 37
3 48
3 49
3 50
3 55
3 57
3 58
3 60
3 63
3 76
3 80
3 88
3 91
3 94
3 95
3 106
4 5
4 6
4 11
4 14
4 24
4 25
4 27
4 28
4 34
4 39
4 41
4 42
4 51
4 52
4 56
4 57
4 60
4 64
4 71
4 82
4 84
4 91
4 97
4 109
5 11
5 14
5 24
5 28
5 29
5 30
5 31
5 38
5 41
5 42
5 49
5 54
5 59
5 68
5 74
5 75
5 77
5 78
5 83
5 84
5 85
5 86
5 88
5 91
5 93
5 101
5 104
5 108
6 10
6 11
6 12
6 14
6 15
6 22
6 23
6 24
6 27
6 30
6 37
6 39
6 41
6 42
6 44
6 49
6 51
6 57
6 58
6 60
6 61
6 63
6 67
6 79
6 84
6 85
6 86
6 96
6 101
7 13
7 15
7 16
7 21
7 22
7 32
7 34
7 38
7 43
7 52
7 54
7 56
7 60
7 69
7 81
7 84
7 91
7 92
7 96
7 102
7 103
7 104
7 105
8 16
8 17
8 19
8 28
8 29
8 30
8 33
8 40
8 46
8 49
8 50
8 54
8 59
8 61
8 62
8 63
8 68
8 70
8 72
8 73
8 76
8 84
8 88
8 93
8 95
8 96
8 99
8 100
8 103
8 106
9 10
9 17
9 35
9 36
9 41
9 45
9 46
9 48
9 50
9 56
9 59
9 61
9 65
9 66
9 73
9 82
9 84
9 100
9 101
9 109
10 12
10 16
10 22
10 24
10 38
10 41
10 53
10 57
10 67
10 70
10 74
10 75
10 78
10 81
10 82
10 86
10 96
10 97
10 102
10 103
10 107
10 109
11 13
11 16
11 17
11 23
11 34
11 36
11 39
11 42
11 46
11 51
11 53
11 56
11 63
11 64
11 66
11 68
11 69
11 73
11 80
11 85
11 86
11 87
11 96
11 98
11 99
11 101
11 102
11 106
11 108
12 18
12 20
12 21
12 29
12 30
12 34
12 38
12 42
12 44
12 48
12 49
12 50
12 55
12 58
12 67
12 76
12 77
12 80
12 81
12 82
12 86
12 87
12 89
12 91
12 92
12 96
12 104
12 108
13 17
13 19
13 22
13 23
13 33
13 35
13 37
13 45
13 46
13 51
13 52
13 56
13 58
13 59
13 61
13 63
13 65
13 70
13 72
13 74
13 78
13 81
13 82
13 92
13 94
13 96
13 98
13 103
13 105
13 106
13 109
14 23
14 24
14 28
14 33
14 36
14 42
14 43
14 48
14 52
14 54
14 68
14 69
14 75
14 77
14 83
14 84
14 90
14 91
14 92
14 94
14 97
14 99
15 17
15 19
15 21
15 26
15 27
15 29
15 32
15 33
15 37
15 40
15 42
15 52
15 56
15 57
15 60
15 62
15 70
15 72
15 75
15 79
15 80
15 83
15 86
15 91
15 95
15 104
15 107
16 21
16 23
16 25
16 38
16 42
16 45
16 50
16 55
16 57
16 60
16 64
16 68
16 85
16 90
16 99
16 101
16 104
16 108
17 18
17 19
17 20
17 23
17 28
17 34
17 35
17 49
17 53
17 57
17 58
17 60
17 67
17 69
17 75
17 76
17 83
17 95
17 96
17 98
17 103
17 104
17 107
17 109
18 21
18 29
18 31
18 37
18 40
18 44
18 46
18 52
18 55
18 58
18 65
18 70
18 71
18 73
18 76
18 77
18 79
18 80
18 82
18 85
18 89
18 93
18 95
18 96
18 99
18 100
18 101
18 102
18 106
18 107
19 21
19 22
19 25
19 36
19 42
19 43
19 48
19 53
19 54
19 57
19 59
19 60
19 66
19 69
19 70
19 78
19 85
19 86
19 89
19 90
19 91
19 95
19 98
19 102
19 103
19 105
19 108
20 28
20 30
20 32
20 46
20 48
20 51
20 52
20 53
20 57
20 59
20 72
20 74
20 75
20 81
20 85
20 90
20 91
20 94
20 98
20 108
21 24
21 25
21 30
21 31
21 41
21 46
21 47
21 48
21 51
21 57
21 63
21 66
21 69
21 72
21 79
21 82
21 84
21 89
21 91
21 97
21 101
22 23
22 25
22 27
22 30
22 35
22 37
22 38
22 46
22 51
22 66
22 68
22 76
22 82
22 84
22 85
22 90
22 94
22 98
22 102
23 26
23 29
23 30
23 36
23 37
23 43
23 45
23 49
23 65
23 66
23 71
23 72
23 73
23 75
23 80
23 85
23 93
23 94
23 97
23 103
23 109
24 31
24 32
24 34
24 36
24 42
24 43
24 49
24 51
24 55
24 56
24 57
24 59
24 60
24 65
24 68
24 72
24 78
24 79
24 80
24 89
24 91
24 95
24 96
24 106
24 107
25 26
25 29
25 33
25 34
25 35
25 53
25 59
25 60
25 63
25 65
25 66
25 70
25 73
25 75
25 79
25 81
25 87
25 88
25 89
25 90
25 91
25 93
25 95
25 96
25 97
26 29
26 31
26 35
26 38
26 45
26 46
26 47
26 57
26 59
26 64
26 75
26 77
26 79
26 82
26 84
26 86
26 88
26 93
26 94
26 97
26 98
26 100
26 101
26 106
26 107
27 29
27 30
27 38
27 52
27 58
27 62
27 67
27 68
27 69
27 70
27 73
27 77
27 79
27 82
27 88
27 89
27 91
27 97
27 107
27 109
28 37
28 50
28 52
28 56
28 61
28 64
28 65
28 67
28 68
28 69
28 71
28 96
28 102
29 32
29 37
29 41
29 47
29 48
29 51
29 57
29 59
29 61
29 62
29 66
29 67
29 68
29 71
29 74
29 75
29 76
29 82
29 87
29 88
29 89
29 93
29 96
29 97
29 103
29 105
29 107
30 31
30 34
30 51
30 55
30 57
30 60
30 63
30 65
30 68
30 69
30 78
30 81
30 90
30 94
30 106
30 109
31 32
31 41
31 42
31 43
31 44
31 47
31 49
31 52
31 55
31 65
31 69
31 71
31 74
31 75
31 85
31 86
31 88
31 89
31 92
31 93
31 94
31 103
31 104
31 106
31 107
31 109
32 38
32 40
32 48
32 59
32 60
32 61
32 63
32 69
32 71
32 73
32 75
32 76
32 79
32 81
32 84
32 92
32 94
32 97
32 102
32 104
32 105
32 109
33 41
33 42
33 43
33 46
33 48
33 49
33 50
33 63
33 64
33 66
33 67
33 68
33 70
33 72
33 80
33 85
33 97
33 102
33 108
33 109
34 41
34 42
34 47
34 48
34 49
34 51
34 54
34 56
34 59
34 61
34 70
34 78
34 84
34 86
34 90
34 95
34 97
34 98
34 101
34 102
34 109
35 36
35 38
35 39
35 43
35 55
35 58
35 61
35 68
35 72
35 75
35 78
35 85
35 89
35 93
35 96
35 97
35 102
35 109
36 39
36 44
36 58
36 61
36 69
36 74
36 75
36 90
36 91
36 92
36 103
36 108
37 42
37 45
37 46
37 47
37 54
37 59
37 61
37 62
37 83
37 90
37 93
37 102
37 109
38 41
38 42
38 49
38 52
38 53
38 60
38 64
38 65
38 70
38 73
38 75
38 76
38 90
38 91
38 93
38 96
38 97
38 99
38 100
38 104
38 106
39 41
39 45
39 46
39 49
39 54
39 66
39 71
39 75
39 78
39 84
39 86
39 92
39 94
39 96
39 104
39 106
39 107
40 44
40 47
40 49
40 52
40 54
40 57
40 60
40 61
40 65
40 66
40 68
40 75
40 76
40 78
40 84
40 87
40 96
40 105
40 106
41 50
41 61
41 66
41 73
41 75
41 76
41 78
41 80
41 87
41 96
41 98
41 103
41 108
42 43
42 50
42 51
42 52
42 54
42 61
42 62
42 68
42 72
42 77
42 80
42 84
42 85
42 91
42 92
42 96
42 98
42 99
42 100
42 108
43 49
43 61
43 62
43 65
43 66
43 67
43 70
43 74
43 75
43 77
43 80
43 81
43 86
43 89
43 95
43 96
43 102
43 108
43 109
44 46
44 48
44 52
44 60
44 67
44 87
44 91
44 96
45 47
45 53
45 56
45 62
45 63
45 64
45 67
45 69
45 77
45 83
45 88
45 91
45 96
45 97
45 103
45 107
46 50
46 54
46 58
46 61
46 62
46 66
46 79
46 82
46 83
46 86
46 94
46 95
46 96
46 106
46 108
47 53
47 61
47 68
47 70
47 77
47 81
47 85
47 89
47 93
47 97
47 99
48 51
48 53
48 62
48 67
48 86
48 87
48 90
48 92
48 97
48 102
49 54
49 61
49 62
49 67
49 68
49 70
49 74
49 78
49 83
49 90
49 94
49 95
49 99
49 104
49 106
49 109
50 51
50 54
50 62
50 64
50 65
50 67
50 71
50 73
50 89
50 95
50 97
50 101
50 102
50 104
50 107
51 52
51 60
51 66
51 70
51 79
51 91
51 98
51 108
52 57
52 58
52 61
52 65
52 66
52 73
52 77
52 79
52 82
52 84
52 85
52 86
52 87
52 95
52 97
52 102
52 104
52 105
53 56
53 68
53 69
53 70
53 71
53 72
53 75
53 87
53 88
53 90
53 91
53 92
53 99
53 103
53 108
54 55
54 59
54 63
54 66
54 67
54 78
54 85
54 104
54 108
55 65
55 66
55 67
55 70
55 73
55 83
55 85
55 86
55 88
55 92
55 95
55 96
55 102
56 58
56 60
56 64
56 65
56 69
56 70
56 72
56 73
56 79
56 82
56 84
56 89
56 97
56 99
56 102
56 104
57 68
57 71
57 73
57 77
57 81
57 84
57 96
57 97
57 101
57 102
57 109
58 60
58 61
58 62
58 67
58 69
58 70
58 76
58 80
58 83
58 86
58 94
58 99
58 107
58 108
59 66
59 73
59 78
59 80
59 92
59 96
59 99
59 101
59 107
59 108
60 67
60 72
60 73
60 80
60 86
60 91
60 92
60 93
60 98
60 103
61 65
61 71
61 74
61 76
61 83
61 85
61 87
61 90
61 93
61 97
61 98
61 101
61 105
61 107
62 66
62 67
62 71
62 79
62 80
62 83
62 89
62 91
62 94
62 98
62 107
63 66
63 68
63 69
63 72
63 77
63 79
63 80
63 81
63 82
63 85
63 88
63 94
64 68
64 73
64 75
64 79
64 80
64 83
64 85
64 91
64 95
64 96
64 98
64 99
65 72
65 75
65 76
65 94
65 97
65 101
66 67
66 68
66 71
66 72
66 75
66 77
66 85
66 87
66 89
66 91
66 93
66 95
66 99
66 100
66 101
66 108
67 71
67 76
67 77
67 79
67 84
67 86
67 87
67 92
67 98
67 99
67 100
67 101
67 107
67 109
68 78
68 80
68 81
68 83
68 84
68 91
68 93
68 95
68 101
68 105
68 107
68 109
69 72
69 75
69 80
69 87
69 91
69 93
69 95
69 99
69 103
70 76
70 77
70 80
70 82
70 83
70 84
70 86
70 87
70 106
71 73
71 77
71 80
71 82
71 84
71 89
71 92
71 96
71 97
71 100
71 102
72 79
72 85
72 89
72 90
72 93
72 107
73 74
73 84
73 92
73 94
73 100
73 102
73 104
74 76
74 79
74 81
74 84
74 94
74 96
74 99
74 106
75 77
75 78
75 80
75 87
75 89
75 91
75 93
75 94
75 95
75 103
75 104
76 80
76 82
76 87
76 88
76 91
76 93
76 99
76 100
76 108
77 78
77 81
77 88
77 98
77 100
77 103
77 105
78 81
78 87
78 93
78 95
78 96
78 103
78 105
78 106
78 107
78 108
79 81
79 83
79 89
79 101
80 83
80 84
80 86
80 89
80 90
80 92
80 107
81 86
81 87
81 106
81 109
82 86
82 91
82 96
82 106
83 84
83 86
83 96
83 103
83 108
84 86
84 92
84 97
85 98
85 101
85 102
85 104
85 106
85 107
85 108
85 109
86 87
86 93
86 96
86 100
86 105
86 108
87 89
87 91
87 92
87 94
87 98
87 100
87 108
87 109
89 90
89 95
89 98
89 108
90 91
90 98
90 100
90 101
90 105
91 92
91 98
91 101
91 105
92 94
92 101
92 102
92 105
92 106
93 100
93 106
94 96
94 99
94 104
94 106
95 97
95 103
96 103
96 107
97 98
97 102
97 104
97 106
97 107
97 108
98 102
98 105
98 107
99 101
99 103
99 106
99 108
100 102
101 103
101 106
102 103
102 106
102 109
103 109
104 106
105 108
106 108
