110:1500
0 5
0 7
0 8
0 13
0 14
0 17
0 18
0 20
0 34
0 37
0 40
0 44
0 46
0 49
0 52
0 53
0 56
0 57
0 59
0 63
0 67
0 68
0 70
0 76
0 77
0 78
0 84
0 85
0 86
0 91
0 97
0 99
0 101
0 102
0 103
0 105
0 107
0 108
1 2
1 14
1 15
1 28
1 36
1 40
1 45
1 46
1 50
1 52
1 55
1 57
1 60
1 64
1 68
1 69
1 75
1 78
1 82
1 84
1 87
1 92
1 95
1 105
2 9
2 10
2 12
2 13
2 15
2 19
2 23
2 28
2 32
2 34
2 36
2 40
2 41
2 43
2 45
2 51
2 54
2 55
2 59
2 66
2 69
2 70
2 74
2 89
2 90
2 97
2 98
2 102
2 105
2 106
2 108
2 109
3 4
3 5
3 6
3 10
3 12
3 15
3 22
3 24
3 29
3 35
3 41
3 42
3 43
3 50
3 53
3 55
3 58
3 59
3 69
3 70
3 71
3 74
3 83
3 87
3 95
3 98
3 106
3 107
3 109
4 7
4 13
4 15
4 18
4 20
4 21
4 23
4 24
4 25
4 29
4 30
4 32
4 33
4 36
4 41
4 52
4 53
4 60
4 62
4 63
4 64
4 66
4 77
4 78
4 79
4 80
4 81
4 84
4 86
4 88
4 92
4 94
4 98
4 99
4 100
4 109
5 11
5 13
5 14
5 16
5 19
5 20
5 23
5 33
5 36
5 41
5 43
5 49
5 59
5 60
5 61
5 65
5 68
5 70
5 78
5 85
5 87
5 88
5 101
5 103
5 107
5 108
6 9
6 10
6 16
6 29
6 30
6 35
6 36
6 44
6 45
6 56
6 60
6 62
6 65
6 67
6 70
6 76
6 80
6 90
6 94
6 99
6 100
6 102
7 10
7 15
7 17
7 33
7 34
7 37
7 38
7 39
7 42
7 45
7 47
7 55
7 56
7 59
7 61
7 63
7 66
7 70
7 73
7 74
7 78
7 80
7 83
7 84
7 85
7 89
7 91
7 97
7 98
7 100
7 101
7 104
8 9
8 11
8 20
8 23
8 27
8 35
8 39
8 43
8 44
8 49
8 51
8 56
8 57
8 68
8 76
8 78
8 82
8 86
8 94
8 100
8 101
8 106
9 10
9 14
9 16
9 20
9 25
9 28
9 39
9 48
9 60
9 61
9 68
9 72
9 73
9 75
9 76
9 77
9 78
9 82
9 84
9 89
9 93
9 108
10 11
10 15
10 19
10 21
10 23
10 26
10 27
10 28
10 33
10 34
10 39
10 41
10 44
10 51
10 55
10 59
10 62
10 80
10 86
10 92
10 93
10 95
10 104
11 16
11 17
11 19
11 26
11 28
11 32
11 36
11 48
11 60
11 67
11 68
11 71
11 73
11 76
11 77
11 82
11 83
11 91
11 107
12 15
12 16
12 18
12 26
12 29
12 30
12 31
12 33
12 34
12 39
12 44
12 45
12 52
12 56
12 64
12 66
12 71
12 74
12 77
12 78
12 86
12 88
12 90
12 91
12 93
12 96
12 97
12 100
12 103
12 105
12 106
13 15
13 22
13 23
13 27
13 33
13 41
13 42
13 44
13 50
13 53
13 65
13 66
13 67
13 75
13 77
13 81
13 84
13 85
13 93
13 98
13 102
14 15
14 17
14 20
14 21
14 25
14 27
14 32
14 36
14 40
14 53
14 57
14 62
14 68
14 71
14 73
14 74
14 75
14 77
14 78
14 80
14 83
14 85
14 86
14 92
14 95
14 96
14 99
14 100
14 102
15 26
15 27
15 36
15 37
15 40
15 44
15 48
15 52
15 54
15 57
15 58
15 63
15 66
15 76
15 83
15 88
15 92
16 18
16 23
16 29
16 30
16 35
16 36
16 38
16 42
16 43
16 46
16 48
16 50
16 55
16 60
16 77
16 80
16 81
16 84
16 86
16 87
16 89
16 92
16 93
16 97
16 101
16 103
16 104
16 107
16 108
16 109
17 21
17 30
17 39
17 40
17 42
17 50
17 63
17 65
17 66
17 67
17 69
17 73
17 81
17 82
17 83
17 87
17 93
17 96
17 99
17 102
17 105
17 109
18 20
18 23
18 26
18 31
18 32
18 35
18 44
18 46
18 55
18 57
18 58
18 59
18 64
18 69
18 72
18 74
18 80
18 82
18 87
18 90
18 95
18 97
18 109
19 24
19 25
19 29
19 38
19 41
19 49
19 51
19 58
19 59
19 61
19 62
19 67
19 73
19 83
19 85
19 93
19 97
19 100
19 106
20 23
20 24
20 30
20 35
20 36
20 39
20 40
20 41
20 43
20 51
20 53
20 55
20 57
20 58
20 61
20 63
20 67
20 69
20 72
20 83
20 85
20 86
20 90
20 95
20 97
20 108
21 23
21 30
21 31
21 34
21 48
21 51
21 53
21 55
21 57
21 67
21 68
21 73
21 74
21 77
21 80
21 85
21 87
21 88
21 89
21 94
21 96
21 104
21 106
21 107
21 109
22 29
22 32
22 35
22 37
22 50
22 55
22 61
22 66
22 77
22 81
22 89
22 91
22 98
22 106
23 27
23 33
23 36
23 37
23 42
23 48
23 53
23 55
23 60
23 62
23 70
23 71
23 77
23 81
23 93
23 97
23 107
23 108
24 35
24 50
24 58
24 59
24 61
24 62
24 70
24 72
24 73
24 76
24 80
24 81
24 82
24 87
24 92
24 95
24 97
24 100
24 104
24 108
24 109
25 27
25 28
25 32
25 34
25 48
25 50
25 52
25 56
25 63
25 64
25 84
25 85
25 93
25 98
25 99
25 100
25 104
26 29
26 31
26 32
26 33
26 59
26 68
26 69
26 70
26 80
26 85
26 86
26 89
26 91
26 95
26 100
26 101
26 105
26 106
27 28
27 37
27 47
27 50
27 51
27 53
27 54
27 60
27 67
27 68
27 73
27 77
27 81
27 83
27 90
27 91
27 96
27 97
27 99
27 108
28 29
28 30
28 31
28 32
28 34
28 35
28 45
28 46
28 55
28 62
28 65
28 74
28 77
28 84
28 88
28 90
28 92
28 93
28 101
28 105
28 106
29 31
29 34
29 37
29 38
29 43
29 46
29 47
29 48
29 54
29 56
29 57
29 61
29 67
29 74
29 76
29 77
29 80
29 83
29 86
29 90
29 92
29 95
29 99
29 101
29 102
29 107
30 32
30 37
30 38
30 39
30 45
30 50
30 52
30 53
30 55
30 58
30 63
30 68
30 77
30 78
30 85
30 90
30 93
30 95
30 104
30 107
31 35
31 42
31 45
31 48
31 53
31 54
31 62
31 65
31 66
31 73
31 74
31 79
31 95
31 100
31 103
31 106
32 33
32 35
32 40
32 41
32 52
32 56
32 57
32 63
32 69
32 80
32 81
32 85
32 86
32 87
32 90
32 93
32 96
32 98
32 99
33 44
33 48
33 50
33 51
33 59
33 66
33 69
33 75
33 76
33 81
33 82
33 85
33 86
33 88
33 89
33 95
33 99
33 102
33 103
33 106
34 43
34 50
34 55
34 60
34 62
34 64
34 66
34 68
34 71
34 80
34 83
34 90
34 92
34 96
34 101
34 102
34 106
34 107
34 108
35 46
35 53
35 55
35 58
35 64
35 73
35 80
35 85
35 89
35 90
35 91
35 98
35 101
35 103
36 46
36 49
36 52
36 68
36 71
36 73
36 78
36 80
36 81
36 84
36 88
36 89
36 91
36 96
36 97
36 98
36 99
36 100
36 106
36 109
37 42
37 43
37 45
37 53
37 54
37 56
37 57
37 63
37 64
37 71
37 73
37 75
37 79
37 80
37 81
37 85
37 88
37 89
37 90
37 92
37 95
37 97
37 101
38 39
38 45
38 47
38 48
38 49
38 55
38 72
38 73
38 88
38 90
38 91
38 95
38 100
38 109
39 44
39 49
39 51
39 53
39 57
39 65
39 75
39 76
39 79
39 84
39 86
39 93
39 101
39 102
39 107
40 41
40 47
40 50
40 53
40 54
40 62
40 67
40 70
40 71
40 77
40 89
40 90
40 100
40 108
41 50
41 51
41 57
41 59
41 61
41 63
41 67
41 70
41 81
41 82
41 86
41 89
41 92
41 95
41 96
41 102
41 108
42 43
42 48
42 53
42 64
42 65
42 66
42 70
42 79
42 80
42 85
42 90
42 96
42 97
42 107
43 46
43 48
43 49
43 52
43 53
43 55
43 58
43 66
43 69
43 71
43 73
43 77
43 82
43 84
43 85
43 89
43 91
43 105
43 107
44 45
44 49
44 52
44 55
44 56
44 58
44 60
44 65
44 72
44 75
44 77
44 88
44 93
44 97
44 98
44 101
44 102
44 105
45 47
45 50
45 58
45 64
45 69
45 72
45 82
45 83
45 85
45 86
45 89
45 92
45 93
45 103
45 107
45 108
46 49
46 50
46 53
46 58
46 67
46 70
46 74
46 79
46 80
46 81
46 83
46 88
46 89
46 91
46 93
46 96
46 103
46 105
46 109
47 51
47 54
47 63
47 72
47 85
47 92
47 96
47 107
48 49
48 50
48 52
48 54
48 56
48 73
48 76
48 80
48 82
48 91
49 50
49 64
49 68
49 73
49 76
49 77
49 79
49 80
49 82
49 86
49 88
49 93
49 107
50 54
50 60
50 61
50 63
50 74
50 76
50 85
50 88
50 92
50 96
50 97
50 98
50 104
51 53
51 55
51 62
51 63
51 64
51 74
51 75
51 89
51 94
51 95
51 96
51 100
51 102
51 103
51 105
52 53
52 54
52 55
52 60
52 64
52 65
52 68
52 69
52 75
52 76
52 82
52 86
52 103
52 104
52 105
52 109
53 56
53 60
53 64
53 68
53 70
53 74
53 75
53 83
53 84
53 86
53 92
53 100
53 108
54 55
54 56
54 57
54 67
54 68
54 73
54 74
54 75
54 78
54 80
54 86
54 88
54 91
54 95
54 96
54 99
54 102
55 58
55 61
55 63
55 68
55 71
55 72
55 79
55 95
55 97
55 99
55 101
55 105
55 108
55 109
56 59
56 70
56 71
56 73
56 81
56 82
56 84
56 86
56 87
56 91
56 94
56 95
56 98
56 101
56 102
56 106
57 59
57 63
57 68
57 69
57 70
57 74
57 84
57 89
57 92
57 100
57 106
57 108
58 59
58 61
58 64
58 67
58 70
58 72
58 76
58 81
58 84
58 89
58 91
58 93
58 94
58 102
58 105
59 64
59 70
59 75
59 76
59 77
59 84
59 85
59 87
59 89
59 93
59 109
60 63
60 71
60 73
60 74
60 85
60 87
60 89
60 91
60 96
60 103
60 106
61 64
61 66
61 79
61 82
61 87
61 94
61 97
61 103
61 105
61 106
61 109
62 63
62 64
62 68
62 73
62 74
62 76
62 78
62 79
62 83
62 84
62 86
62 87
62 96
62 97
62 99
62 105
62 108
63 64
63 69
63 70
63 71
63 80
63 84
63 86
63 88
63 89
63 91
63 94
63 104
63 107
64 65
64 66
64 69
64 81
64 84
64 85
64 99
65 68
65 76
65 78
65 85
65 91
65 97
65 98
65 102
65 103
65 104
65 106
66 79
66 80
66 82
66 84
66 85
66 90
66 100
66 106
66 108
66 109
67 68
67 70
67 75
67 76
67 77
67 80
67 85
67 89
67 92
67 93
67 104
68 69
68 77
68 79
68 82
68 90
68 93
68 94
68 100
68 101
68 103
68 106
68 107
69 78
69 81
69 83
69 84
69 92
69 101
69 107
70 71
70 73
70 76
70 78
70 82
70 83
70 86
70 87
70 91
70 92
70 94
70 95
70 96
70 105
71 82
71 89
71 91
71 97
71 101
71 106
72 79
72 84
72 88
72 90
72 98
72 101
72 103
73 77
73 82
73 84
73 85
73 94
73 96
73 98
73 102
73 103
74 77
74 78
74 88
74 92
74 95
74 101
74 103
74 108
75 77
75 80
75 82
75 83
75 86
75 87
75 89
75 92
75 96
75 109
76 84
76 91
76 93
76 94
76 95
76 105
76 106
76 107
77 79
77 80
77 81
77 85
77 88
77 93
77 94
77 105
78 81
78 85
78 98
78 101
78 102
78 106
78 108
79 83
79 86
79 87
79 93
79 96
79 102
79 106
80 81
80 82
80 89
80 91
80 92
80 94
80 95
80 102
80 104
80 105
80 109
81 86
81 88
81 91
81 93
81 94
81 95
81 96
81 101
81 102
81 106
82 83
82 87
82 88
82 94
82 96
82 106
82 108
83 84
83 86
83 87
83 89
83 103
83 106
84 85
84 86
84 87
84 90
84 100
84 104
84 109
85 90
85 92
85 94
85 100
85 105
85 108
86 93
86 100
86 106
86 107
86 108
86 109
87 99
87 102
87 104
88 91
88 92
88 93
88 95
88 96
88 97
88 98
89 90
89 92
89 98
90 91
90 97
90 99
90 101
91 93
91 94
91 98
91 100
91 102
91 103
91 107
91 109
92 105
92 107
93 96
93 98
94 109
95 98
95 99
95 100
95 101
95 107
95 108
95 109
96 99
96 103
96 106
96 107
97 99
97 100
97 101
97 103
97 104
99 100
99 105
100 101
100 104
100 106
100 108
101 103
101 105
101 107
102 106
103 107
105 106
106 108
107 108
