110:2963
0 3
0 4
0 6
0 8
0 9
0 13
0 16
0 21
0 25
0 26
0 27
0 31
0 33
0 36
0 38
0 41
0 42
0 44
0 45
0 47
0 49
0 52
0 53
0 54
0 57
0 66
0 68
0 70
0 71
0 72
0 75
0 76
0 84
0 86
0 93
0 98
0 100
0 103
0 105
0 106
0 108
1 2
1 3
1 5
1 10
1 14
1 15
1 17
1 18
1 20
1 21
1 22
1 25
1 26
1 27
1 28
1 29
1 31
1 32
1 34
1 35
1 37
1 38
1 42
1 45
1 48
1 49
1 51
1 52
1 53
1 54
1 57
1 58
1 60
1 62
1 64
1 65
1 66
1 67
1 69
1 70
1 71
1 76
1 77
1 79
1 80
1 81
1 82
1 84
1 87
1 88
1 90
1 92
1 93
1 94
1 95
1 97
1 101
1 102
1 103
1 107
2 3
2 6
2 8
2 9
2 11
2 14
2 15
2 18
2 20
2 22
2 23
2 24
2 25
2 28
2 31
2 33
2 34
2 35
2 41
2 48
2 50
2 52
2 53
2 54
2 57
2 59
2 60
2 62
2 63
2 65
2 66
2 67
2 68
2 69
2 71
2 72
2 73
2 74
2 75
2 77
2 80
2 81
2 83
2 84
2 89
2 92
2 93
2 95
2 96
2 97
2 99
2 100
2 103
2 104
2 106
2 108
2 109
3 4
3 8
3 10
3 11
3 12
3 13
3 15
3 16
3 17
3 18
3 20
3 23
3 24
3 27
3 29
3 30
3 31
3 33
3 35
3 36
3 40
3 41
3 42
3 48
3 49
3 51
3 52
3 53
3 54
3 56
3 57
3 58
3 71
3 75
3 77
3 82
3 83
3 85
3 86
3 89
3 90
3 92
3 94
3 95
3 97
3 98
3 99
3 100
3 104
3 106
3 108
3 109
4 5
4 6
4 7
4 10
4 12
4 13
4 15
4 18
4 20
4 21
4 25
4 34
4 36
4 38
4 40
4 41
4 43
4 48
4 49
4 54
4 55
4 56
4 57
4 61
4 62
4 65
4 66
4 68
4 72
4 73
4 74
4 75
4 76
4 77
4 80
4 82
4 83
4 86
4 87
4 88
4 89
4 92
4 93
4 94
4 96
4 98
4 99
4 100
4 104
4 106
4 108
5 8
5 9
5 11
5 12
5 13
5 14
5 15
5 16
5 17
5 18
5 21
5 22
5 24
5 25
5 26
5 28
5 29
5 30
5 32
5 33
5 34
5 35
5 38
5 42
5 43
5 45
5 46
5 47
5 49
5 50
5 52
5 53
5 54
5 57
5 58
5 62
5 64
5 67
5 69
5 71
5 73
5 74
5 77
5 78
5 79
5 80
5 84
5 86
5 87
5 89
5 91
5 92
5 93
5 98
5 100
5 103
5 104
5 106
5 108
6 7
6 9
6 10
6 11
6 12
6 14
6 16
6 17
6 19
6 21
6 22
6 24
6 26
6 31
6 32
6 38
6 40
6 41
6 42
6 43
6 44
6 45
6 47
6 48
6 51
6 53
6 55
6 57
6 58
6 59
6 62
6 63
6 64
6 65
6 66
6 67
6 69
6 74
6 76
6 77
6 85
6 87
6 88
6 89
6 90
6 91
6 93
6 97
6 99
6 100
6 101
6 104
6 105
6 106
6 107
6 108
6 109
7 8
7 10
7 11
7 14
7 16
7 17
7 19
7 21
7 22
7 24
7 27
7 28
7 29
7 30
7 32
7 34
7 35
7 36
7 39
7 40
7 41
7 42
7 45
7 46
7 48
7 50
7 51
7 52
7 55
7 56
7 57
7 59
7 61
7 62
7 68
7 70
7 72
7 76
7 78
7 81
7 83
7 84
7 87
7 89
7 90
7 91
7 94
7 100
7 104
7 108
8 10
8 11
8 12
8 13
8 16
8 18
8 19
8 21
8 26
8 27
8 28
8 31
8 32
8 35
8 37
8 38
8 41
8 42
8 44
8 45
8 46
8 48
8 49
8 51
8 53
8 54
8 55
8 56
8 57
8 60
8 61
8 62
8 66
8 67
8 69
8 70
8 71
8 72
8 76
8 77
8 80
8 81
8 83
8 86
8 87
8 91
8 92
8 94
8 97
8 99
8 100
8 101
8 102
8 103
8 104
8 106
8 107
8 108
8 109
9 10
9 16
9 18
9 20
9 21
9 22
9 24
9 28
9 30
9 32
9 35
9 37
9 43
9 46
9 48
9 52
9 54
9 58
9 59
9 60
9 61
9 64
9 69
9 71
9 73
9 74
9 76
9 77
9 82
9 83
9 84
9 91
9 96
9 100
9 103
9 106
9 107
10 14
10 16
10 18
10 21
10 22
10 24
10 29
10 34
10 38
10 39
10 40
10 41
10 43
10 46
10 48
10 49
10 51
10 53
10 54
10 55
10 57
10 59
10 60
10 61
10 62
10 64
10 68
10 72
10 75
10 76
10 77
10 78
10 79
10 80
10 83
10 85
10 90
10 92
10 95
10 96
10 98
10 99
10 102
10 105
10 108
11 13
11 15
11 16
11 17
11 18
11 19
11 21
11 25
11 27
11 28
11 29
11 30
11 35
11 36
11 37
11 39
11 41
11 42
11 43
11 44
11 45
11 46
11 49
11 51
11 52
11 53
11 59
11 60
11 62
11 63
11 64
11 65
11 66
11 67
11 70
11 71
11 74
11 75
11 76
11 80
11 82
11 84
11 86
11 87
11 90
11 91
11 92
11 93
11 95
11 96
11 99
11 103
11 106
11 107
11 108
11 109
12 13
12 14
12 16
12 18
12 20
12 22
12 23
12 26
12 29
12 31
12 35
12 36
12 37
12 39
12 40
12 41
12 44
12 45
12 48
12 49
12 50
12 51
12 52
12 54
12 59
12 60
12 62
12 63
12 64
12 65
12 68
12 70
12 72
12 73
12 75
12 79
12 80
12 81
12 84
12 87
12 92
12 94
12 96
12 98
12 99
12 101
12 103
12 104
12 106
12 107
12 108
12 109
13 19
13 20
13 21
13 24
13 28
13 29
13 32
13 35
13 37
13 42
13 45
13 52
13 53
13 60
13 63
13 66
13 68
13 71
13 72
13 73
13 75
13 76
13 81
13 84
13 90
13 92
13 93
13 94
13 95
13 100
13 102
13 104
13 105
13 106
13 108
14 15
14 16
14 18
14 21
14 22
14 23
14 24
14 27
14 28
14 29
14 30
14 32
14 35
14 37
14 41
14 46
14 47
14 48
14 49
14 51
14 52
14 53
14 56
14 57
14 59
14 60
14 61
14 63
14 66
14 68
14 69
14 70
14 72
14 74
14 76
14 78
14 79
14 80
14 84
14 85
14 86
14 87
14 88
14 89
14 91
14 92
14 93
14 94
14 102
14 103
14 105
14 106
14 108
15 18
15 19
15 20
15 21
15 22
15 24
15 25
15 26
15 27
15 28
15 29
15 32
15 34
15 35
15 38
15 39
15 40
15 42
15 44
15 45
15 48
15 55
15 58
15 62
15 65
15 67
15 68
15 70
15 72
15 73
15 74
15 75
15 76
15 78
15 80
15 81
15 82
15 84
15 86
15 87
15 89
15 90
15 91
15 92
15 93
15 94
15 100
15 101
15 105
15 106
16 17
16 19
16 20
16 21
16 29
16 33
16 38
16 39
16 40
16 44
16 45
16 46
16 47
16 49
16 53
16 57
16 59
16 61
16 62
16 63
16 66
16 67
16 71
16 72
16 76
16 77
16 81
16 82
16 83
16 85
16 87
16 88
16 90
16 92
16 93
16 94
16 96
16 99
16 101
16 104
16 105
16 107
16 109
17 18
17 20
17 22
17 23
17 24
17 27
17 29
17 30
17 32
17 33
17 38
17 39
17 40
17 41
17 42
17 43
17 44
17 46
17 49
17 51
17 52
17 53
17 55
17 56
17 59
17 61
17 66
17 69
17 75
17 78
17 79
17 81
17 84
17 87
17 90
17 92
17 95
17 97
17 98
17 102
17 103
17 104
17 106
17 107
18 19
18 20
18 21
18 23
18 26
18 29
18 32
18 36
18 39
18 41
18 42
18 44
18 45
18 46
18 47
18 49
18 51
18 52
18 53
18 57
18 60
18 61
18 62
18 63
18 64
18 66
18 69
18 70
18 71
18 72
18 73
18 75
18 76
18 77
18 79
18 82
18 86
18 87
18 89
18 96
18 97
18 99
18 101
18 102
18 103
18 104
18 106
19 20
19 21
19 22
19 23
19 24
19 27
19 28
19 29
19 30
19 33
19 34
19 35
19 38
19 41
19 42
19 44
19 48
19 49
19 52
19 53
19 54
19 55
19 56
19 57
19 60
19 62
19 69
19 70
19 79
19 80
19 81
19 82
19 84
19 87
19 88
19 89
19 90
19 91
19 93
19 96
19 97
19 99
19 101
19 103
19 107
19 109
20 21
20 22
20 23
20 28
20 30
20 31
20 33
20 34
20 35
20 43
20 45
20 49
20 50
20 55
20 56
20 59
20 62
20 64
20 66
20 67
20 68
20 71
20 72
20 78
20 82
20 84
20 86
20 91
20 92
20 93
20 95
20 96
20 97
20 100
20 102
20 103
20 106
20 107
20 109
21 23
21 26
21 30
21 33
21 35
21 36
21 40
21 41
21 42
21 43
21 45
21 47
21 48
21 49
21 54
21 55
21 57
21 58
21 60
21 61
21 62
21 63
21 64
21 66
21 67
21 68
21 69
21 70
21 71
21 72
21 73
21 77
21 78
21 79
21 80
21 85
21 88
21 92
21 93
21 95
21 96
21 98
21 100
21 101
21 102
21 103
21 107
21 108
21 109
22 24
22 25
22 26
22 29
22 31
22 38
22 39
22 43
22 44
22 45
22 47
22 53
22 54
22 61
22 62
22 63
22 64
22 70
22 71
22 73
22 74
22 79
22 81
22 86
22 87
22 88
22 89
22 91
22 92
22 94
22 97
22 99
22 102
22 103
22 107
22 109
23 24
23 29
23 32
23 33
23 38
23 42
23 45
23 47
23 51
23 53
23 54
23 60
23 61
23 64
23 65
23 66
23 67
23 68
23 70
23 71
23 75
23 77
23 79
23 80
23 82
23 89
23 90
23 91
23 93
23 94
23 95
23 96
23 97
23 98
23 99
23 100
23 102
23 106
23 107
23 108
24 26
24 28
24 29
24 32
24 36
24 37
24 41
24 42
24 43
24 44
24 46
24 49
24 50
24 53
24 54
24 58
24 59
24 60
24 61
24 63
24 66
24 67
24 68
24 70
24 74
24 75
24 77
24 78
24 79
24 82
24 83
24 85
24 89
24 90
24 92
24 95
24 97
24 98
24 99
24 100
24 103
24 104
24 109
25 26
25 27
25 30
25 31
25 33
25 34
25 35
25 39
25 41
25 43
25 45
25 48
25 50
25 51
25 52
25 53
25 57
25 58
25 59
25 61
25 62
25 64
25 69
25 70
25 71
25 72
25 74
25 75
25 76
25 80
25 81
25 85
25 94
25 95
25 98
25 100
25 104
25 105
25 106
25 107
26 29
26 31
26 32
26 34
26 35
26 36
26 37
26 40
26 42
26 43
26 46
26 54
26 55
26 57
26 60
26 61
26 62
26 63
26 65
26 67
26 69
26 73
26 74
26 75
26 76
26 77
26 78
26 79
26 81
26 82
26 84
26 85
26 86
26 89
26 90
26 91
26 94
26 96
26 98
26 101
26 103
26 105
26 109
27 28
27 33
27 35
27 36
27 39
27 43
27 44
27 45
27 47
27 48
27 49
27 51
27 54
27 55
27 56
27 58
27 59
27 62
27 65
27 68
27 69
27 70
27 72
27 76
27 77
27 78
27 80
27 81
27 82
27 83
27 86
27 87
27 92
27 94
27 99
27 100
27 101
27 104
27 105
27 106
28 29
28 30
28 33
28 38
28 39
28 40
28 42
28 43
28 45
28 51
28 52
28 53
28 54
28 55
28 58
28 63
28 66
28 67
28 68
28 70
28 74
28 80
28 82
28 90
28 91
28 92
28 95
28 96
28 97
28 98
28 99
28 100
28 101
28 102
28 104
28 106
28 107
28 108
29 30
29 32
29 36
29 37
29 38
29 39
29 41
29 42
29 44
29 45
29 47
29 49
29 50
29 52
29 53
29 54
29 57
29 61
29 63
29 64
29 66
29 67
29 68
29 69
29 70
29 73
29 74
29 75
29 79
29 80
29 82
29 85
29 86
29 88
29 92
29 93
29 96
29 98
29 100
29 105
29 109
30 32
30 33
30 35
30 36
30 37
30 38
30 39
30 40
30 44
30 45
30 46
30 47
30 48
30 52
30 55
30 57
30 59
30 60
30 61
30 62
30 64
30 71
30 72
30 73
30 75
30 76
30 79
30 84
30 86
30 91
30 95
30 96
30 99
30 102
30 103
30 105
30 107
30 109
31 36
31 38
31 40
31 42
31 44
31 45
31 46
31 56
31 58
31 60
31 61
31 62
31 63
31 68
31 69
31 72
31 75
31 76
31 77
31 78
31 80
31 82
31 83
31 84
31 85
31 86
31 87
31 89
31 93
31 98
31 99
31 102
31 103
31 106
31 107
31 108
32 34
32 35
32 37
32 38
32 39
32 40
32 41
32 43
32 44
32 46
32 47
32 49
32 52
32 57
32 59
32 62
32 65
32 67
32 68
32 69
32 71
32 75
32 76
32 77
32 78
32 79
32 80
32 83
32 86
32 89
32 90
32 91
32 92
32 93
32 94
32 97
32 101
32 102
32 103
32 104
32 105
32 107
32 108
33 36
33 37
33 39
33 40
33 41
33 42
33 43
33 44
33 46
33 47
33 49
33 52
33 55
33 57
33 58
33 62
33 63
33 64
33 65
33 68
33 69
33 73
33 74
33 76
33 78
33 86
33 88
33 89
33 91
33 94
33 98
33 102
33 103
33 104
33 105
33 107
33 109
34 35
34 37
34 38
34 39
34 45
34 48
34 49
34 52
34 53
34 56
34 57
34 58
34 65
34 67
34 68
34 69
34 72
34 75
34 77
34 78
34 80
34 88
34 89
34 93
34 94
34 95
34 96
34 101
34 103
34 107
34 108
34 109
35 37
35 38
35 39
35 40
35 42
35 44
35 45
35 46
35 48
35 50
35 52
35 53
35 54
35 58
35 60
35 62
35 64
35 66
35 68
35 71
35 73
35 74
35 76
35 77
35 79
35 81
35 83
35 86
35 87
35 88
35 89
35 91
35 92
35 94
35 95
35 96
35 98
35 101
35 103
35 105
35 106
36 37
36 38
36 39
36 44
36 45
36 46
36 47
36 49
36 50
36 54
36 60
36 66
36 67
36 68
36 69
36 72
36 74
36 76
36 77
36 80
36 81
36 85
36 86
36 92
36 93
36 95
36 97
36 100
36 101
36 102
36 106
36 108
36 109
37 39
37 42
37 44
37 48
37 51
37 54
37 57
37 58
37 60
37 63
37 64
37 65
37 66
37 70
37 75
37 76
37 79
37 86
37 90
37 91
37 93
37 94
37 95
37 96
37 97
37 102
37 103
38 41
38 42
38 43
38 46
38 47
38 49
38 54
38 55
38 56
38 57
38 59
38 63
38 64
38 65
38 66
38 70
38 72
38 74
38 75
38 83
38 87
38 88
38 89
38 90
38 91
38 92
38 94
38 95
38 96
38 98
38 99
38 100
38 105
38 108
38 109
39 41
39 47
39 48
39 49
39 52
39 53
39 54
39 55
39 61
39 63
39 64
39 65
39 66
39 73
39 76
39 77
39 78
39 81
39 82
39 83
39 84
39 86
39 87
39 89
39 90
39 93
39 95
39 96
39 97
39 99
39 100
39 101
39 104
39 106
39 108
40 42
40 43
40 44
40 49
40 51
40 52
40 53
40 55
40 57
40 60
40 62
40 63
40 65
40 66
40 67
40 69
40 71
40 72
40 73
40 74
40 75
40 82
40 85
40 87
40 91
40 92
40 94
40 95
40 99
40 101
40 102
40 105
40 109
41 46
41 48
41 49
41 51
41 53
41 55
41 60
41 61
41 63
41 66
41 67
41 68
41 69
41 70
41 71
41 72
41 73
41 75
41 76
41 79
41 81
41 83
41 84
41 85
41 87
41 89
41 90
41 92
41 96
41 99
41 100
41 102
41 103
41 105
41 107
42 43
42 47
42 48
42 54
42 58
42 59
42 60
42 61
42 62
42 63
42 68
42 69
42 70
42 76
42 82
42 85
42 93
42 94
42 96
42 104
43 44
43 45
43 46
43 49
43 50
43 54
43 56
43 57
43 58
43 59
43 64
43 65
43 66
43 67
43 68
43 69
43 73
43 74
43 76
43 77
43 78
43 80
43 81
43 82
43 84
43 85
43 87
43 88
43 89
43 91
43 95
43 100
43 102
43 103
43 104
43 105
43 106
43 107
43 109
44 45
44 46
44 49
44 51
44 52
44 54
44 58
44 59
44 60
44 61
44 64
44 65
44 66
44 67
44 68
44 69
44 71
44 74
44 75
44 77
44 80
44 83
44 87
44 88
44 89
44 90
44 95
44 96
44 100
44 102
44 104
44 108
44 109
45 47
45 48
45 49
45 52
45 54
45 56
45 59
45 60
45 61
45 65
45 71
45 74
45 75
45 76
45 77
45 78
45 79
45 80
45 81
45 83
45 84
45 85
45 87
45 90
45 91
45 92
45 93
45 97
45 98
45 99
45 100
45 106
45 108
46 48
46 51
46 52
46 53
46 54
46 55
46 56
46 58
46 60
46 62
46 63
46 64
46 67
46 70
46 72
46 74
46 75
46 79
46 80
46 83
46 84
46 90
46 94
46 97
46 99
46 101
46 103
46 105
46 106
46 107
46 109
47 52
47 54
47 57
47 58
47 60
47 61
47 62
47 63
47 64
47 65
47 68
47 69
47 71
47 72
47 73
47 74
47 76
47 77
47 78
47 81
47 82
47 85
47 86
47 87
47 88
47 89
47 92
47 93
47 101
47 102
47 103
47 104
47 105
48 50
48 53
48 55
48 57
48 58
48 62
48 63
48 65
48 66
48 67
48 70
48 71
48 74
48 76
48 78
48 80
48 83
48 85
48 90
48 91
48 92
48 94
48 95
48 96
48 97
48 98
48 99
48 100
48 102
48 105
48 106
48 107
48 108
48 109
49 50
49 52
49 53
49 55
49 56
49 58
49 59
49 60
49 61
49 62
49 64
49 65
49 70
49 71
49 72
49 73
49 75
49 78
49 80
49 81
49 84
49 85
49 87
49 89
49 91
49 94
49 95
49 96
49 98
49 101
49 102
49 104
49 105
49 106
50 53
50 58
50 60
50 61
50 62
50 63
50 64
50 65
50 66
50 68
50 69
50 71
50 72
50 73
50 74
50 76
50 77
50 80
50 82
50 83
50 88
50 92
50 93
50 98
50 102
50 104
50 107
50 109
51 52
51 53
51 58
51 59
51 60
51 62
51 63
51 66
51 68
51 71
51 77
51 78
51 79
51 82
51 83
51 84
51 86
51 90
51 91
51 92
51 95
51 97
51 98
51 99
51 101
51 103
51 105
51 106
51 108
51 109
52 54
52 58
52 60
52 61
52 62
52 64
52 66
52 68
52 69
52 70
52 71
52 72
52 82
52 83
52 85
52 93
52 94
52 95
52 96
52 97
52 98
52 100
52 101
52 106
52 109
53 54
53 59
53 62
53 63
53 64
53 65
53 69
53 70
53 71
53 72
53 73
53 74
53 75
53 80
53 86
53 87
53 88
53 89
53 91
53 92
53 95
53 96
53 97
53 101
53 103
53 108
54 56
54 61
54 64
54 65
54 66
54 67
54 68
54 69
54 70
54 71
54 73
54 74
54 75
54 76
54 78
54 79
54 80
54 81
54 82
54 83
54 84
54 85
54 87
54 95
54 96
54 97
54 98
54 99
54 100
54 101
54 103
54 109
55 56
55 59
55 61
55 63
55 64
55 67
55 70
55 72
55 73
55 74
55 77
55 78
55 79
55 82
55 83
55 85
55 87
55 90
55 91
55 92
55 94
55 95
55 96
55 97
55 102
55 103
55 106
55 107
55 108
55 109
56 59
56 60
56 61
56 64
56 66
56 67
56 69
56 70
56 77
56 79
56 80
56 83
56 84
56 86
56 87
56 90
56 91
56 93
56 95
56 97
56 98
56 99
56 103
56 107
56 108
56 109
57 59
57 61
57 62
57 63
57 66
57 67
57 68
57 71
57 80
57 82
57 83
57 84
57 85
57 86
57 90
57 92
57 94
57 95
57 97
57 98
57 102
57 104
57 105
57 106
57 108
58 61
58 62
58 63
58 65
58 66
58 71
58 72
58 73
58 74
58 77
58 78
58 81
58 83
58 84
58 85
58 86
58 88
58 89
58 92
58 96
58 97
58 98
58 105
58 107
59 64
59 67
59 68
59 69
59 71
59 72
59 73
59 75
59 79
59 80
59 81
59 82
59 83
59 85
59 86
59 90
59 91
59 92
59 93
59 94
59 97
59 98
59 99
59 100
59 101
59 102
59 104
59 105
59 109
60 61
60 63
60 65
60 66
60 70
60 71
60 72
60 73
60 74
60 78
60 79
60 82
60 84
60 85
60 87
60 91
60 94
60 95
60 96
60 102
60 103
60 104
60 106
60 107
61 65
61 66
61 67
61 69
61 72
61 76
61 79
61 80
61 83
61 84
61 85
61 86
61 89
61 92
61 93
61 104
61 108
61 109
62 64
62 65
62 70
62 71
62 72
62 74
62 76
62 80
62 82
62 83
62 84
62 86
62 93
62 94
62 95
62 96
62 97
62 99
62 100
62 104
62 106
62 108
63 64
63 66
63 69
63 75
63 76
63 77
63 79
63 80
63 82
63 83
63 84
63 85
63 87
63 88
63 91
63 92
63 93
63 95
63 96
63 97
63 101
63 102
63 103
63 105
63 106
63 109
64 65
64 68
64 71
64 73
64 75
64 76
64 78
64 80
64 81
64 82
64 84
64 85
64 86
64 88
64 93
64 94
64 98
64 99
64 105
64 106
64 109
65 67
65 68
65 70
65 71
65 72
65 76
65 78
65 79
65 80
65 82
65 83
65 84
65 86
65 88
65 91
65 94
65 95
65 103
65 104
65 105
65 107
65 109
66 67
66 68
66 70
66 74
66 77
66 78
66 79
66 81
66 84
66 87
66 88
66 93
66 95
66 97
66 99
66 101
66 103
66 108
67 71
67 72
67 74
67 75
67 76
67 80
67 88
67 90
67 94
67 96
67 98
67 103
67 105
68 69
68 72
68 73
68 76
68 77
68 78
68 79
68 81
68 83
68 84
68 85
68 89
68 91
68 92
68 93
68 94
68 97
68 98
68 100
68 104
68 106
68 107
69 70
69 74
69 75
69 76
69 78
69 79
69 81
69 82
69 84
69 85
69 88
69 89
69 90
69 91
69 92
69 94
69 95
69 97
69 99
69 101
69 102
69 103
69 105
69 106
69 107
69 109
70 72
70 73
70 74
70 78
70 80
70 81
70 82
70 84
70 86
70 88
70 89
70 92
70 93
70 96
70 97
70 105
70 108
70 109
71 72
71 77
71 82
71 85
71 89
71 90
71 91
71 93
71 95
71 96
71 97
71 109
72 73
72 75
72 76
72 79
72 80
72 81
72 82
72 83
72 85
72 86
72 91
72 94
72 96
72 98
72 99
72 100
72 101
72 103
72 105
72 106
72 107
72 109
73 74
73 76
73 77
73 78
73 79
73 80
73 82
73 85
73 88
73 93
73 95
73 96
73 98
73 99
73 100
73 101
73 106
74 75
74 76
74 80
74 81
74 84
74 85
74 87
74 88
74 89
74 90
74 91
74 92
74 95
74 96
74 99
74 100
74 101
74 102
74 103
74 108
74 109
75 81
75 83
75 84
75 87
75 89
75 91
75 92
75 96
75 99
75 100
75 101
75 103
75 107
75 108
76 77
76 79
76 80
76 81
76 84
76 85
76 87
76 89
76 90
76 91
76 92
76 94
76 97
76 98
76 100
76 101
76 102
76 103
76 104
76 106
76 107
76 108
77 78
77 79
77 82
77 83
77 84
77 89
77 90
77 91
77 92
77 96
77 99
77 103
77 107
78 83
78 84
78 85
78 86
78 88
78 89
78 90
78 91
78 92
78 96
78 98
78 99
78 102
78 103
78 104
78 106
78 108
78 109
79 81
79 83
79 84
79 85
79 86
79 88
79 92
79 93
79 94
79 95
79 98
79 101
79 106
79 108
80 81
80 82
80 85
80 88
80 89
80 90
80 91
80 92
80 94
80 95
80 97
80 98
80 105
80 106
80 107
80 108
80 109
81 86
81 91
81 92
81 93
81 95
81 96
81 97
81 99
81 100
81 101
81 103
81 105
81 108
81 109
82 83
82 84
82 90
82 93
82 96
82 97
82 98
82 99
82 100
82 102
82 104
82 107
82 109
83 84
83 85
83 90
83 99
83 100
83 105
83 106
84 87
84 89
84 92
84 97
84 98
84 99
84 101
84 103
84 108
85 86
85 88
85 89
85 92
85 94
85 95
85 96
86 88
86 92
86 93
86 94
86 96
86 97
86 98
86 100
86 102
86 104
86 107
86 108
86 109
87 88
87 93
87 94
87 95
87 97
87 100
87 101
87 104
87 105
87 108
88 90
88 91
88 93
88 94
88 95
88 98
88 99
88 103
88 104
88 106
88 107
88 109
89 92
89 94
89 99
89 101
89 102
89 104
89 105
89 109
90 91
90 92
90 93
90 94
90 97
90 98
90 99
90 102
90 103
90 104
90 107
90 108
90 109
91 92
91 99
91 100
91 101
91 103
91 104
91 105
91 106
91 107
91 108
92 94
92 98
92 99
92 101
92 102
92 103
93 94
93 96
93 97
93 98
93 99
93 100
93 101
93 103
93 105
93 108
93 109
94 95
94 96
94 97
94 99
94 100
94 101
94 103
94 104
94 106
94 108
95 96
95 97
95 101
95 106
95 108
95 109
96 97
96 98
96 99
96 100
96 103
96 106
96 108
96 109
97 98
97 102
97 104
97 108
97 109
98 100
98 102
98 103
98 104
98 105
98 109
99 100
99 101
99 103
99 104
99 106
99 108
99 109
100 101
100 102
100 103
100 104
100 108
100 109
101 102
101 103
101 104
101 105
101 106
101 107
101 108
102 105
102 106
102 107
102 108
103 105
103 108
104 105
104 107
105 107
105 108
105 109
106 108
106 109
107 108
107 109
