110:2942
0 2
0 5
0 7
0 8
0 13
0 14
0 17
0 18
0 19
0 20
0 22
0 30
0 34
0 35
0 36
0 37
0 40
0 44
0 46
0 49
0 52
0 53
0 56
0 57
0 59
0 62
0 63
0 66
0 67
0 68
0 70
0 76
0 77
0 78
0 81
0 82
0 84
0 85
0 86
0 87
0 90
0 91
0 93
0 97
0 99
0 100
0 101
0 102
0 103
0 105
0 107
0 108
1 2
1 3
1 4
1 5
1 6
1 9
1 10
1 11
1 14
1 15
1 18
1 19
1 21
1 28
1 32
1 33
1 34
1 36
1 38
1 40
1 42
1 45
1 46
1 50
1 52
1 55
1 56
1 57
1 58
1 60
1 62
1 64
1 65
1 66
1 68
1 69
1 70
1 73
1 75
1 78
1 79
1 80
1 82
1 83
1 84
1 87
1 90
1 91
1 92
1 95
1 99
1 105
1 107
1 108
1 109
2 7
2 8
2 9
2 10
2 12
2 13
2 15
2 18
2 19
2 21
2 23
2 28
2 29
2 31
2 32
2 34
2 35
2 36
2 40
2 41
2 43
2 45
2 47
2 51
2 52
2 54
2 55
2 57
2 59
2 61
2 66
2 69
2 70
2 71
2 72
2 73
2 74
2 81
2 83
2 89
2 90
2 94
2 95
2 96
2 97
2 98
2 101
2 102
2 103
2 105
2 106
2 108
2 109
3 4
3 5
3 6
3 8
3 9
3 10
3 12
3 13
3 15
3 16
3 19
3 22
3 24
3 25
3 27
3 29
3 30
3 35
3 36
3 39
3 40
3 41
3 42
3 43
3 44
3 45
3 46
3 50
3 52
3 53
3 55
3 56
3 58
3 59
3 64
3 67
3 69
3 70
3 71
3 74
3 80
3 83
3 85
3 87
3 90
3 91
3 93
3 95
3 96
3 98
3 101
3 103
3 106
3 107
3 109
4 7
4 10
4 12
4 13
4 15
4 18
4 20
4 21
4 23
4 24
4 25
4 29
4 30
4 32
4 33
4 36
4 37
4 40
4 41
4 43
4 45
4 47
4 52
4 53
4 54
4 56
4 60
4 61
4 62
4 63
4 64
4 66
4 67
4 69
4 73
4 77
4 78
4 79
4 80
4 81
4 84
4 85
4 86
4 87
4 88
4 89
4 92
4 93
4 94
4 95
4 97
4 98
4 99
4 100
4 106
4 107
4 108
4 109
5 6
5 7
5 9
5 11
5 12
5 13
5 14
5 16
5 19
5 20
5 21
5 23
5 25
5 26
5 29
5 31
5 33
5 35
5 36
5 38
5 40
5 41
5 43
5 49
5 50
5 54
5 55
5 57
5 58
5 59
5 60
5 61
5 65
5 67
5 68
5 69
5 70
5 73
5 75
5 78
5 79
5 81
5 82
5 85
5 86
5 87
5 88
5 91
5 92
5 95
5 101
5 103
5 104
5 107
5 108
6 7
6 9
6 10
6 14
6 16
6 17
6 20
6 21
6 22
6 24
6 26
6 28
6 29
6 30
6 34
6 35
6 36
6 39
6 44
6 45
6 52
6 56
6 57
6 59
6 60
6 62
6 65
6 66
6 67
6 68
6 70
6 75
6 76
6 80
6 82
6 84
6 85
6 87
6 90
6 93
6 94
6 97
6 99
6 100
6 102
6 103
6 104
6 105
6 106
7 8
7 9
7 10
7 14
7 15
7 17
7 18
7 19
7 25
7 28
7 33
7 34
7 37
7 38
7 39
7 42
7 44
7 45
7 47
7 50
7 54
7 55
7 56
7 59
7 61
7 63
7 66
7 68
7 70
7 73
7 74
7 77
7 78
7 80
7 83
7 84
7 85
7 87
7 89
7 91
7 93
7 94
7 95
7 96
7 97
7 98
7 100
7 101
7 104
7 105
7 107
7 108
7 109
8 9
8 11
8 13
8 15
8 18
8 19
8 20
8 23
8 24
8 25
8 26
8 27
8 28
8 29
8 32
8 33
8 34
8 35
8 36
8 39
8 43
8 44
8 47
8 48
8 49
8 51
8 53
8 56
8 57
8 59
8 65
8 68
8 76
8 77
8 78
8 81
8 82
8 86
8 87
8 94
8 95
8 96
8 97
8 98
8 99
8 100
8 101
8 102
8 105
8 106
8 107
8 109
9 10
9 11
9 14
9 15
9 16
9 20
9 21
9 22
9 25
9 28
9 34
9 36
9 37
9 38
9 39
9 42
9 43
9 48
9 50
9 52
9 55
9 58
9 59
9 60
9 61
9 66
9 68
9 72
9 73
9 74
9 75
9 76
9 77
9 78
9 82
9 84
9 85
9 89
9 93
9 94
9 98
9 101
9 102
9 105
9 108
10 11
10 13
10 15
10 16
10 19
10 21
10 22
10 23
10 25
10 26
10 27
10 28
10 29
10 33
10 34
10 39
10 41
10 44
10 45
10 47
10 51
10 55
10 56
10 57
10 59
10 60
10 62
10 63
10 68
10 75
10 76
10 78
10 80
10 82
10 86
10 91
10 92
10 93
10 95
10 99
10 104
10 105
10 107
11 12
11 15
11 16
11 17
11 19
11 21
11 22
11 25
11 26
11 27
11 28
11 32
11 36
11 39
11 44
11 48
11 56
11 57
11 58
11 60
11 65
11 67
11 68
11 71
11 73
11 76
11 77
11 80
11 82
11 83
11 84
11 91
11 92
11 93
11 94
11 96
11 98
11 103
11 104
11 107
12 15
12 16
12 18
12 20
12 25
12 26
12 27
12 29
12 30
12 31
12 33
12 34
12 35
12 37
12 38
12 39
12 43
12 44
12 45
12 48
12 52
12 54
12 56
12 60
12 63
12 64
12 66
12 70
12 71
12 72
12 74
12 76
12 77
12 78
12 79
12 81
12 84
12 86
12 87
12 88
12 90
12 91
12 93
12 96
12 97
12 100
12 101
12 102
12 103
12 105
12 106
13 14
13 15
13 20
13 21
13 22
13 23
13 25
13 27
13 33
13 34
13 37
13 40
13 41
13 42
13 44
13 47
13 48
13 50
13 53
13 57
13 63
13 65
13 66
13 67
13 71
13 75
13 77
13 78
13 79
13 81
13 82
13 83
13 84
13 85
13 89
13 90
13 91
13 93
13 95
13 97
13 98
13 101
13 102
13 103
13 104
13 107
13 108
14 15
14 17
14 20
14 21
14 23
14 25
14 27
14 32
14 36
14 39
14 40
14 42
14 45
14 46
14 48
14 50
14 51
14 53
14 56
14 57
14 62
14 64
14 65
14 66
14 68
14 71
14 73
14 74
14 75
14 77
14 78
14 80
14 81
14 83
14 84
14 85
14 86
14 88
14 91
14 92
14 95
14 96
14 97
14 98
14 99
14 100
14 102
14 103
14 105
14 108
15 22
15 26
15 27
15 29
15 33
15 34
15 36
15 37
15 40
15 43
15 44
15 45
15 47
15 48
15 51
15 52
15 54
15 57
15 58
15 61
15 63
15 66
15 68
15 73
15 74
15 75
15 76
15 79
15 81
15 82
15 83
15 86
15 88
15 89
15 92
15 93
15 96
15 104
15 107
15 109
16 17
16 18
16 21
16 23
16 27
16 29
16 30
16 31
16 32
16 35
16 36
16 37
16 38
16 40
16 42
16 43
16 46
16 48
16 50
16 53
16 54
16 55
16 56
16 57
16 60
16 62
16 66
16 74
16 77
16 80
16 81
16 84
16 86
16 87
16 89
16 92
16 93
16 96
16 97
16 98
16 99
16 100
16 101
16 103
16 104
16 107
16 108
16 109
17 20
17 21
17 28
17 29
17 30
17 32
17 37
17 39
17 40
17 42
17 44
17 47
17 50
17 52
17 54
17 57
17 60
17 63
17 64
17 65
17 66
17 67
17 69
17 73
17 75
17 80
17 81
17 82
17 83
17 84
17 87
17 89
17 90
17 92
17 93
17 96
17 99
17 101
17 102
17 104
17 105
17 107
17 108
17 109
18 20
18 21
18 23
18 26
18 31
18 32
18 34
18 35
18 39
18 40
18 41
18 44
18 46
18 48
18 55
18 56
18 57
18 58
18 59
18 60
18 61
18 64
18 66
18 68
18 69
18 70
18 71
18 72
18 73
18 74
18 75
18 78
18 80
18 82
18 87
18 90
18 91
18 92
18 94
18 95
18 97
18 101
18 109
19 21
19 22
19 24
19 25
19 29
19 31
19 32
19 35
19 37
19 38
19 41
19 44
19 49
19 50
19 51
19 56
19 58
19 59
19 61
19 62
19 63
19 64
19 65
19 67
19 69
19 71
19 73
19 83
19 84
19 85
19 87
19 90
19 93
19 94
19 97
19 100
19 101
19 102
19 103
19 105
19 106
19 107
19 108
19 109
20 23
20 24
20 26
20 30
20 34
20 35
20 36
20 37
20 39
20 40
20 41
20 42
20 43
20 44
20 45
20 46
20 51
20 52
20 53
20 55
20 57
20 58
20 61
20 63
20 64
20 66
20 67
20 69
20 72
20 74
20 81
20 83
20 85
20 86
20 87
20 90
20 91
20 95
20 97
20 99
20 103
20 105
20 108
21 23
21 24
21 27
21 28
21 30
21 31
21 32
21 33
21 34
21 35
21 36
21 41
21 44
21 48
21 51
21 52
21 53
21 55
21 57
21 60
21 61
21 63
21 64
21 67
21 68
21 71
21 72
21 73
21 74
21 77
21 80
21 81
21 82
21 83
21 85
21 86
21 87
21 88
21 89
21 90
21 91
21 94
21 96
21 97
21 98
21 99
21 100
21 103
21 104
21 106
21 107
21 109
22 25
22 26
22 29
22 30
22 32
22 33
22 35
22 37
22 40
22 42
22 48
22 50
22 51
22 55
22 58
22 61
22 65
22 66
22 71
22 77
22 81
22 83
22 86
22 89
22 90
22 91
22 92
22 93
22 96
22 98
22 100
22 103
22 104
22 106
23 24
23 27
23 28
23 29
23 32
23 33
23 34
23 36
23 37
23 38
23 39
23 40
23 42
23 44
23 45
23 46
23 48
23 53
23 54
23 55
23 60
23 62
23 63
23 64
23 65
23 68
23 70
23 71
23 72
23 73
23 74
23 76
23 77
23 78
23 79
23 81
23 84
23 85
23 89
23 91
23 92
23 93
23 97
23 102
23 104
23 107
23 108
24 28
24 33
24 35
24 38
24 41
24 44
24 46
24 47
24 50
24 51
24 52
24 57
24 58
24 59
24 61
24 62
24 64
24 65
24 66
24 67
24 68
24 70
24 72
24 73
24 76
24 80
24 81
24 82
24 86
24 87
24 89
24 90
24 91
24 92
24 93
24 95
24 96
24 97
24 99
24 100
24 102
24 103
24 104
24 106
24 107
24 108
24 109
25 26
25 27
25 28
25 32
25 33
25 34
25 38
25 44
25 46
25 47
25 48
25 50
25 52
25 56
25 59
25 61
25 62
25 63
25 64
25 74
25 79
25 81
25 82
25 84
25 85
25 86
25 92
25 93
25 94
25 96
25 98
25 99
25 100
25 103
25 104
25 105
26 29
26 31
26 32
26 33
26 41
26 48
26 53
26 59
26 62
26 64
26 65
26 66
26 68
26 69
26 70
26 75
26 80
26 81
26 83
26 85
26 86
26 89
26 91
26 92
26 93
26 95
26 100
26 101
26 105
26 106
26 107
27 28
27 35
27 37
27 39
27 40
27 41
27 43
27 44
27 46
27 47
27 48
27 50
27 51
27 53
27 54
27 60
27 62
27 63
27 66
27 67
27 68
27 69
27 72
27 73
27 74
27 77
27 81
27 83
27 86
27 87
27 88
27 89
27 90
27 91
27 94
27 96
27 97
27 99
27 100
27 102
27 108
27 109
28 29
28 30
28 31
28 32
28 34
28 35
28 40
28 43
28 44
28 45
28 46
28 47
28 50
28 54
28 55
28 56
28 60
28 62
28 65
28 73
28 74
28 75
28 77
28 81
28 84
28 87
28 88
28 90
28 91
28 92
28 93
28 95
28 96
28 100
28 101
28 102
28 103
28 105
28 106
28 107
28 109
29 31
29 33
29 34
29 35
29 37
29 38
29 40
29 43
29 45
29 46
29 47
29 48
29 52
29 54
29 56
29 57
29 58
29 59
29 61
29 62
29 67
29 69
29 73
29 74
29 76
29 77
29 79
29 80
29 83
29 85
29 86
29 87
29 90
29 92
29 95
29 97
29 98
29 99
29 101
29 102
29 104
29 105
29 107
30 32
30 34
30 35
30 37
30 38
30 39
30 44
30 45
30 47
30 48
30 49
30 50
30 51
30 52
30 53
30 54
30 55
30 58
30 59
30 60
30 63
30 64
30 68
30 75
30 77
30 78
30 79
30 81
30 83
30 85
30 89
30 90
30 91
30 93
30 94
30 95
30 96
30 99
30 100
30 101
30 102
30 103
30 104
30 105
30 107
30 108
31 35
31 41
31 42
31 43
31 45
31 47
31 48
31 51
31 52
31 53
31 54
31 55
31 56
31 62
31 65
31 66
31 70
31 73
31 74
31 77
31 78
31 79
31 80
31 82
31 88
31 95
31 98
31 100
31 103
31 104
31 106
31 108
32 33
32 35
32 40
32 41
32 46
32 48
32 52
32 53
32 56
32 57
32 62
32 63
32 65
32 66
32 69
32 72
32 74
32 77
32 79
32 80
32 81
32 85
32 86
32 87
32 90
32 91
32 93
32 96
32 98
32 99
32 100
32 103
32 105
32 106
33 35
33 38
33 41
33 42
33 43
33 44
33 46
33 48
33 49
33 50
33 51
33 56
33 57
33 59
33 66
33 69
33 72
33 73
33 74
33 75
33 76
33 77
33 79
33 80
33 81
33 82
33 85
33 86
33 87
33 88
33 89
33 91
33 95
33 96
33 97
33 99
33 101
33 102
33 103
33 106
34 41
34 43
34 44
34 45
34 47
34 49
34 50
34 55
34 57
34 58
34 60
34 61
34 62
34 64
34 66
34 67
34 68
34 70
34 71
34 77
34 80
34 82
34 83
34 84
34 87
34 90
34 92
34 93
34 96
34 98
34 99
34 101
34 102
34 104
34 105
34 106
34 107
34 108
34 109
35 36
35 39
35 45
35 46
35 48
35 49
35 53
35 55
35 58
35 61
35 64
35 67
35 70
35 72
35 73
35 75
35 79
35 80
35 82
35 85
35 89
35 90
35 91
35 92
35 98
35 101
35 103
35 106
35 108
35 109
36 39
36 42
36 46
36 49
36 52
36 54
36 63
36 66
36 68
36 69
36 70
36 71
36 72
36 73
36 76
36 77
36 78
36 79
36 80
36 81
36 84
36 86
36 88
36 89
36 90
36 91
36 93
36 95
36 96
36 97
36 98
36 99
36 100
36 102
36 106
36 108
36 109
37 42
37 43
37 45
37 47
37 53
37 54
37 56
37 57
37 62
37 63
37 64
37 65
37 66
37 70
37 71
37 73
37 75
37 79
37 80
37 81
37 85
37 88
37 89
37 90
37 92
37 94
37 95
37 97
37 101
37 103
37 107
38 39
38 45
38 46
38 47
38 48
38 49
38 52
38 55
38 56
38 57
38 59
38 60
38 63
38 66
38 67
38 70
38 72
38 73
38 78
38 80
38 88
38 90
38 91
38 92
38 94
38 95
38 97
38 100
38 103
38 107
38 109
39 42
39 44
39 49
39 51
39 52
39 53
39 55
39 57
39 62
39 63
39 65
39 66
39 75
39 76
39 79
39 84
39 86
39 87
39 88
39 92
39 93
39 94
39 95
39 99
39 101
39 102
39 103
39 105
39 107
39 108
39 109
40 41
40 43
40 47
40 48
40 49
40 50
40 51
40 53
40 54
40 62
40 64
40 66
40 67
40 69
40 70
40 71
40 72
40 77
40 80
40 81
40 88
40 89
40 90
40 91
40 92
40 100
40 102
40 105
40 107
40 108
41 44
41 50
41 51
41 52
41 57
41 59
41 60
41 61
41 63
41 67
41 68
41 70
41 72
41 75
41 78
41 81
41 82
41 83
41 85
41 86
41 89
41 90
41 92
41 93
41 95
41 96
41 100
41 101
41 102
41 108
42 43
42 48
42 50
42 51
42 52
42 53
42 56
42 57
42 58
42 59
42 62
42 64
42 65
42 66
42 68
42 70
42 71
42 73
42 74
42 78
42 79
42 80
42 85
42 87
42 90
42 92
42 95
42 96
42 97
42 100
42 104
42 105
42 106
42 107
43 46
43 48
43 49
43 52
43 53
43 55
43 58
43 62
43 64
43 66
43 67
43 69
43 71
43 72
43 73
43 77
43 82
43 84
43 85
43 89
43 91
43 93
43 94
43 96
43 98
43 100
43 101
43 102
43 105
43 107
43 108
44 45
44 48
44 49
44 52
44 55
44 56
44 58
44 59
44 60
44 62
44 65
44 66
44 68
44 72
44 74
44 75
44 77
44 86
44 88
44 89
44 91
44 93
44 94
44 96
44 97
44 98
44 99
44 101
44 102
44 105
44 108
45 46
45 47
45 48
45 50
45 51
45 54
45 55
45 58
45 61
45 63
45 64
45 67
45 68
45 69
45 71
45 72
45 77
45 82
45 83
45 85
45 86
45 89
45 92
45 93
45 103
45 105
45 107
45 108
46 48
46 49
46 50
46 52
46 53
46 58
46 61
46 65
46 67
46 68
46 69
46 70
46 72
46 73
46 74
46 79
46 80
46 81
46 82
46 83
46 84
46 85
46 88
46 89
46 91
46 92
46 93
46 96
46 98
46 99
46 101
46 103
46 105
46 106
46 109
47 48
47 51
47 54
47 58
47 63
47 65
47 68
47 69
47 70
47 72
47 75
47 78
47 79
47 80
47 81
47 82
47 85
47 88
47 91
47 92
47 96
47 98
47 102
47 103
47 104
47 107
47 109
48 49
48 50
48 52
48 54
48 56
48 60
48 63
48 64
48 68
48 70
48 72
48 73
48 76
48 80
48 82
48 83
48 86
48 90
48 91
48 93
48 94
48 95
48 97
48 98
48 107
49 50
49 53
49 56
49 58
49 62
49 64
49 65
49 66
49 68
49 73
49 75
49 76
49 77
49 79
49 80
49 82
49 85
49 86
49 87
49 88
49 91
49 93
49 95
49 99
49 102
49 103
49 107
50 51
50 54
50 56
50 57
50 59
50 60
50 61
50 63
50 64
50 67
50 69
50 70
50 73
50 74
50 76
50 78
50 79
50 80
50 81
50 83
50 85
50 87
50 88
50 90
50 91
50 92
50 93
50 95
50 96
50 97
50 98
50 100
50 104
50 109
51 52
51 53
51 55
51 56
51 60
51 62
51 63
51 64
51 66
51 67
51 71
51 73
51 74
51 75
51 76
51 77
51 79
51 80
51 83
51 86
51 88
51 89
51 91
51 94
51 95
51 96
51 100
51 102
51 103
51 105
51 106
51 109
52 53
52 54
52 55
52 58
52 59
52 60
52 62
52 63
52 64
52 65
52 68
52 69
52 71
52 73
52 75
52 76
52 79
52 80
52 82
52 83
52 85
52 86
52 90
52 92
52 93
52 97
52 98
52 101
52 102
52 103
52 104
52 105
52 107
52 109
53 54
53 56
53 60
53 62
53 64
53 66
53 68
53 70
53 74
53 75
53 76
53 77
53 83
53 84
53 86
53 92
53 93
53 96
53 97
53 100
53 101
53 103
53 108
54 55
54 56
54 57
54 59
54 60
54 62
54 63
54 64
54 67
54 68
54 70
54 71
54 72
54 73
54 74
54 75
54 78
54 80
54 83
54 85
54 86
54 88
54 91
54 94
54 95
54 96
54 99
54 102
54 103
54 108
55 56
55 58
55 59
55 61
55 63
55 67
55 68
55 70
55 71
55 72
55 73
55 74
55 79
55 86
55 91
55 92
55 93
55 94
55 95
55 97
55 99
55 100
55 101
55 102
55 104
55 105
55 107
55 108
55 109
56 57
56 59
56 60
56 64
56 65
56 69
56 70
56 71
56 72
56 73
56 79
56 81
56 82
56 83
56 84
56 86
56 87
56 91
56 94
56 95
56 98
56 100
56 101
56 102
56 106
56 109
57 59
57 60
57 62
57 63
57 68
57 69
57 70
57 72
57 74
57 75
57 76
57 81
57 84
57 89
57 92
57 94
57 98
57 100
57 106
57 108
57 109
58 59
58 61
58 63
58 64
58 65
58 67
58 68
58 70
58 72
58 73
58 75
58 76
58 77
58 81
58 84
58 86
58 87
58 88
58 89
58 91
58 93
58 94
58 95
58 96
58 97
58 100
58 102
58 104
58 105
58 106
58 109
59 61
59 63
59 64
59 66
59 67
59 70
59 74
59 75
59 76
59 77
59 79
59 84
59 85
59 87
59 89
59 90
59 91
59 93
59 94
59 95
59 96
59 99
59 101
59 102
59 109
60 63
60 65
60 70
60 71
60 73
60 74
60 76
60 79
60 83
60 84
60 85
60 86
60 87
60 89
60 91
60 96
60 101
60 103
60 106
60 108
61 62
61 64
61 65
61 66
61 67
61 68
61 72
61 73
61 75
61 76
61 78
61 79
61 82
61 84
61 87
61 88
61 90
61 91
61 94
61 95
61 97
61 98
61 102
61 103
61 104
61 105
61 106
61 109
62 63
62 64
62 66
62 68
62 69
62 72
62 73
62 74
62 75
62 76
62 78
62 79
62 80
62 83
62 84
62 86
62 87
62 88
62 89
62 91
62 96
62 97
62 99
62 100
62 103
62 105
62 108
63 64
63 67
63 69
63 70
63 71
63 72
63 76
63 78
63 79
63 80
63 84
63 86
63 88
63 89
63 91
63 92
63 93
63 94
63 95
63 97
63 98
63 101
63 104
63 107
64 65
64 66
64 69
64 70
64 71
64 73
64 74
64 78
64 80
64 81
64 83
64 84
64 85
64 87
64 90
64 93
64 94
64 96
64 97
64 99
64 100
64 103
64 105
64 108
65 66
65 68
65 72
65 76
65 77
65 78
65 83
65 84
65 85
65 91
65 93
65 96
65 97
65 98
65 100
65 102
65 103
65 104
65 105
65 106
65 107
66 69
66 72
66 75
66 77
66 78
66 79
66 80
66 82
66 84
66 85
66 90
66 91
66 94
66 95
66 96
66 99
66 100
66 106
66 108
66 109
67 68
67 70
67 71
67 72
67 75
67 76
67 77
67 78
67 80
67 85
67 89
67 92
67 93
67 95
67 96
67 97
67 100
67 104
67 108
68 69
68 72
68 74
68 77
68 78
68 79
68 80
68 81
68 82
68 87
68 90
68 92
68 93
68 94
68 100
68 101
68 102
68 103
68 105
68 106
68 107
68 109
69 71
69 72
69 75
69 76
69 78
69 81
69 83
69 84
69 86
69 89
69 90
69 91
69 92
69 93
69 101
69 102
69 105
69 107
70 71
70 72
70 73
70 76
70 77
70 78
70 80
70 81
70 82
70 83
70 86
70 87
70 88
70 91
70 92
70 94
70 95
70 96
70 97
70 101
70 105
70 108
71 73
71 74
71 79
71 82
71 83
71 86
71 87
71 89
71 91
71 96
71 97
71 98
71 99
71 101
71 106
72 73
72 76
72 77
72 79
72 84
72 85
72 88
72 90
72 93
72 98
72 99
72 101
72 102
72 103
72 104
72 105
72 107
72 108
73 77
73 78
73 82
73 84
73 85
73 89
73 90
73 93
73 94
73 95
73 96
73 98
73 102
73 103
73 104
74 75
74 77
74 78
74 80
74 82
74 83
74 87
74 88
74 92
74 93
74 95
74 96
74 99
74 101
74 103
74 107
74 108
75 77
75 79
75 80
75 82
75 83
75 84
75 86
75 87
75 89
75 91
75 92
75 93
75 94
75 96
75 101
75 103
75 107
75 109
76 77
76 79
76 83
76 84
76 88
76 89
76 91
76 92
76 93
76 94
76 95
76 96
76 100
76 105
76 106
76 107
76 108
77 78
77 79
77 80
77 81
77 85
77 87
77 88
77 89
77 93
77 94
77 97
77 100
77 102
77 104
77 105
77 107
77 108
78 79
78 80
78 81
78 83
78 85
78 86
78 87
78 91
78 93
78 98
78 101
78 102
78 104
78 106
78 107
78 108
79 81
79 83
79 86
79 87
79 89
79 92
79 93
79 95
79 96
79 99
79 102
79 104
79 105
79 106
80 81
80 82
80 83
80 84
80 85
80 89
80 91
80 92
80 94
80 95
80 96
80 97
80 102
80 103
80 104
80 105
80 106
80 109
81 83
81 86
81 88
81 89
81 90
81 91
81 93
81 94
81 95
81 96
81 98
81 101
81 102
81 104
81 106
81 107
82 83
82 87
82 88
82 92
82 94
82 95
82 96
82 97
82 98
82 102
82 103
82 105
82 106
82 107
82 108
82 109
83 84
83 85
83 86
83 87
83 88
83 89
83 92
83 95
83 96
83 103
83 104
83 106
83 107
83 109
84 85
84 86
84 87
84 88
84 90
84 91
84 92
84 96
84 100
84 102
84 103
84 104
84 105
84 109
85 86
85 87
85 88
85 90
85 92
85 94
85 98
85 100
85 101
85 103
85 104
85 105
85 107
85 108
86 88
86 93
86 94
86 95
86 97
86 99
86 100
86 102
86 103
86 104
86 106
86 107
86 108
86 109
87 90
87 91
87 97
87 99
87 101
87 102
87 104
87 107
87 109
88 91
88 92
88 93
88 95
88 96
88 97
88 98
88 99
88 105
89 90
89 92
89 94
89 98
89 99
89 102
89 103
89 104
89 105
90 91
90 92
90 95
90 97
90 99
90 100
90 101
90 102
90 103
90 105
90 107
91 93
91 94
91 95
91 98
91 100
91 102
91 103
91 104
91 105
91 107
91 109
92 101
92 102
92 105
92 107
92 109
93 95
93 96
93 97
93 98
93 104
93 108
94 95
94 106
94 109
95 98
95 99
95 100
95 101
95 102
95 103
95 107
95 108
95 109
96 97
96 99
96 103
96 106
96 107
96 108
96 109
97 99
97 100
97 101
97 103
97 104
97 105
97 106
97 108
97 109
98 101
98 104
98 105
98 106
98 107
99 100
99 101
99 105
99 108
100 101
100 104
100 106
100 108
100 109
101 103
101 105
101 106
101 107
102 106
102 108
103 104
103 107
103 108
104 106
105 106
105 108
106 108
107 108
107 109
