110:1531
0 1
0 3
0 5
0 6
0 10
0 13
0 14
0 21
0 25
0 28
0 29
0 33
0 38
0 39
0 41
0 45
0 46
0 49
0 50
0 52
0 61
0 64
0 65
0 68
0 72
0 74
0 80
0 82
0 83
0 84
0 85
0 88
0 89
0 91
0 92
0 95
0 105
1 2
1 3
1 17
1 22
1 31
1 38
1 40
1 59
1 60
1 61
1 63
1 65
1 67
1 68
1 71
1 77
1 80
1 82
1 88
1 93
1 95
1 96
1 97
1 98
1 99
1 100
1 109
2 3
2 5
2 11
2 16
2 17
2 28
2 33
2 37
2 43
2 45
2 54
2 62
2 75
2 78
2 80
2 84
2 93
2 94
2 102
2 104
2 105
2 108
3 13
3 21
3 31
3 36
3 44
3 45
3 47
3 59
3 61
3 62
3 69
3 71
3 73
3 75
3 80
3 81
3 89
3 99
3 103
3 109
4 7
4 8
4 10
4 19
4 20
4 30
4 31
4 45
4 47
4 52
4 62
4 68
4 72
4 76
4 81
4 96
4 98
4 102
4 108
4 109
5 6
5 9
5 11
5 15
5 27
5 39
5 44
5 48
5 57
5 60
5 61
5 63
5 66
5 68
5 70
5 76
5 78
5 80
5 84
5 88
5 89
5 90
5 95
5 99
6 7
6 8
6 15
6 16
6 17
6 20
6 27
6 38
6 45
6 48
6 52
6 61
6 64
6 65
6 67
6 69
6 73
6 76
6 77
6 78
6 80
6 88
6 95
6 97
6 102
6 104
7 15
7 17
7 26
7 33
7 34
7 36
7 41
7 44
7 48
7 49
7 50
7 57
7 63
7 67
7 70
7 75
7 77
7 79
7 82
7 95
7 104
7 106
7 107
8 10
8 22
8 23
8 25
8 27
8 34
8 35
8 41
8 44
8 46
8 47
8 48
8 51
8 52
8 54
8 55
8 58
8 67
8 72
8 76
8 80
8 81
8 82
8 87
8 96
8 97
8 105
8 107
8 109
9 18
9 25
9 39
9 40
9 58
9 59
9 60
9 61
9 62
9 65
9 75
9 77
9 81
9 85
9 96
9 101
9 103
9 106
9 109
10 15
10 20
10 21
10 24
10 28
10 31
10 34
10 35
10 38
10 42
10 44
10 46
10 50
10 58
10 61
10 65
10 69
10 70
10 73
10 75
10 77
10 82
10 84
10 89
10 90
10 99
10 100
10 103
10 105
11 13
11 15
11 17
11 23
11 27
11 29
11 30
11 31
11 33
11 39
11 49
11 53
11 54
11 60
11 65
11 66
11 67
11 68
11 73
11 74
11 78
11 79
11 81
11 83
11 98
11 102
12 16
12 22
12 25
12 43
12 45
12 54
12 64
12 65
12 66
12 67
12 71
12 72
12 74
12 76
12 82
12 83
12 84
12 87
12 92
12 96
12 102
12 103
13 16
13 26
13 28
13 31
13 32
13 34
13 41
13 48
13 50
13 53
13 54
13 56
13 60
13 65
13 67
13 69
13 72
13 75
13 78
13 80
13 88
13 93
13 94
13 95
13 96
13 98
13 99
13 103
13 108
14 16
14 18
14 23
14 26
14 38
14 40
14 42
14 50
14 53
14 54
14 60
14 64
14 68
14 75
14 79
14 80
14 82
14 87
14 89
14 94
14 95
14 98
14 102
14 103
15 19
15 27
15 34
15 38
15 48
15 51
15 57
15 58
15 61
15 63
15 64
15 67
15 72
15 73
15 77
15 79
15 83
15 86
15 90
15 95
15 98
15 103
15 108
16 17
16 18
16 20
16 21
16 22
16 25
16 28
16 31
16 37
16 38
16 43
16 47
16 53
16 55
16 59
16 61
16 65
16 66
16 67
16 68
16 76
16 77
16 78
16 93
16 95
16 97
16 99
16 106
16 108
16 109
17 32
17 35
17 36
17 42
17 54
17 63
17 69
17 70
17 80
17 85
17 86
17 91
17 99
17 105
17 106
17 108
18 19
18 21
18 23
18 25
18 31
18 33
18 42
18 46
18 51
18 52
18 53
18 67
18 73
18 74
18 78
18 79
18 81
18 83
18 89
18 90
18 96
18 101
18 103
18 104
18 105
19 26
19 39
19 40
19 44
19 53
19 61
19 63
19 69
19 74
19 90
19 91
19 93
19 96
19 100
19 101
19 106
19 108
20 21
20 25
20 26
20 28
20 30
20 31
20 33
20 47
20 49
20 53
20 57
20 58
20 60
20 66
20 71
20 72
20 78
20 81
20 91
20 93
20 94
20 96
20 104
20 105
20 106
20 107
21 22
21 25
21 32
21 35
21 41
21 45
21 46
21 51
21 58
21 59
21 63
21 65
21 75
21 76
21 82
21 83
21 84
21 88
21 95
21 100
21 101
21 103
21 108
22 24
22 35
22 39
22 41
22 53
22 59
22 62
22 64
22 67
22 75
22 79
22 80
22 92
22 93
22 94
22 95
22 98
22 109
23 25
23 26
23 27
23 38
23 42
23 47
23 55
23 61
23 62
23 66
23 83
23 94
23 95
23 98
23 105
23 108
24 25
24 28
24 32
24 34
24 39
24 46
24 49
24 53
24 59
24 66
24 67
24 68
24 69
24 77
24 79
24 82
24 84
24 90
24 100
24 105
24 107
25 40
25 48
25 51
25 54
25 62
25 63
25 70
25 71
25 72
25 73
25 74
25 75
25 77
25 89
25 94
25 100
25 105
26 27
26 28
26 30
26 31
26 33
26 38
26 39
26 41
26 43
26 48
26 51
26 52
26 53
26 57
26 58
26 61
26 63
26 64
26 67
26 69
26 70
26 72
26 80
26 83
26 88
26 89
26 90
26 92
26 99
26 100
26 104
26 107
27 38
27 42
27 45
27 52
27 53
27 61
27 67
27 70
27 72
27 75
27 78
27 87
27 89
27 93
27 95
27 99
27 101
27 104
28 43
28 49
28 56
28 57
28 58
28 67
28 68
28 70
28 71
28 75
28 79
28 80
28 82
28 83
28 86
28 87
28 93
28 98
28 101
28 102
28 104
28 108
29 32
29 33
29 36
29 37
29 38
29 39
29 40
29 44
29 45
29 48
29 51
29 53
29 61
29 63
29 68
29 72
29 73
29 77
29 78
29 82
29 83
29 85
29 86
29 87
29 93
29 94
29 101
29 102
29 103
29 106
29 108
30 31
30 33
30 40
30 42
30 43
30 47
30 61
30 62
30 64
30 67
30 71
30 74
30 77
30 84
30 85
30 89
30 90
30 91
30 96
30 100
30 101
30 102
30 109
31 32
31 38
31 46
31 49
31 51
31 52
31 56
31 60
31 61
31 63
31 66
31 72
31 73
31 81
31 87
31 95
31 96
31 105
32 39
32 41
32 50
32 51
32 52
32 55
32 56
32 62
32 67
32 69
32 72
32 73
32 79
32 82
32 85
32 87
32 93
32 95
32 100
32 102
32 109
33 38
33 42
33 46
33 49
33 50
33 52
33 53
33 55
33 58
33 65
33 67
33 69
33 71
33 75
33 76
33 91
33 92
33 102
33 105
34 40
34 42
34 44
34 47
34 48
34 51
34 58
34 70
34 75
34 76
34 79
34 80
34 82
34 84
34 85
34 94
34 99
34 100
34 102
34 107
34 109
35 36
35 37
35 42
35 45
35 48
35 55
35 62
35 65
35 70
35 76
35 79
35 80
35 84
35 89
35 92
35 96
35 105
35 106
35 107
35 109
36 50
36 54
36 59
36 60
36 63
36 67
36 70
36 80
36 82
36 84
36 86
36 88
36 93
36 108
36 109
37 39
37 46
37 47
37 48
37 52
37 57
37 60
37 66
37 67
37 78
37 80
37 81
37 99
37 100
37 102
37 104
37 105
38 42
38 43
38 45
38 48
38 53
38 54
38 56
38 60
38 65
38 68
38 73
38 74
38 75
38 76
38 78
38 79
38 87
38 89
38 99
38 102
38 104
38 105
39 45
39 46
39 50
39 51
39 52
39 54
39 55
39 56
39 57
39 66
39 67
39 68
39 70
39 72
39 77
39 83
39 84
39 85
39 87
39 90
39 96
39 97
39 99
39 100
39 102
39 104
39 105
40 43
40 44
40 56
40 57
40 58
40 62
40 65
40 67
40 75
40 79
40 90
40 93
40 96
40 98
40 108
40 109
41 50
41 52
41 53
41 55
41 61
41 65
41 74
41 76
41 79
41 85
41 87
41 90
41 92
41 93
41 96
41 98
41 99
41 109
42 45
42 46
42 47
42 48
42 50
42 52
42 59
42 61
42 68
42 75
42 84
42 85
42 86
42 92
42 99
42 101
42 104
43 44
43 45
43 54
43 69
43 70
43 71
43 73
43 75
43 88
43 89
43 90
43 92
44 45
44 47
44 51
44 55
44 56
44 64
44 67
44 71
44 77
44 91
44 94
44 95
44 98
44 106
44 109
45 50
45 51
45 54
45 58
45 61
45 63
45 66
45 68
45 69
45 76
45 81
45 83
45 85
45 87
45 88
45 90
45 95
45 96
45 102
46 47
46 53
46 59
46 60
46 62
46 69
46 70
46 73
46 80
46 86
46 87
46 91
46 100
47 58
47 62
47 67
47 68
47 71
47 86
47 90
47 94
47 96
47 98
47 107
48 54
48 57
48 64
48 65
48 70
48 75
48 81
48 85
48 87
48 89
48 90
48 94
48 95
48 100
49 50
49 61
49 65
49 72
49 73
49 76
49 83
49 87
49 90
49 101
49 103
49 106
50 54
50 56
50 61
50 62
50 65
50 83
50 92
50 94
50 95
50 98
51 59
51 66
51 73
51 75
51 77
51 78
51 80
51 83
51 92
51 93
51 96
51 104
51 106
51 107
52 64
52 65
52 69
52 70
52 74
52 83
52 86
52 89
52 91
52 92
52 94
52 98
52 99
52 100
52 103
52 105
52 108
52 109
53 54
53 57
53 62
53 73
53 76
53 78
53 80
53 81
53 85
53 86
53 90
53 94
53 106
54 62
54 64
54 67
54 70
54 71
54 73
54 78
54 84
54 91
54 95
54 98
54 108
55 56
55 58
55 60
55 62
55 64
55 67
55 68
55 70
55 72
55 83
55 87
55 90
55 91
55 96
55 99
55 101
55 105
56 60
56 66
56 68
56 69
56 72
56 76
56 83
56 85
56 90
56 101
56 103
56 104
56 107
57 58
57 61
57 74
57 75
57 81
57 82
57 86
57 88
57 91
57 93
57 98
57 99
57 105
58 60
58 61
58 62
58 68
58 69
58 71
58 75
58 79
58 81
58 87
58 94
58 97
58 99
58 102
58 103
58 104
59 60
59 74
59 75
59 77
59 78
59 79
59 85
59 107
60 63
60 64
60 65
60 76
60 79
60 85
60 90
60 93
60 97
60 103
60 106
61 67
61 70
61 71
61 73
61 75
61 82
61 86
61 89
61 95
61 99
61 103
61 105
61 107
61 108
61 109
62 66
62 68
62 74
62 75
62 83
62 86
62 88
62 92
62 94
62 97
62 101
62 106
62 107
62 109
63 74
63 84
63 96
63 105
63 109
64 70
64 77
64 79
64 83
64 86
64 90
64 93
64 94
64 97
64 99
64 100
64 101
64 102
65 67
65 68
65 74
65 75
65 80
65 82
65 87
65 89
65 91
65 98
65 99
66 69
66 71
66 72
66 75
66 76
66 79
66 80
66 84
66 88
66 91
66 96
66 102
66 108
67 75
67 81
67 92
67 100
67 101
67 105
67 108
68 73
68 75
68 78
68 79
68 80
68 83
68 84
68 88
68 92
68 98
68 99
68 105
68 108
68 109
69 72
69 75
69 82
69 83
69 91
69 92
69 94
69 99
69 108
70 76
70 77
70 78
70 81
70 82
70 84
70 85
70 86
70 87
70 88
70 91
70 95
70 100
70 101
70 103
70 105
70 106
71 72
71 76
71 81
71 86
71 92
71 93
71 94
71 100
71 105
71 107
72 74
72 75
72 76
72 77
72 82
72 84
72 86
72 90
72 92
72 97
72 99
72 101
72 106
73 75
73 79
73 80
73 81
73 82
73 85
73 86
73 89
73 90
73 93
73 101
73 102
73 106
73 107
73 109
74 77
74 79
74 81
74 89
74 96
74 97
74 98
74 99
74 101
74 103
75 76
75 77
75 84
75 85
75 88
75 89
75 90
75 93
75 98
75 106
76 84
76 86
76 98
76 100
76 101
76 105
76 106
76 107
76 108
76 109
77 81
77 89
77 94
77 95
77 96
77 99
77 105
77 107
77 109
78 85
78 87
78 93
78 95
78 98
78 104
78 107
78 109
79 81
79 83
79 89
79 93
79 96
79 103
79 104
80 82
80 87
80 95
80 101
80 103
81 83
81 96
81 100
81 101
81 102
82 83
82 85
82 87
82 92
82 102
82 104
83 92
83 97
83 101
83 102
83 105
84 99
84 102
84 104
84 108
85 86
85 88
85 89
85 92
85 94
85 95
85 96
85 102
85 104
85 106
86 88
86 91
86 93
86 94
86 96
86 97
86 100
86 108
86 109
87 92
87 94
87 95
87 96
87 99
87 103
87 105
87 107
88 89
88 90
88 92
88 100
88 104
89 90
89 97
89 98
89 104
90 94
90 95
90 96
90 99
90 104
90 108
91 95
91 97
91 98
92 96
92 102
92 103
93 97
93 100
93 101
93 103
93 109
94 95
94 96
94 97
94 98
94 101
94 105
95 96
95 98
95 99
95 107
96 97
96 99
96 101
96 102
96 104
96 105
97 99
97 101
97 103
97 107
98 109
99 103
99 104
99 107
99 108
100 102
100 104
100 105
100 107
100 109
103 109
104 105
104 106
104 109
106 109
108 109
