110:2994
0 1
0 2
0 3
0 4
0 5
0 9
0 11
0 13
0 14
0 15
0 18
0 21
0 22
0 24
0 25
0 26
0 27
0 30
0 32
0 33
0 36
0 37
0 39
0 41
0 42
0 43
0 45
0 47
0 48
0 49
0 50
0 55
0 56
0 57
0 58
0 61
0 62
0 63
0 65
0 67
0 68
0 70
0 71
0 73
0 75
0 77
0 79
0 80
0 81
0 84
0 89
0 90
0 92
0 93
0 96
0 97
0 98
0 100
0 105
0 106
1 2
1 5
1 7
1 8
1 11
1 15
1 16
1 17
1 18
1 22
1 24
1 29
1 31
1 32
1 33
1 34
1 36
1 38
1 39
1 42
1 43
1 51
1 52
1 57
1 59
1 60
1 61
1 63
1 67
1 70
1 71
1 73
1 74
1 75
1 76
1 77
1 78
1 79
1 81
1 83
1 86
1 87
1 88
1 89
1 91
1 92
1 93
1 96
1 98
1 103
1 104
1 106
1 107
1 108
2 3
2 6
2 7
2 9
2 10
2 12
2 14
2 21
2 25
2 26
2 28
2 29
2 31
2 33
2 34
2 35
2 39
2 40
2 45
2 46
2 47
2 49
2 51
2 52
2 53
2 54
2 57
2 58
2 59
2 61
2 63
2 64
2 68
2 70
2 72
2 75
2 76
2 78
2 79
2 82
2 85
2 88
2 91
2 93
2 94
2 95
2 98
2 99
2 102
2 103
2 106
2 108
2 109
3 5
3 7
3 8
3 9
3 14
3 15
3 16
3 17
3 20
3 21
3 22
3 26
3 27
3 28
3 29
3 31
3 32
3 33
3 35
3 37
3 38
3 39
3 40
3 43
3 44
3 47
3 48
3 49
3 50
3 52
3 54
3 55
3 57
3 60
3 61
3 62
3 64
3 67
3 68
3 69
3 71
3 75
3 77
3 79
3 81
3 83
3 85
3 88
3 89
3 90
3 91
3 93
3 96
3 98
3 100
3 105
3 106
3 108
3 109
4 5
4 6
4 10
4 14
4 16
4 18
4 20
4 21
4 22
4 25
4 32
4 34
4 37
4 39
4 40
4 42
4 43
4 45
4 46
4 47
4 49
4 51
4 53
4 55
4 56
4 57
4 58
4 59
4 60
4 65
4 68
4 69
4 71
4 73
4 76
4 77
4 79
4 83
4 84
4 85
4 86
4 88
4 93
4 95
4 97
4 98
4 105
4 107
4 109
5 12
5 13
5 14
5 17
5 20
5 21
5 24
5 25
5 27
5 28
5 29
5 32
5 33
5 35
5 37
5 40
5 41
5 43
5 44
5 46
5 47
5 48
5 49
5 50
5 51
5 58
5 59
5 62
5 63
5 67
5 69
5 70
5 74
5 75
5 76
5 77
5 81
5 82
5 83
5 84
5 85
5 89
5 91
5 92
5 95
5 98
5 99
5 105
5 107
6 7
6 9
6 16
6 19
6 20
6 22
6 23
6 28
6 29
6 30
6 33
6 34
6 35
6 36
6 40
6 41
6 42
6 46
6 47
6 48
6 49
6 50
6 52
6 55
6 56
6 57
6 61
6 63
6 64
6 65
6 72
6 75
6 76
6 77
6 79
6 81
6 82
6 84
6 85
6 88
6 95
6 98
6 101
6 102
6 103
6 105
6 108
6 109
7 10
7 14
7 15
7 19
7 20
7 21
7 22
7 27
7 28
7 30
7 31
7 34
7 35
7 36
7 37
7 38
7 39
7 42
7 44
7 45
7 46
7 48
7 49
7 52
7 55
7 56
7 57
7 59
7 60
7 64
7 65
7 67
7 69
7 70
7 75
7 76
7 82
7 84
7 85
7 86
7 90
7 91
7 92
7 93
7 94
7 95
7 97
7 102
7 104
7 105
7 106
7 108
8 9
8 16
8 17
8 23
8 26
8 27
8 28
8 29
8 32
8 35
8 36
8 37
8 38
8 46
8 47
8 48
8 50
8 51
8 53
8 54
8 57
8 60
8 61
8 62
8 63
8 64
8 65
8 66
8 67
8 68
8 69
8 72
8 73
8 75
8 76
8 77
8 78
8 80
8 81
8 82
8 85
8 86
8 87
8 88
8 89
8 90
8 91
8 92
8 93
8 96
8 98
8 99
8 101
8 106
8 107
8 109
9 12
9 13
9 15
9 17
9 18
9 21
9 22
9 23
9 25
9 27
9 28
9 29
9 30
9 31
9 32
9 35
9 37
9 38
9 39
9 42
9 46
9 47
9 49
9 50
9 55
9 57
9 58
9 59
9 61
9 64
9 68
9 70
9 71
9 74
9 79
9 81
9 83
9 85
9 87
9 88
9 90
9 92
9 95
9 98
9 99
9 101
9 104
9 106
9 107
9 109
10 13
10 14
10 15
10 17
10 19
10 20
10 23
10 24
10 26
10 28
10 29
10 31
10 34
10 36
10 37
10 43
10 49
10 50
10 53
10 54
10 55
10 56
10 57
10 58
10 60
10 61
10 67
10 69
10 71
10 75
10 76
10 77
10 78
10 80
10 81
10 84
10 87
10 89
10 90
10 91
10 92
10 93
10 94
10 95
10 97
10 99
10 100
10 101
10 102
10 104
10 105
10 106
10 107
10 109
11 12
11 14
11 16
11 17
11 20
11 24
11 25
11 27
11 29
11 31
11 34
11 35
11 36
11 39
11 40
11 43
11 44
11 49
11 53
11 56
11 57
11 59
11 60
11 61
11 63
11 65
11 69
11 70
11 72
11 73
11 74
11 76
11 80
11 81
11 84
11 85
11 86
11 87
11 88
11 89
11 90
11 91
11 92
11 94
11 97
11 98
11 99
11 101
11 105
11 107
11 109
12 19
12 25
12 27
12 29
12 32
12 34
12 36
12 37
12 40
12 41
12 42
12 43
12 46
12 50
12 51
12 53
12 56
12 60
12 61
12 64
12 66
12 69
12 70
12 72
12 74
12 75
12 77
12 78
12 79
12 80
12 83
12 85
12 86
12 88
12 93
12 95
12 96
12 97
12 98
12 100
12 101
12 102
12 104
12 106
13 17
13 18
13 19
13 21
13 24
13 26
13 29
13 30
13 32
13 33
13 37
13 40
13 44
13 46
13 48
13 50
13 51
13 52
13 54
13 58
13 64
13 67
13 72
13 74
13 75
13 77
13 79
13 80
13 82
13 83
13 88
13 90
13 93
13 95
13 96
13 103
13 104
13 105
13 106
13 107
13 109
14 15
14 17
14 20
14 21
14 23
14 26
14 27
14 28
14 30
14 33
14 34
14 36
14 40
14 42
14 43
14 45
14 46
14 48
14 50
14 54
14 56
14 57
14 58
14 59
14 61
14 64
14 65
14 66
14 71
14 72
14 74
14 76
14 81
14 82
14 86
14 89
14 92
14 93
14 95
14 100
14 102
14 103
14 105
14 106
14 109
15 16
15 18
15 20
15 23
15 25
15 26
15 29
15 31
15 32
15 33
15 34
15 35
15 38
15 39
15 41
15 42
15 45
15 46
15 47
15 52
15 53
15 54
15 55
15 56
15 57
15 58
15 59
15 60
15 61
15 63
15 64
15 66
15 69
15 73
15 78
15 79
15 80
15 82
15 84
15 86
15 87
15 88
15 89
15 90
15 91
15 93
15 94
15 98
15 99
15 101
15 103
15 104
15 106
15 108
15 109
16 17
16 18
16 19
16 20
16 23
16 25
16 26
16 28
16 31
16 32
16 35
16 37
16 39
16 44
16 45
16 48
16 49
16 51
16 52
16 55
16 56
16 57
16 59
16 62
16 63
16 66
16 67
16 69
16 70
16 71
16 72
16 73
16 75
16 76
16 78
16 79
16 80
16 87
16 90
16 91
16 92
16 93
16 94
16 99
16 101
16 102
16 106
16 107
17 18
17 20
17 27
17 31
17 32
17 35
17 36
17 37
17 39
17 40
17 41
17 44
17 46
17 47
17 51
17 52
17 53
17 54
17 55
17 56
17 57
17 58
17 59
17 62
17 65
17 70
17 71
17 77
17 78
17 80
17 81
17 83
17 84
17 85
17 87
17 88
17 89
17 90
17 91
17 93
17 94
17 97
17 98
17 102
17 103
17 105
17 106
17 108
18 19
18 20
18 25
18 28
18 30
18 33
18 36
18 38
18 40
18 41
18 43
18 45
18 46
18 49
18 50
18 52
18 55
18 56
18 60
18 61
18 62
18 65
18 68
18 69
18 70
18 71
18 72
18 76
18 78
18 80
18 83
18 84
18 86
18 87
18 89
18 91
18 93
18 95
18 96
18 98
18 100
18 102
18 105
19 23
19 24
19 26
19 28
19 30
19 32
19 33
19 39
19 40
19 44
19 45
19 46
19 47
19 48
19 49
19 50
19 51
19 52
19 54
19 58
19 61
19 63
19 65
19 67
19 69
19 71
19 72
19 74
19 75
19 78
19 79
19 81
19 82
19 84
19 86
19 89
19 90
19 91
19 94
19 98
19 100
19 101
19 104
19 107
19 108
20 22
20 25
20 27
20 30
20 35
20 36
20 38
20 40
20 42
20 43
20 45
20 46
20 48
20 50
20 51
20 52
20 55
20 58
20 59
20 60
20 61
20 64
20 65
20 66
20 67
20 69
20 74
20 75
20 76
20 79
20 81
20 82
20 84
20 86
20 88
20 89
20 90
20 92
20 93
20 95
20 96
20 97
20 98
20 99
20 101
20 103
20 104
20 105
20 107
20 108
20 109
21 25
21 27
21 28
21 31
21 33
21 34
21 35
21 36
21 37
21 38
21 40
21 41
21 42
21 43
21 45
21 48
21 49
21 50
21 53
21 54
21 55
21 56
21 57
21 58
21 61
21 62
21 64
21 65
21 66
21 68
21 70
21 73
21 75
21 79
21 81
21 84
21 85
21 86
21 87
21 91
21 92
21 95
21 96
21 97
21 99
21 101
21 103
21 104
21 105
21 107
21 108
21 109
22 26
22 27
22 28
22 29
22 31
22 33
22 34
22 35
22 38
22 39
22 40
22 42
22 46
22 48
22 51
22 52
22 53
22 54
22 57
22 58
22 59
22 62
22 64
22 65
22 66
22 69
22 72
22 73
22 78
22 80
22 81
22 83
22 84
22 86
22 89
22 92
22 93
22 96
22 97
22 98
22 99
22 103
22 105
22 108
23 24
23 30
23 33
23 35
23 36
23 40
23 41
23 43
23 46
23 48
23 53
23 55
23 56
23 57
23 58
23 59
23 60
23 62
23 63
23 64
23 66
23 68
23 69
23 70
23 71
23 73
23 74
23 75
23 77
23 79
23 85
23 87
23 90
23 95
23 102
23 104
23 105
23 106
23 107
23 109
24 25
24 26
24 27
24 28
24 30
24 31
24 34
24 38
24 43
24 44
24 47
24 48
24 49
24 51
24 53
24 57
24 58
24 69
24 70
24 72
24 73
24 76
24 83
24 84
24 85
24 87
24 88
24 91
24 92
24 94
24 95
24 96
24 98
24 99
24 106
24 107
24 108
25 27
25 28
25 29
25 32
25 33
25 35
25 37
25 41
25 43
25 44
25 47
25 48
25 50
25 51
25 56
25 60
25 63
25 64
25 65
25 66
25 70
25 71
25 72
25 74
25 77
25 78
25 79
25 82
25 83
25 84
25 86
25 87
25 89
25 92
25 94
25 95
25 97
25 98
25 100
25 105
26 27
26 28
26 31
26 39
26 40
26 42
26 43
26 47
26 49
26 50
26 51
26 54
26 55
26 57
26 60
26 61
26 62
26 63
26 64
26 66
26 69
26 71
26 76
26 77
26 81
26 82
26 83
26 84
26 87
26 89
26 92
26 93
26 94
26 97
26 100
26 102
26 103
26 104
26 107
26 108
27 29
27 31
27 32
27 33
27 37
27 38
27 43
27 44
27 45
27 51
27 52
27 55
27 56
27 58
27 60
27 61
27 64
27 71
27 72
27 73
27 76
27 77
27 78
27 79
27 80
27 82
27 87
27 88
27 89
27 90
27 91
27 92
27 93
27 95
27 98
27 99
27 101
27 104
27 105
27 107
27 108
28 32
28 33
28 34
28 35
28 37
28 40
28 41
28 42
28 46
28 48
28 49
28 51
28 55
28 56
28 57
28 59
28 60
28 61
28 62
28 67
28 71
28 78
28 80
28 81
28 84
28 87
28 88
28 89
28 93
28 94
28 96
28 97
28 99
28 102
28 103
28 104
28 105
28 107
28 109
29 30
29 31
29 32
29 33
29 34
29 35
29 36
29 40
29 41
29 44
29 46
29 47
29 48
29 51
29 53
29 55
29 57
29 58
29 60
29 61
29 62
29 63
29 65
29 68
29 70
29 71
29 72
29 73
29 75
29 76
29 77
29 82
29 84
29 86
29 87
29 89
29 90
29 92
29 93
29 94
29 96
29 98
29 99
29 100
29 101
29 104
29 106
29 108
29 109
30 34
30 35
30 36
30 38
30 39
30 40
30 45
30 47
30 48
30 49
30 50
30 52
30 56
30 58
30 62
30 63
30 64
30 66
30 67
30 68
30 69
30 72
30 74
30 75
30 76
30 77
30 80
30 81
30 82
30 83
30 84
30 87
30 88
30 92
30 95
30 96
30 100
30 102
30 107
31 32
31 33
31 39
31 40
31 42
31 46
31 49
31 51
31 52
31 54
31 58
31 60
31 62
31 65
31 66
31 67
31 68
31 70
31 71
31 72
31 73
31 75
31 76
31 79
31 82
31 83
31 85
31 90
31 94
31 96
31 98
31 99
31 101
31 102
31 105
31 106
31 108
32 33
32 36
32 37
32 39
32 45
32 46
32 47
32 48
32 49
32 55
32 56
32 60
32 62
32 63
32 64
32 70
32 71
32 72
32 73
32 74
32 75
32 79
32 80
32 81
32 82
32 83
32 84
32 87
32 88
32 89
32 90
32 92
32 94
32 95
32 97
32 100
32 101
32 107
32 108
33 34
33 35
33 36
33 39
33 40
33 41
33 44
33 49
33 53
33 54
33 58
33 59
33 60
33 61
33 64
33 70
33 73
33 75
33 76
33 83
33 84
33 85
33 88
33 90
33 92
33 93
33 94
33 95
33 98
33 99
33 100
33 102
33 103
33 105
33 107
33 108
34 36
34 37
34 39
34 40
34 41
34 44
34 45
34 46
34 47
34 49
34 51
34 52
34 53
34 54
34 55
34 58
34 59
34 61
34 62
34 63
34 65
34 66
34 70
34 71
34 76
34 77
34 78
34 80
34 81
34 84
34 85
34 88
34 91
34 96
34 97
34 98
34 102
34 105
34 108
34 109
35 38
35 39
35 40
35 41
35 43
35 45
35 46
35 48
35 49
35 51
35 57
35 58
35 60
35 67
35 70
35 71
35 72
35 73
35 74
35 75
35 77
35 79
35 87
35 88
35 91
35 92
35 93
35 95
35 99
35 104
35 107
35 108
35 109
36 39
36 43
36 44
36 45
36 47
36 48
36 49
36 53
36 57
36 60
36 63
36 65
36 67
36 68
36 69
36 70
36 73
36 75
36 76
36 80
36 82
36 86
36 93
36 95
36 103
36 104
36 105
36 107
36 108
37 39
37 43
37 45
37 48
37 49
37 50
37 51
37 53
37 54
37 55
37 56
37 57
37 60
37 66
37 68
37 70
37 72
37 74
37 75
37 77
37 78
37 80
37 82
37 83
37 85
37 87
37 97
37 98
37 103
37 104
37 105
37 109
38 40
38 41
38 42
38 44
38 45
38 49
38 50
38 52
38 54
38 58
38 59
38 61
38 63
38 64
38 65
38 67
38 68
38 69
38 72
38 73
38 74
38 78
38 80
38 81
38 84
38 87
38 88
38 91
38 92
38 96
38 97
38 100
38 102
38 103
38 105
38 106
38 107
39 43
39 44
39 45
39 46
39 47
39 48
39 50
39 51
39 52
39 53
39 54
39 55
39 56
39 57
39 58
39 59
39 61
39 62
39 65
39 67
39 68
39 71
39 74
39 79
39 80
39 82
39 83
39 84
39 85
39 90
39 93
39 94
39 96
39 97
39 99
39 101
39 104
39 105
39 106
39 108
40 44
40 46
40 50
40 53
40 54
40 59
40 61
40 62
40 66
40 67
40 68
40 69
40 71
40 74
40 75
40 76
40 77
40 79
40 82
40 83
40 88
40 91
40 93
40 95
40 98
40 99
40 100
40 104
40 105
40 106
40 107
40 108
41 42
41 44
41 49
41 50
41 52
41 55
41 56
41 58
41 59
41 61
41 62
41 64
41 67
41 70
41 72
41 73
41 74
41 76
41 80
41 82
41 87
41 91
41 92
41 93
41 95
41 96
41 98
41 99
41 100
41 103
41 104
41 105
41 107
41 108
42 43
42 44
42 47
42 48
42 50
42 53
42 56
42 58
42 61
42 62
42 63
42 64
42 65
42 66
42 68
42 72
42 73
42 75
42 79
42 80
42 82
42 83
42 88
42 95
42 99
42 101
42 103
42 104
42 105
42 106
42 107
42 109
43 44
43 48
43 50
43 51
43 53
43 54
43 55
43 59
43 60
43 61
43 63
43 64
43 65
43 66
43 68
43 69
43 72
43 73
43 74
43 75
43 76
43 77
43 78
43 83
43 84
43 86
43 88
43 90
43 91
43 93
43 94
43 96
43 97
43 98
43 100
43 101
43 102
43 103
43 106
44 45
44 46
44 49
44 50
44 51
44 55
44 58
44 60
44 61
44 62
44 63
44 64
44 65
44 67
44 69
44 72
44 73
44 74
44 75
44 78
44 80
44 82
44 84
44 85
44 87
44 89
44 91
44 92
44 94
44 95
44 96
44 97
44 98
44 99
44 100
44 101
44 102
44 103
44 108
44 109
45 46
45 47
45 50
45 52
45 53
45 56
45 57
45 58
45 60
45 63
45 66
45 68
45 69
45 70
45 72
45 75
45 76
45 80
45 82
45 83
45 84
45 85
45 88
45 93
45 97
45 99
45 101
45 103
45 105
45 106
45 107
45 108
46 48
46 51
46 56
46 57
46 58
46 60
46 61
46 63
46 64
46 67
46 68
46 69
46 72
46 74
46 75
46 81
46 83
46 84
46 88
46 90
46 93
46 94
46 97
46 99
46 102
46 105
46 107
47 49
47 52
47 53
47 54
47 56
47 57
47 58
47 60
47 61
47 62
47 66
47 67
47 69
47 70
47 79
47 80
47 84
47 89
47 91
47 92
47 93
47 94
47 95
47 99
47 104
47 105
47 106
47 108
48 49
48 53
48 54
48 55
48 56
48 58
48 59
48 61
48 62
48 64
48 66
48 67
48 69
48 70
48 71
48 72
48 79
48 83
48 85
48 87
48 89
48 90
48 92
48 93
48 94
48 95
48 96
48 98
48 99
48 100
48 101
48 102
48 103
48 105
48 106
48 107
48 108
49 51
49 53
49 56
49 57
49 59
49 61
49 64
49 65
49 67
49 68
49 69
49 70
49 71
49 73
49 74
49 76
49 80
49 82
49 84
49 86
49 87
49 91
49 93
49 94
49 95
49 96
49 97
49 98
49 99
49 100
49 102
49 105
49 106
49 107
49 109
50 51
50 52
50 53
50 54
50 56
50 58
50 61
50 62
50 65
50 66
50 68
50 70
50 71
50 74
50 75
50 76
50 79
50 83
50 86
50 88
50 89
50 96
50 100
50 101
50 102
50 104
50 105
50 106
51 54
51 55
51 56
51 58
51 61
51 62
51 63
51 65
51 66
51 74
51 75
51 76
51 78
51 79
51 81
51 82
51 83
51 84
51 88
51 90
51 92
51 94
51 95
51 96
51 97
51 98
51 99
51 101
51 103
51 109
52 53
52 55
52 57
52 59
52 61
52 63
52 64
52 65
52 69
52 71
52 76
52 77
52 78
52 83
52 84
52 90
52 91
52 93
52 94
52 95
52 101
52 108
52 109
53 57
53 58
53 59
53 60
53 61
53 62
53 63
53 64
53 69
53 70
53 71
53 72
53 73
53 75
53 76
53 78
53 80
53 81
53 83
53 84
53 85
53 86
53 88
53 89
53 91
53 92
53 94
53 95
53 98
53 102
53 106
53 107
53 108
54 56
54 58
54 59
54 68
54 69
54 70
54 71
54 72
54 73
54 74
54 76
54 78
54 82
54 83
54 84
54 85
54 89
54 91
54 93
54 95
54 96
54 97
54 98
54 99
54 100
54 101
54 102
54 103
54 106
54 108
54 109
55 56
55 57
55 58
55 61
55 64
55 67
55 68
55 71
55 72
55 74
55 76
55 77
55 78
55 80
55 82
55 83
55 84
55 86
55 87
55 90
55 93
55 94
55 96
55 98
55 99
55 100
55 101
55 103
55 104
55 105
55 107
55 109
56 61
56 63
56 64
56 65
56 69
56 73
56 74
56 78
56 80
56 83
56 85
56 87
56 88
56 91
56 93
56 94
56 96
56 98
56 100
56 102
56 103
56 107
56 109
57 59
57 61
57 62
57 63
57 65
57 69
57 70
57 73
57 75
57 77
57 78
57 79
57 80
57 81
57 82
57 83
57 87
57 88
57 92
57 94
57 95
57 96
57 97
57 98
57 99
57 103
57 104
57 105
57 108
58 59
58 61
58 68
58 70
58 72
58 73
58 75
58 76
58 78
58 79
58 80
58 81
58 82
58 84
58 88
58 89
58 92
58 94
58 95
58 98
58 99
58 102
58 103
58 104
58 105
58 108
59 60
59 61
59 62
59 63
59 64
59 65
59 68
59 70
59 71
59 75
59 79
59 80
59 82
59 84
59 85
59 90
59 93
59 94
59 98
59 100
59 101
59 102
59 103
59 106
59 108
60 62
60 63
60 67
60 68
60 69
60 71
60 75
60 79
60 80
60 84
60 89
60 90
60 91
60 94
60 97
60 98
60 99
60 100
60 101
60 102
60 107
60 108
61 62
61 65
61 68
61 70
61 71
61 73
61 74
61 76
61 77
61 78
61 79
61 81
61 83
61 85
61 87
61 88
61 89
61 90
61 91
61 93
61 99
61 101
61 102
61 106
61 107
61 109
62 63
62 65
62 66
62 67
62 68
62 71
62 77
62 81
62 82
62 85
62 89
62 93
62 94
62 95
62 99
62 101
62 104
62 105
62 106
62 108
63 64
63 65
63 68
63 70
63 73
63 80
63 81
63 83
63 84
63 85
63 89
63 90
63 92
63 93
63 97
63 99
63 101
63 103
63 104
63 106
64 67
64 69
64 72
64 73
64 75
64 77
64 79
64 81
64 85
64 87
64 89
64 90
64 92
64 93
64 94
64 99
64 100
64 101
64 102
64 103
64 104
64 105
64 107
64 109
65 68
65 74
65 78
65 79
65 80
65 82
65 83
65 84
65 86
65 87
65 88
65 90
65 91
65 92
65 94
65 98
65 99
65 107
66 67
66 69
66 70
66 71
66 72
66 74
66 76
66 80
66 81
66 82
66 83
66 88
66 89
66 90
66 93
66 94
66 98
66 99
66 101
66 103
66 104
66 105
66 106
66 108
66 109
67 68
67 69
67 70
67 71
67 72
67 74
67 78
67 79
67 81
67 82
67 86
67 92
67 93
67 94
67 95
67 96
67 97
67 101
67 102
67 103
67 105
67 108
67 109
68 69
68 71
68 72
68 73
68 75
68 76
68 77
68 81
68 83
68 84
68 88
68 90
68 91
68 92
68 93
68 97
68 98
68 102
68 103
68 106
69 81
69 82
69 84
69 87
69 88
69 89
69 90
69 91
69 93
69 94
69 95
69 101
69 102
69 103
69 108
69 109
70 78
70 79
70 80
70 81
70 82
70 83
70 91
70 93
70 95
70 97
70 98
70 99
70 109
71 72
71 73
71 74
71 77
71 80
71 81
71 82
71 85
71 86
71 87
71 88
71 91
71 93
71 94
71 95
71 99
71 101
71 102
71 105
71 106
71 109
72 73
72 74
72 75
72 79
72 81
72 84
72 88
72 92
72 93
72 96
72 97
72 100
72 102
72 103
72 105
72 106
72 107
72 109
73 77
73 80
73 81
73 84
73 85
73 86
73 89
73 92
73 94
73 98
73 99
73 101
73 102
73 103
73 104
73 105
73 107
73 108
73 109
74 77
74 78
74 81
74 84
74 88
74 92
74 94
74 96
74 99
74 101
74 102
74 104
74 106
74 109
75 78
75 79
75 80
75 91
75 93
75 95
75 97
75 98
75 99
75 101
75 102
75 103
75 104
75 105
75 106
75 107
75 109
76 78
76 79
76 81
76 82
76 84
76 85
76 87
76 90
76 91
76 92
76 93
76 97
76 100
76 102
76 105
76 106
77 80
77 81
77 83
77 84
77 85
77 87
77 88
77 91
77 92
77 95
77 96
77 97
77 101
77 102
77 104
77 108
77 109
78 80
78 82
78 84
78 85
78 89
78 91
78 95
78 96
78 97
78 98
78 100
78 101
78 102
78 105
79 81
79 82
79 84
79 85
79 86
79 87
79 89
79 92
79 96
79 99
79 100
79 101
79 103
79 104
79 106
79 108
79 109
80 84
80 85
80 88
80 92
80 93
80 94
80 98
80 99
80 103
80 105
80 108
80 109
81 82
81 84
81 85
81 88
81 90
81 91
81 94
81 96
81 99
81 101
81 104
81 105
82 83
82 87
82 90
82 94
82 96
82 97
82 98
82 101
82 104
82 106
83 84
83 87
83 90
83 93
83 94
83 95
83 96
83 97
83 99
83 100
83 101
83 102
83 103
83 104
83 105
83 109
84 85
84 86
84 90
84 92
84 94
84 95
84 98
84 99
84 100
84 103
84 106
84 108
85 94
85 95
85 98
85 102
85 103
85 104
85 105
85 108
86 87
86 89
86 90
86 91
86 92
86 93
86 94
86 96
86 97
86 98
86 101
86 103
86 105
86 106
87 88
87 93
87 94
87 95
87 101
87 102
87 104
87 105
87 106
87 108
87 109
88 89
88 92
88 94
88 95
88 96
88 97
88 99
88 100
88 102
88 103
88 105
88 106
89 92
89 95
89 96
89 105
89 106
89 109
90 98
90 100
90 105
90 106
90 109
91 93
91 94
91 98
91 99
91 100
91 101
91 102
91 103
92 94
92 95
92 97
92 100
92 102
92 103
92 106
92 107
92 109
93 94
93 96
93 97
93 100
93 101
93 104
93 105
93 106
93 108
94 95
94 96
94 97
94 98
94 104
94 105
94 106
95 97
95 98
95 99
95 100
95 101
95 107
95 109
96 99
96 100
96 107
96 108
96 109
97 101
97 102
97 105
97 108
98 101
98 107
99 102
99 103
99 104
99 105
99 106
99 107
99 108
100 101
100 103
100 107
101 102
101 103
101 105
101 106
101 108
101 109
102 103
102 106
102 107
102 108
102 109
103 104
103 106
104 109
105 106
105 107
105 109
106 109
107 108
108 109
