110:1525
0 1
0 2
0 3
0 9
0 15
0 26
0 30
0 33
0 36
0 37
0 39
0 41
0 42
0 43
0 58
0 63
0 65
0 68
0 73
0 75
0 81
0 84
0 89
0 90
0 96
0 98
0 106
1 2
1 7
1 8
1 16
1 17
1 24
1 29
1 36
1 39
1 59
1 60
1 61
1 63
1 67
1 75
1 76
1 78
1 81
1 83
1 86
1 87
1 89
1 93
1 98
1 106
2 6
2 9
2 10
2 21
2 25
2 28
2 29
2 31
2 33
2 39
2 40
2 49
2 52
2 53
2 54
2 58
2 61
2 68
2 72
2 75
2 76
2 78
2 82
2 88
2 91
2 99
2 103
2 106
2 109
3 7
3 8
3 14
3 15
3 16
3 17
3 20
3 21
3 26
3 28
3 32
3 33
3 35
3 37
3 38
3 40
3 44
3 48
3 49
3 54
3 55
3 67
3 79
3 81
3 85
3 88
3 90
3 93
3 96
4 6
4 10
4 14
4 21
4 22
4 39
4 40
4 47
4 49
4 53
4 56
4 58
4 65
4 68
4 79
4 83
4 84
5 13
5 17
5 20
5 27
5 29
5 33
5 35
5 37
5 40
5 41
5 43
5 51
5 58
5 62
5 63
5 69
5 70
5 77
5 83
5 84
5 89
5 91
5 92
5 99
5 105
5 107
6 19
6 20
6 22
6 23
6 28
6 41
6 42
6 46
6 56
6 57
6 63
6 64
6 72
6 76
6 79
6 81
6 84
6 85
6 88
6 95
6 98
6 101
6 103
6 108
7 10
7 14
7 15
7 19
7 20
7 22
7 30
7 31
7 34
7 35
7 38
7 44
7 45
7 52
7 56
7 59
7 60
7 67
7 70
7 75
7 82
7 84
7 86
7 90
7 91
7 92
7 94
7 95
7 97
7 104
7 105
7 108
8 9
8 16
8 29
8 32
8 35
8 37
8 47
8 51
8 53
8 61
8 65
8 66
8 69
8 73
8 80
8 82
8 86
8 88
8 89
8 90
8 92
8 96
8 98
8 106
9 13
9 25
9 30
9 31
9 35
9 38
9 46
9 47
9 50
9 55
9 57
9 59
9 61
9 64
9 68
9 70
9 71
9 74
9 79
9 81
9 83
9 85
9 90
9 92
9 98
9 101
10 13
10 15
10 19
10 20
10 24
10 29
10 36
10 37
10 53
10 54
10 55
10 56
10 58
10 61
10 71
10 75
10 77
10 78
10 80
10 87
10 89
10 90
10 91
10 94
10 95
10 100
10 101
10 105
10 107
10 109
11 12
11 14
11 24
11 25
11 31
11 34
11 35
11 44
11 49
11 53
11 56
11 59
11 61
11 65
11 69
11 70
11 74
11 76
11 80
11 81
11 86
11 91
11 98
11 99
11 101
11 107
12 19
12 25
12 32
12 34
12 36
12 40
12 41
12 46
12 64
12 69
12 70
12 72
12 78
12 96
12 97
12 102
12 104
13 17
13 18
13 19
13 21
13 26
13 29
13 33
13 37
13 40
13 44
13 46
13 51
13 58
13 67
13 72
13 75
13 77
13 79
13 80
13 82
13 83
13 93
13 96
13 103
13 104
13 107
13 109
14 21
14 28
14 33
14 34
14 42
14 43
14 45
14 48
14 57
14 64
14 66
14 71
14 74
14 92
14 95
14 102
14 109
15 18
15 23
15 26
15 29
15 31
15 32
15 33
15 34
15 39
15 45
15 46
15 47
15 54
15 56
15 58
15 59
15 60
15 61
15 63
15 64
15 66
15 78
15 80
15 84
15 87
15 88
15 89
15 91
15 94
15 101
15 104
15 106
15 108
15 109
16 17
16 19
16 20
16 25
16 31
16 37
16 49
16 55
16 62
16 63
16 67
16 70
16 71
16 72
16 75
16 78
16 79
16 80
16 87
16 90
16 91
16 93
16 94
16 102
17 27
17 31
17 35
17 36
17 41
17 44
17 46
17 47
17 53
17 55
17 56
17 57
17 58
17 59
17 65
17 71
17 78
17 81
17 83
17 84
17 88
17 89
17 91
17 93
17 94
17 102
17 106
18 19
18 20
18 28
18 33
18 36
18 38
18 40
18 45
18 50
18 52
18 60
18 61
18 62
18 68
18 69
18 70
18 71
18 72
18 76
18 78
18 80
18 83
18 87
18 89
18 91
18 95
18 98
18 100
18 102
19 24
19 28
19 33
19 45
19 46
19 49
19 51
19 58
19 61
19 63
19 65
19 67
19 69
19 71
19 74
19 75
19 78
19 79
19 86
19 89
19 90
19 91
19 94
19 98
19 104
19 107
20 22
20 25
20 27
20 30
20 36
20 38
20 40
20 45
20 46
20 48
20 50
20 51
20 58
20 59
20 60
20 66
20 69
20 74
20 75
20 90
20 92
20 93
20 99
20 101
20 103
20 109
21 25
21 28
21 34
21 35
21 38
21 40
21 42
21 43
21 48
21 49
21 53
21 54
21 55
21 56
21 62
21 65
21 70
21 73
21 84
21 85
21 86
21 91
21 92
21 101
21 103
21 105
21 107
22 26
22 27
22 31
22 33
22 38
22 40
22 48
22 51
22 52
22 54
22 57
22 58
22 59
22 62
22 65
22 66
22 80
22 83
22 84
22 86
22 89
22 92
22 93
22 97
22 98
22 103
23 24
23 33
23 35
23 36
23 41
23 43
23 46
23 64
23 66
23 68
23 70
23 74
23 85
23 87
23 90
23 102
23 105
23 106
23 109
24 26
24 27
24 30
24 38
24 44
24 51
24 53
24 57
24 58
24 69
24 70
24 72
24 76
24 87
24 92
24 94
24 95
24 98
24 99
24 108
25 27
25 28
25 29
25 32
25 35
25 41
25 44
25 47
25 56
25 65
25 71
25 72
25 74
25 77
25 82
25 83
25 84
25 87
25 89
25 92
25 105
26 27
26 39
26 42
26 49
26 50
26 51
26 57
26 60
26 62
26 63
26 64
26 69
26 71
26 76
26 77
26 81
26 82
26 84
26 89
26 92
26 93
26 94
26 100
26 102
26 103
27 29
27 32
27 33
27 37
27 38
27 43
27 44
27 60
27 64
27 71
27 72
27 73
27 76
27 77
27 78
27 80
27 88
27 89
27 91
27 92
27 93
27 95
27 98
27 99
27 104
27 105
27 108
28 33
28 35
28 40
28 42
28 46
28 56
28 59
28 60
28 61
28 80
28 84
28 87
28 88
28 93
28 94
28 96
28 99
28 103
28 107
29 30
29 31
29 32
29 33
29 40
29 41
29 44
29 46
29 47
29 48
29 53
29 57
29 58
29 60
29 62
29 63
29 65
29 68
29 70
29 71
29 72
29 73
29 75
29 76
29 87
29 90
29 92
29 94
29 96
29 100
29 101
29 104
29 108
30 38
30 39
30 40
30 48
30 62
30 63
30 66
30 67
30 72
30 75
30 76
30 77
30 81
30 83
30 84
30 92
30 96
30 100
30 107
31 40
31 42
31 46
31 51
31 52
31 60
31 62
31 65
31 68
31 70
31 72
31 73
31 76
31 79
31 82
31 83
31 85
31 98
31 99
31 101
31 105
32 46
32 55
32 60
32 63
32 79
32 80
32 82
32 83
32 88
32 89
32 90
32 92
32 97
32 100
33 34
33 35
33 39
33 40
33 41
33 44
33 49
33 53
33 54
33 58
33 59
33 60
33 64
33 70
33 73
33 83
33 84
33 92
33 99
33 102
33 103
33 105
33 107
34 36
34 40
34 41
34 47
34 51
34 58
34 61
34 62
34 63
34 65
34 71
34 76
34 77
34 80
34 81
34 88
34 98
34 108
35 38
35 39
35 40
35 41
35 48
35 58
35 71
35 72
35 73
35 74
35 75
35 77
35 87
35 91
35 92
35 95
35 99
35 109
36 39
36 44
36 48
36 53
36 60
36 63
36 65
36 67
36 68
36 76
36 80
36 82
36 86
36 93
36 103
36 108
37 48
37 49
37 50
37 53
37 54
37 55
37 56
37 57
37 60
37 68
37 75
37 78
37 87
37 97
37 98
37 109
38 42
38 50
38 54
38 65
38 68
38 78
38 84
38 87
38 88
38 96
38 103
38 105
38 107
39 45
39 46
39 50
39 51
39 56
39 59
39 65
39 67
39 79
39 84
39 85
39 90
39 93
39 96
39 104
39 106
40 53
40 54
40 59
40 62
40 67
40 69
40 75
40 76
40 79
40 82
40 88
40 93
40 95
40 98
40 99
40 100
41 42
41 50
41 56
41 59
41 64
41 67
41 70
41 72
41 74
41 80
41 87
41 91
41 96
41 100
41 105
41 108
42 43
42 44
42 47
42 48
42 50
42 56
42 58
42 61
42 62
42 63
42 64
42 65
42 66
42 72
42 73
42 75
42 82
42 88
42 95
42 101
42 103
42 105
42 106
43 44
43 51
43 53
43 54
43 55
43 60
43 61
43 63
43 64
43 68
43 72
43 73
43 74
43 75
43 78
43 84
43 88
43 91
43 93
43 96
43 98
43 100
43 101
43 102
44 45
44 46
44 50
44 58
44 63
44 64
44 67
44 69
44 75
44 80
44 87
44 94
44 95
44 96
44 98
44 99
44 100
44 101
44 103
44 108
44 109
45 47
45 53
45 63
45 69
45 72
45 82
45 85
45 101
45 107
45 108
46 56
46 57
46 61
46 67
46 68
46 69
46 72
46 75
46 81
46 83
46 105
46 107
47 49
47 52
47 53
47 56
47 57
47 58
47 60
47 61
47 69
47 92
47 94
47 104
48 49
48 53
48 55
48 56
48 61
48 69
48 71
48 72
48 79
48 85
48 95
48 98
48 102
48 103
48 105
48 106
48 107
48 108
49 53
49 56
49 61
49 64
49 67
49 69
49 70
49 80
49 82
49 84
49 86
49 87
49 91
49 93
49 94
49 95
49 96
49 99
49 100
49 102
49 105
49 106
50 52
50 54
50 62
50 65
50 66
50 70
50 71
50 76
50 79
50 83
50 86
50 88
50 100
50 104
50 105
51 54
51 56
51 58
51 63
51 75
51 76
51 84
51 88
51 90
51 94
51 96
51 98
51 101
51 103
52 65
52 76
52 84
52 91
52 93
52 94
52 95
53 57
53 58
53 69
53 70
53 71
53 72
53 78
53 80
53 83
53 89
53 91
53 92
53 98
53 102
53 106
53 107
54 56
54 59
54 70
54 72
54 74
54 78
54 84
54 91
54 93
54 98
54 101
54 103
54 106
54 108
55 56
55 57
55 58
55 61
55 68
55 72
55 76
55 77
55 78
55 80
55 82
55 83
55 84
55 87
55 90
55 96
55 98
55 101
55 104
55 105
55 109
56 63
56 64
56 74
56 87
56 91
56 102
56 103
56 107
56 109
57 70
57 73
57 77
57 80
57 82
57 83
57 87
57 97
57 98
57 99
57 104
57 105
57 108
58 59
58 68
58 82
58 84
58 89
58 92
58 94
58 98
58 99
58 103
58 104
59 61
59 62
59 64
59 65
59 70
59 71
59 75
59 85
59 93
59 101
59 102
59 103
60 62
60 68
60 69
60 75
60 79
60 89
60 91
60 98
60 99
60 100
60 101
60 102
60 107
61 65
61 68
61 73
61 76
61 77
61 78
61 81
61 85
61 90
61 101
61 107
61 109
62 63
62 67
62 71
62 77
62 81
62 82
62 85
62 93
62 95
62 99
62 101
62 104
62 106
62 108
63 64
63 65
63 70
63 73
63 83
63 90
63 92
63 93
63 97
63 101
63 106
64 67
64 69
64 72
64 73
64 79
64 92
64 94
64 99
64 101
64 103
64 104
65 78
65 79
65 80
65 84
65 90
65 91
65 92
65 98
65 99
65 107
66 74
66 80
66 83
66 94
66 101
66 103
66 104
66 105
66 108
66 109
67 68
67 69
67 74
67 78
67 79
67 82
67 86
67 93
67 95
67 101
67 109
68 69
68 71
68 77
68 81
68 83
68 84
68 88
68 92
68 97
68 98
68 103
68 106
69 82
69 87
69 88
69 89
69 90
69 91
69 93
69 94
69 102
69 103
69 108
70 79
70 81
70 91
70 95
70 99
71 74
71 77
71 81
71 82
71 85
71 87
71 99
71 101
71 105
72 75
72 79
72 88
72 92
72 96
72 97
72 103
72 106
72 109
73 77
73 80
73 85
73 86
73 99
73 102
73 103
73 104
73 105
73 107
73 108
73 109
74 77
74 88
74 96
74 102
74 104
74 109
75 80
75 91
75 98
75 106
75 107
76 78
76 79
76 87
76 102
77 81
77 83
77 91
77 92
77 95
77 102
77 108
77 109
78 85
78 91
78 95
78 96
78 97
78 102
79 82
79 85
79 87
79 99
79 101
79 104
79 109
80 88
80 94
80 98
80 99
80 103
80 105
81 82
81 90
81 91
81 96
81 101
81 104
81 105
82 94
82 97
82 98
82 104
83 87
83 90
83 93
83 94
83 101
83 104
83 109
84 90
84 94
84 106
84 108
85 94
85 95
85 98
85 103
85 104
85 108
86 89
86 91
86 92
86 96
86 97
86 98
86 101
86 103
86 106
87 93
87 95
87 101
87 104
87 106
88 89
88 96
88 99
88 100
88 102
89 95
89 96
89 106
89 109
90 100
90 105
90 106
91 93
91 98
91 99
92 94
92 97
92 100
92 102
92 106
93 96
93 97
93 101
93 104
93 105
94 95
94 96
94 106
95 97
95 98
95 101
96 99
96 109
97 108
98 101
98 107
99 102
99 103
99 104
99 105
99 108
100 103
101 103
101 105
101 106
101 108
101 109
102 106
103 104
105 109
106 109
107 108
