257:7235
0 1
0 4
0 5
0 14
0 15
0 16
0 28
0 29
0 30
0 31
0 33
0 34
0 35
0 42
0 43
0 45
0 47
0 48
0 49
0 50
0 64
0 65
0 66
0 67
0 68
0 104
0 105
1 2
1 5
1 6
1 8
1 12
1 13
1 15
1 16
1 17
1 24
1 26
1 27
1 28
1 30
1 31
1 32
1 34
1 35
1 36
1 43
1 44
1 46
1 48
1 49
1 50
1 51
1 64
1 66
1 67
1 68
1 69
1 89
1 91
1 92
1 93
1 106
1 114
1 115
1 117
1 118
1 119
2 3
2 4
2 5
2 7
2 11
2 14
2 15
2 16
2 25
2 28
2 29
2 30
2 31
2 33
2 34
2 35
2 42
2 43
2 45
2 47
2 48
2 49
2 50
2 64
2 65
2 66
2 67
2 68
2 90
2 104
2 105
2 113
2 116
3 5
3 6
3 8
3 12
3 13
3 15
3 16
3 17
3 24
3 26
3 27
3 28
3 30
3 31
3 32
3 34
3 35
3 36
3 43
3 44
3 48
3 49
3 50
3 51
3 64
3 66
3 67
3 68
3 69
3 89
3 91
3 92
3 93
3 114
3 115
3 117
3 118
3 119
4 5
4 6
4 8
4 9
4 12
4 13
4 15
4 16
4 17
4 18
4 24
4 26
4 27
4 28
4 30
4 31
4 32
4 34
4 35
4 36
4 38
4 43
4 44
4 46
4 48
4 49
4 50
4 51
4 64
4 66
4 67
4 68
4 69
4 84
4 89
4 91
4 92
4 93
4 104
4 106
4 111
4 114
4 115
4 117
4 118
4 119
4 121
4 128
5 6
5 7
5 11
5 13
5 14
5 16
5 17
5 19
5 24
5 25
5 27
5 28
5 29
5 31
5 32
5 33
5 35
5 36
5 37
5 39
5 42
5 44
5 46
5 47
5 49
5 50
5 51
5 64
5 65
5 67
5 68
5 69
5 82
5 83
5 85
5 89
5 90
5 92
5 93
5 105
5 106
5 112
5 113
5 115
5 116
5 118
5 119
5 120
5 122
5 123
5 129
5 130
6 7
6 8
6 9
6 11
6 12
6 14
6 15
6 16
6 18
6 25
6 26
6 28
6 29
6 30
6 31
6 33
6 34
6 35
6 38
6 42
6 43
6 45
6 47
6 48
6 49
6 50
6 64
6 65
6 66
6 67
6 68
6 84
6 90
6 91
6 104
6 105
6 111
6 113
6 114
6 116
6 117
6 121
6 128
7 8
7 9
7 12
7 13
7 15
7 16
7 17
7 18
7 24
7 26
7 27
7 28
7 30
7 31
7 32
7 34
7 35
7 36
7 38
7 43
7 44
7 48
7 49
7 50
7 51
7 64
7 66
7 67
7 68
7 69
7 84
7 89
7 91
7 92
7 93
7 104
7 111
7 114
7 115
7 117
7 118
7 119
7 121
7 128
8 11
8 13
8 14
8 16
8 17
8 19
8 24
8 25
8 27
8 28
8 29
8 31
8 32
8 33
8 35
8 36
8 37
8 39
8 42
8 47
8 49
8 50
8 51
8 64
8 65
8 67
8 68
8 69
8 82
8 83
8 85
8 89
8 90
8 92
8 93
8 105
8 106
8 112
8 113
8 115
8 116
8 118
8 119
8 120
8 122
8 123
8 129
8 130
9 11
9 13
9 14
9 16
9 17
9 19
9 24
9 25
9 27
9 28
9 29
9 31
9 32
9 33
9 35
9 36
9 37
9 39
9 47
9 49
9 50
9 51
9 64
9 65
9 67
9 68
9 69
9 82
9 83
9 85
9 89
9 90
9 92
9 93
9 105
9 106
9 112
9 113
9 115
9 116
9 118
9 119
9 120
9 122
9 123
9 129
9 130
10 23
10 53
10 62
10 63
10 71
10 72
10 73
10 77
10 78
10 80
10 81
10 87
10 88
10 95
10 96
10 97
10 99
10 100
10 102
10 103
10 108
10 109
10 110
10 125
10 126
10 127
10 132
10 133
10 134
10 135
10 154
10 155
10 156
10 158
10 159
10 160
10 161
10 166
10 167
10 168
10 171
10 172
10 173
10 174
11 12
11 13
11 15
11 16
11 17
11 18
11 19
11 20
11 24
11 26
11 27
11 28
11 30
11 31
11 32
11 34
11 35
11 36
11 38
11 39
11 41
11 43
11 44
11 48
11 49
11 50
11 51
11 56
11 59
11 63
11 64
11 66
11 67
11 68
11 69
11 73
11 84
11 85
11 89
11 91
11 92
11 93
11 104
11 111
11 114
11 115
11 117
11 118
11 119
11 121
11 122
11 128
11 129
11 136
11 139
12 13
12 14
12 16
12 17
12 19
12 20
12 24
12 25
12 27
12 28
12 29
12 31
12 32
12 33
12 35
12 36
12 37
12 39
12 41
12 42
12 47
12 49
12 50
12 51
12 56
12 59
12 63
12 64
12 65
12 67
12 68
12 69
12 73
12 82
12 83
12 85
12 89
12 90
12 92
12 93
12 105
12 106
12 112
12 113
12 115
12 116
12 118
12 119
12 120
12 122
12 123
12 129
12 130
12 136
12 139
13 14
13 15
13 17
13 18
13 24
13 25
13 26
13 28
13 29
13 30
13 32
13 33
13 34
13 37
13 38
13 40
13 42
13 47
13 48
13 50
13 51
13 55
13 57
13 58
13 61
13 62
13 64
13 65
13 66
13 68
13 69
13 70
13 71
13 72
13 82
13 83
13 84
13 89
13 90
13 91
13 93
13 104
13 111
13 113
13 114
13 116
13 117
13 119
13 120
13 121
13 123
13 128
13 130
13 137
13 138
13 140
14 15
14 16
14 17
14 18
14 19
14 20
14 24
14 26
14 27
14 28
14 30
14 31
14 32
14 34
14 35
14 36
14 38
14 39
14 41
14 43
14 44
14 46
14 48
14 49
14 50
14 51
14 56
14 59
14 63
14 64
14 66
14 67
14 68
14 69
14 73
14 84
14 85
14 89
14 91
14 92
14 93
14 104
14 106
14 111
14 114
14 115
14 117
14 118
14 119
14 121
14 122
14 128
14 129
14 136
14 139
15 16
15 17
15 19
15 20
15 24
15 25
15 27
15 28
15 29
15 31
15 32
15 33
15 35
15 36
15 37
15 39
15 41
15 42
15 44
15 46
15 47
15 49
15 50
15 51
15 56
15 59
15 63
15 64
15 65
15 67
15 68
15 69
15 73
15 82
15 83
15 85
15 89
15 90
15 92
15 93
15 105
15 106
15 112
15 113
15 115
15 116
15 118
15 119
15 120
15 122
15 123
15 129
15 130
15 136
15 139
16 17
16 18
16 24
16 25
16 26
16 28
16 29
16 30
16 32
16 33
16 34
16 36
16 37
16 38
16 40
16 42
16 44
16 46
16 47
16 48
16 50
16 51
16 55
16 57
16 58
16 61
16 62
16 64
16 65
16 66
16 68
16 69
16 70
16 71
16 72
16 82
16 83
16 84
16 89
16 90
16 91
16 93
16 104
16 106
16 111
16 113
16 114
16 116
16 117
16 119
16 120
16 121
16 123
16 128
16 130
16 137
16 138
16 140
17 18
17 19
17 20
17 25
17 26
17 27
17 28
17 29
17 30
17 31
17 33
17 34
17 35
17 38
17 39
17 41
17 42
17 43
17 45
17 47
17 48
17 49
17 50
17 56
17 59
17 63
17 64
17 65
17 66
17 67
17 68
17 73
17 84
17 85
17 90
17 91
17 92
17 104
17 105
17 111
17 113
17 114
17 116
17 117
17 118
17 121
17 122
17 128
17 129
17 136
17 139
18 19
18 20
18 24
18 25
18 27
18 28
18 29
18 31
18 32
18 33
18 35
18 36
18 37
18 39
18 41
18 47
18 49
18 50
18 51
18 56
18 59
18 63
18 64
18 65
18 67
18 68
18 69
18 73
18 82
18 83
18 85
18 89
18 90
18 92
18 93
18 105
18 106
18 112
18 113
18 115
18 116
18 118
18 119
18 120
18 122
18 123
18 129
18 130
18 136
18 139
19 24
19 25
19 26
19 28
19 29
19 30
19 32
19 34
19 37
19 38
19 40
19 47
19 48
19 50
19 51
19 55
19 57
19 58
19 61
19 62
19 64
19 65
19 66
19 68
19 69
19 70
19 71
19 72
19 82
19 83
19 84
19 89
19 90
19 91
19 93
19 104
19 111
19 114
19 116
19 117
19 119
19 120
19 121
19 123
19 128
19 130
19 137
19 138
19 140
20 24
20 25
20 26
20 28
20 29
20 30
20 32
20 37
20 38
20 40
20 47
20 48
20 50
20 51
20 55
20 57
20 58
20 61
20 62
20 64
20 65
20 66
20 68
20 69
20 70
20 71
20 72
20 82
20 83
20 84
20 89
20 90
20 91
20 93
20 116
20 117
20 119
20 120
20 121
20 123
20 128
20 130
20 137
20 138
20 140
21 22
21 75
21 79
21 81
21 86
21 87
21 94
21 95
21 96
21 98
21 99
21 107
21 108
21 110
21 131
21 132
21 133
21 135
21 141
21 143
21 157
21 158
21 159
21 160
21 165
21 166
21 167
21 170
21 171
21 172
21 174
21 177
21 178
21 180
21 181
21 182
22 23
22 53
22 62
22 63
22 71
22 72
22 73
22 74
22 77
22 78
22 80
22 81
22 87
22 88
22 95
22 96
22 97
22 99
22 100
22 102
22 103
22 108
22 109
22 110
22 125
22 126
22 127
22 132
22 133
22 134
22 135
22 142
22 154
22 155
22 156
22 158
22 159
22 160
22 161
22 166
22 167
22 168
22 171
22 172
22 173
22 174
22 179
22 183
23 52
23 61
23 70
23 75
23 76
23 79
23 81
23 86
23 87
23 94
23 95
23 96
23 98
23 99
23 101
23 107
23 108
23 110
23 124
23 131
23 132
23 133
23 135
23 141
23 143
23 153
23 157
23 158
23 159
23 160
23 165
23 166
23 167
23 170
23 171
23 172
23 174
23 177
23 178
23 180
23 181
23 182
24 25
24 26
24 27
24 29
24 30
24 31
24 32
24 33
24 34
24 38
24 39
24 41
24 42
24 47
24 48
24 49
24 56
24 57
24 59
24 63
24 65
24 66
24 67
24 68
24 69
24 70
24 71
24 73
24 76
24 77
24 82
24 84
24 85
24 90
24 91
24 92
24 93
24 104
24 111
24 113
24 114
24 116
24 117
24 118
24 121
24 122
24 123
24 124
24 125
24 127
24 128
24 129
24 136
24 139
24 140
24 144
24 146
24 148
24 152
25 26
25 27
25 28
25 30
25 31
25 32
25 34
25 35
25 36
25 37
25 38
25 39
25 40
25 41
25 43
25 44
25 48
25 49
25 50
25 51
25 56
25 58
25 59
25 63
25 64
25 66
25 67
25 68
25 69
25 72
25 73
25 78
25 83
25 84
25 85
25 89
25 91
25 92
25 93
25 104
25 111
25 114
25 115
25 117
25 118
25 119
25 120
25 121
25 122
25 126
25 128
25 129
25 136
25 138
25 139
25 145
25 147
25 151
25 169
26 27
26 28
26 29
26 31
26 32
26 33
26 35
26 36
26 37
26 39
26 40
26 41
26 42
26 47
26 49
26 50
26 51
26 56
26 58
26 59
26 63
26 64
26 65
26 67
26 68
26 69
26 72
26 73
26 78
26 82
26 83
26 85
26 89
26 90
26 92
26 93
26 105
26 106
26 112
26 113
26 115
26 116
26 118
26 119
26 120
26 122
26 123
26 126
26 129
26 130
26 136
26 138
26 139
26 145
26 147
26 151
26 169
27 28
27 29
27 30
27 32
27 33
27 34
27 37
27 38
27 40
27 42
27 47
27 48
27 50
27 51
27 55
27 57
27 58
27 61
27 62
27 64
27 65
27 66
27 68
27 69
27 70
27 71
27 72
27 78
27 82
27 83
27 84
27 89
27 90
27 91
27 93
27 104
27 111
27 113
27 114
27 116
27 117
27 119
27 120
27 121
27 123
27 126
27 128
27 130
27 137
27 138
27 140
27 145
27 147
27 151
27 169
28 29
28 30
28 31
28 32
28 33
28 34
28 36
28 38
28 39
28 41
28 42
28 44
28 46
28 47
28 48
28 49
28 51
28 56
28 57
28 59
28 63
28 65
28 66
28 67
28 68
28 69
28 70
28 71
28 73
28 76
28 77
28 82
28 84
28 85
28 90
28 91
28 92
28 93
28 104
28 106
28 111
28 113
28 114
28 116
28 117
28 118
28 121
28 122
28 123
28 124
28 125
28 127
28 128
28 129
28 136
28 139
28 140
28 144
28 146
28 148
28 152
29 30
29 31
29 32
29 34
29 35
29 36
29 37
29 38
29 39
29 40
29 41
29 43
29 44
29 46
29 48
29 49
29 50
29 51
29 56
29 58
29 59
29 63
29 64
29 66
29 67
29 68
29 69
29 72
29 73
29 78
29 83
29 84
29 85
29 89
29 91
29 92
29 93
29 104
29 106
29 111
29 114
29 115
29 117
29 118
29 119
29 120
29 121
29 122
29 126
29 128
29 129
29 136
29 138
29 139
29 145
29 147
29 151
29 169
30 31
30 32
30 33
30 35
30 36
30 37
30 39
30 40
30 41
30 42
30 44
30 46
30 47
30 49
30 50
30 51
30 56
30 58
30 59
30 63
30 64
30 65
30 67
30 68
30 69
30 72
30 73
30 78
30 82
30 83
30 85
30 89
30 90
30 92
30 93
30 105
30 106
30 112
30 113
30 115
30 116
30 118
30 119
30 120
30 122
30 123
30 126
30 129
30 130
30 136
30 138
30 139
30 145
30 147
30 151
30 169
31 32
31 33
31 34
31 36
31 37
31 38
31 40
31 42
31 44
31 46
31 47
31 48
31 50
31 51
31 55
31 57
31 58
31 61
31 62
31 64
31 65
31 66
31 68
31 69
31 70
31 71
31 72
31 78
31 82
31 83
31 84
31 89
31 90
31 91
31 93
31 104
31 106
31 111
31 113
31 114
31 116
31 117
31 119
31 120
31 121
31 123
31 126
31 128
31 130
31 137
31 138
31 140
31 145
31 147
31 151
31 169
32 33
32 34
32 35
32 37
32 38
32 39
32 40
32 41
32 42
32 43
32 45
32 47
32 48
32 49
32 50
32 56
32 58
32 59
32 63
32 64
32 65
32 66
32 67
32 68
32 72
32 73
32 78
32 83
32 84
32 85
32 89
32 90
32 91
32 92
32 104
32 105
32 111
32 113
32 114
32 116
32 117
32 118
32 120
32 121
32 122
32 126
32 128
32 129
32 136
32 138
32 139
32 145
32 147
32 151
32 169
33 34
33 35
33 36
33 38
33 43
33 44
33 45
33 46
33 48
33 49
33 50
33 51
33 60
33 64
33 66
33 67
33 68
33 69
33 84
33 89
33 91
33 92
33 93
33 104
33 105
33 106
33 111
33 112
33 114
33 115
33 117
33 118
33 119
33 121
33 123
33 128
33 130
33 137
33 140
33 152
33 176
33 190
33 195
34 35
34 36
34 37
34 39
34 42
34 43
34 44
34 45
34 46
34 47
34 49
34 50
34 51
34 60
34 64
34 65
34 67
34 68
34 69
34 82
34 83
34 85
34 89
34 90
34 92
34 93
34 105
34 106
34 112
34 113
34 115
34 116
34 118
34 119
34 120
34 122
34 123
34 129
34 130
34 137
34 140
34 152
34 176
34 190
34 195
35 36
35 38
35 42
35 44
35 46
35 47
35 48
35 49
35 51
35 64
35 65
35 66
35 67
35 69
35 84
35 89
35 90
35 91
35 92
35 104
35 106
35 111
35 113
35 114
35 116
35 117
35 118
35 120
35 121
35 122
35 128
35 129
35 136
35 138
35 139
35 151
35 175
35 189
35 193
35 194
36 38
36 42
36 43
36 45
36 47
36 48
36 49
36 50
36 60
36 64
36 65
36 66
36 67
36 68
36 84
36 90
36 91
36 93
36 104
36 105
36 111
36 112
36 113
36 114
36 115
36 116
36 117
36 119
36 121
36 123
36 128
36 130
36 137
36 140
36 152
36 176
36 190
36 195
37 38
37 39
37 41
37 48
37 49
37 56
37 57
37 59
37 63
37 65
37 66
37 67
37 68
37 69
37 70
37 71
37 73
37 76
37 77
37 82
37 84
37 85
37 90
37 91
37 92
37 93
37 104
37 111
37 114
37 117
37 118
37 121
37 122
37 123
37 124
37 125
37 127
37 128
37 129
37 136
37 139
37 140
37 144
37 146
37 148
37 152
38 39
38 40
38 41
38 47
38 49
38 50
38 51
38 56
38 58
38 59
38 63
38 64
38 65
38 67
38 68
38 69
38 72
38 73
38 78
38 82
38 83
38 85
38 89
38 90
38 92
38 93
38 105
38 106
38 112
38 113
38 115
38 116
38 118
38 119
38 120
38 122
38 123
38 126
38 129
38 130
38 136
38 138
38 139
38 145
38 147
38 151
38 169
39 40
39 47
39 48
39 50
39 51
39 55
39 57
39 58
39 61
39 62
39 64
39 65
39 66
39 68
39 69
39 70
39 71
39 72
39 78
39 82
39 83
39 84
39 89
39 90
39 91
39 93
39 104
39 111
39 114
39 116
39 117
39 119
39 120
39 121
39 123
39 126
39 128
39 130
39 137
39 138
39 140
39 145
39 147
39 151
39 169
40 41
40 49
40 56
40 57
40 59
40 63
40 65
40 66
40 67
40 68
40 69
40 70
40 71
40 73
40 76
40 77
40 82
40 84
40 85
40 90
40 91
40 92
40 93
40 118
40 121
40 122
40 123
40 124
40 125
40 127
40 129
40 136
40 139
40 140
40 144
40 146
40 148
40 152
41 47
41 48
41 50
41 51
41 55
41 57
41 58
41 61
41 62
41 64
41 65
41 66
41 68
41 69
41 70
41 71
41 72
41 78
41 82
41 83
41 84
41 89
41 90
41 91
41 93
41 116
41 117
41 119
41 120
41 121
41 123
41 126
41 128
41 130
41 137
41 138
41 140
41 145
41 147
41 151
41 169
42 43
42 44
42 45
42 46
42 48
42 49
42 50
42 51
42 60
42 64
42 66
42 67
42 68
42 69
42 89
42 91
42 92
42 93
42 105
42 106
42 112
42 114
42 115
42 117
42 118
42 119
42 123
42 130
42 137
42 140
42 152
42 176
42 190
42 195
43 44
43 46
43 47
43 48
43 49
43 51
43 64
43 65
43 66
43 67
43 69
43 89
43 90
43 91
43 92
43 104
43 106
43 111
43 113
43 114
43 116
43 117
43 118
43 120
43 121
43 122
43 128
43 129
43 136
43 138
43 139
43 151
43 175
43 189
43 193
43 194
44 45
44 47
44 48
44 49
44 50
44 60
44 64
44 65
44 66
44 67
44 68
44 90
44 93
44 104
44 105
44 112
44 113
44 115
44 116
44 119
44 123
44 130
44 137
44 140
44 152
44 176
44 190
44 195
45 46
45 47
45 48
45 49
45 51
45 64
45 65
45 66
45 67
45 69
45 89
45 90
45 91
45 92
45 104
45 106
45 111
45 113
45 114
45 116
45 117
45 118
45 120
45 121
45 122
45 128
45 129
45 136
45 138
45 139
45 151
45 175
45 189
45 193
45 194
46 47
46 48
46 49
46 50
46 60
46 64
46 65
46 66
46 67
46 68
46 93
46 104
46 105
46 112
46 115
46 119
46 123
46 130
46 137
46 140
46 152
46 176
46 190
46 195
47 48
47 49
47 50
47 51
47 56
47 59
47 60
47 63
47 64
47 66
47 67
47 68
47 69
47 73
47 84
47 85
47 89
47 91
47 92
47 93
47 104
47 105
47 106
47 111
47 112
47 114
47 115
47 117
47 118
47 119
47 121
47 122
47 123
47 128
47 129
47 130
47 136
47 137
47 139
47 140
47 152
47 176
47 190
47 195
48 49
48 50
48 51
48 56
48 59
48 60
48 63
48 64
48 65
48 67
48 68
48 69
48 73
48 82
48 83
48 85
48 89
48 90
48 92
48 93
48 105
48 106
48 112
48 113
48 115
48 116
48 118
48 119
48 120
48 122
48 123
48 129
48 130
48 136
48 137
48 139
48 140
48 152
48 176
48 190
48 195
49 50
49 51
49 55
49 57
49 58
49 60
49 61
49 62
49 64
49 65
49 66
49 68
49 69
49 70
49 71
49 72
49 82
49 83
49 84
49 89
49 90
49 91
49 93
49 104
49 105
49 106
49 111
49 112
49 113
49 114
49 115
49 116
49 117
49 119
49 120
49 121
49 123
49 128
49 130
49 137
49 138
49 140
49 152
49 176
49 190
49 195
50 51
50 56
50 59
50 63
50 64
50 65
50 66
50 67
50 69
50 73
50 84
50 85
50 89
50 90
50 91
50 92
50 104
50 106
50 111
50 113
50 114
50 116
50 117
50 118
50 120
50 121
50 122
50 128
50 129
50 136
50 138
50 139
50 151
50 175
50 189
50 193
50 194
51 56
51 59
51 60
51 63
51 64
51 65
51 66
51 67
51 68
51 73
51 84
51 85
51 90
51 91
51 92
51 93
51 104
51 105
51 111
51 112
51 113
51 114
51 115
51 116
51 117
51 118
51 119
51 121
51 122
51 123
51 128
51 129
51 130
51 136
51 137
51 139
51 140
51 152
51 176
51 190
51 195
52 53
52 54
52 55
52 57
52 62
52 63
52 71
52 72
52 73
52 77
52 78
52 80
52 81
52 82
52 87
52 88
52 95
52 96
52 97
52 99
52 100
52 102
52 103
52 108
52 109
52 110
52 125
52 126
52 127
52 132
52 133
52 134
52 135
52 144
52 146
52 149
52 154
52 155
52 156
52 158
52 159
52 160
52 161
52 162
52 166
52 167
52 168
52 171
52 172
52 173
52 174
52 191
53 56
53 58
53 59
53 61
53 63
53 70
53 72
53 73
53 76
53 78
53 79
53 83
53 84
53 85
53 86
53 88
53 94
53 96
53 97
53 98
53 101
53 103
53 107
53 124
53 126
53 127
53 131
53 133
53 134
53 135
53 145
53 147
53 148
53 150
53 153
53 155
53 156
53 157
53 159
53 160
53 161
53 163
53 164
53 165
53 170
53 192
54 56
54 58
54 59
54 61
54 63
54 70
54 72
54 73
54 76
54 78
54 83
54 84
54 85
54 86
54 88
54 94
54 96
54 97
54 101
54 103
54 124
54 126
54 127
54 131
54 133
54 134
54 135
54 145
54 147
54 148
54 150
54 153
54 155
54 156
54 157
54 159
54 160
54 161
54 163
54 164
54 192
55 56
55 58
55 59
55 61
55 63
55 67
55 70
55 72
55 73
55 76
55 78
55 83
55 84
55 85
55 86
55 88
55 92
55 94
55 96
55 97
55 101
55 103
55 118
55 122
55 124
55 126
55 127
55 129
55 131
55 133
55 134
55 135
55 136
55 139
55 145
55 147
55 148
55 150
55 153
55 155
55 156
55 157
55 159
55 160
55 161
55 163
55 164
55 192
56 57
56 58
56 61
56 62
56 64
56 65
56 66
56 68
56 69
56 70
56 71
56 72
56 77
56 82
56 83
56 84
56 87
56 89
56 90
56 91
56 93
56 95
56 102
56 116
56 117
56 119
56 120
56 121
56 123
56 125
56 128
56 130
56 132
56 137
56 138
56 140
56 144
56 146
56 149
56 154
56 158
56 162
56 191
57 58
57 59
57 61
57 63
57 64
57 67
57 70
57 72
57 73
57 76
57 78
57 83
57 84
57 85
57 86
57 88
57 89
57 92
57 94
57 96
57 97
57 101
57 103
57 118
57 120
57 122
57 124
57 126
57 127
57 129
57 131
57 133
57 134
57 135
57 136
57 138
57 139
57 145
57 147
57 148
57 150
57 151
57 153
57 155
57 156
57 157
57 159
57 160
57 161
57 163
57 164
57 169
57 192
58 59
58 62
58 63
58 65
58 66
58 67
58 68
58 69
58 70
58 71
58 73
58 76
58 77
58 82
58 84
58 85
58 87
58 90
58 91
58 92
58 93
58 95
58 102
58 118
58 121
58 122
58 123
58 124
58 125
58 127
58 129
58 132
58 136
58 139
58 140
58 144
58 146
58 148
58 149
58 152
58 154
58 158
58 162
58 191
59 61
59 62
59 64
59 65
59 66
59 68
59 69
59 70
59 71
59 72
59 77
59 78
59 82
59 83
59 84
59 87
59 89
59 90
59 91
59 93
59 95
59 102
59 116
59 117
59 119
59 120
59 121
59 123
59 125
59 126
59 128
59 130
59 132
59 137
59 138
59 140
59 144
59 145
59 146
59 147
59 149
59 151
59 154
59 158
59 162
59 169
59 191
60 64
60 65
60 66
60 67
60 69
60 89
60 90
60 91
60 92
60 104
60 106
60 111
60 113
60 114
60 116
60 117
60 118
60 120
60 121
60 122
60 128
60 129
60 136
60 138
60 139
60 151
60 175
60 189
60 193
60 194
61 62
61 63
61 67
61 71
61 72
61 73
61 77
61 78
61 80
61 81
61 82
61 85
61 87
61 88
61 92
61 95
61 96
61 97
61 99
61 100
61 102
61 103
61 108
61 109
61 110
61 118
61 122
61 125
61 126
61 127
61 129
61 132
61 133
61 134
61 135
61 136
61 139
61 144
61 146
61 149
61 154
61 155
61 156
61 158
61 159
61 160
61 161
61 162
61 166
61 167
61 168
61 171
61 172
61 173
61 174
61 191
62 63
62 67
62 70
62 72
62 73
62 76
62 78
62 79
62 83
62 84
62 85
62 86
62 88
62 92
62 94
62 96
62 97
62 98
62 101
62 103
62 107
62 118
62 122
62 124
62 126
62 127
62 129
62 131
62 133
62 134
62 135
62 136
62 139
62 145
62 147
62 148
62 150
62 153
62 155
62 156
62 157
62 159
62 160
62 161
62 163
62 164
62 165
62 170
62 192
63 64
63 65
63 66
63 68
63 69
63 70
63 71
63 72
63 76
63 77
63 79
63 82
63 83
63 84
63 86
63 87
63 89
63 90
63 91
63 93
63 94
63 95
63 98
63 101
63 102
63 107
63 116
63 117
63 119
63 120
63 121
63 123
63 124
63 125
63 128
63 130
63 131
63 132
63 137
63 138
63 140
63 144
63 146
63 149
63 153
63 154
63 157
63 158
63 162
63 165
63 170
63 191
64 65
64 66
64 67
64 68
64 69
64 70
64 71
64 73
64 76
64 77
64 82
64 84
64 85
64 90
64 91
64 92
64 93
64 104
64 105
64 106
64 111
64 112
64 113
64 114
64 115
64 116
64 117
64 118
64 119
64 121
64 122
64 123
64 124
64 125
64 127
64 128
64 129
64 130
64 136
64 137
64 139
64 140
64 144
64 146
64 148
64 152
64 176
64 190
64 195
65 66
65 67
65 68
65 69
65 72
65 73
65 78
65 83
65 84
65 85
65 89
65 91
65 92
65 93
65 104
65 105
65 106
65 111
65 112
65 114
65 115
65 117
65 118
65 119
65 120
65 121
65 122
65 123
65 126
65 128
65 129
65 130
65 136
65 137
65 138
65 139
65 140
65 145
65 147
65 151
65 152
65 169
65 176
65 190
65 195
66 67
66 68
66 69
66 72
66 73
66 78
66 82
66 83
66 85
66 89
66 90
66 92
66 93
66 105
66 106
66 112
66 113
66 115
66 116
66 118
66 119
66 120
66 122
66 123
66 126
66 129
66 130
66 136
66 137
66 138
66 139
66 140
66 145
66 147
66 151
66 152
66 169
66 176
66 190
66 195
67 68
67 69
67 70
67 71
67 72
67 78
67 82
67 83
67 84
67 89
67 90
67 91
67 93
67 104
67 105
67 106
67 111
67 112
67 113
67 114
67 115
67 116
67 117
67 119
67 120
67 121
67 123
67 126
67 128
67 130
67 137
67 138
67 140
67 145
67 147
67 151
67 152
67 169
67 176
67 190
67 195
68 69
68 72
68 73
68 78
68 83
68 84
68 85
68 89
68 90
68 91
68 92
68 104
68 106
68 111
68 113
68 114
68 116
68 117
68 118
68 120
68 121
68 122
68 126
68 128
68 129
68 136
68 138
68 139
68 145
68 147
68 151
68 169
68 175
68 189
68 193
68 194
69 72
69 73
69 78
69 83
69 84
69 85
69 89
69 90
69 91
69 92
69 93
69 104
69 105
69 111
69 112
69 113
69 114
69 115
69 116
69 117
69 118
69 119
69 120
69 121
69 122
69 123
69 126
69 128
69 129
69 130
69 136
69 137
69 138
69 139
69 140
69 145
69 147
69 151
69 152
69 169
69 176
69 190
69 195
70 71
70 72
70 73
70 77
70 78
70 80
70 81
70 82
70 83
70 85
70 87
70 88
70 89
70 92
70 95
70 96
70 97
70 99
70 100
70 102
70 103
70 108
70 109
70 110
70 118
70 120
70 122
70 125
70 126
70 127
70 129
70 132
70 133
70 134
70 135
70 136
70 138
70 139
70 144
70 145
70 146
70 147
70 149
70 151
70 154
70 155
70 156
70 158
70 159
70 160
70 161
70 162
70 166
70 167
70 168
70 169
70 171
70 172
70 173
70 174
70 191
71 72
71 73
71 76
71 78
71 79
71 83
71 84
71 85
71 86
71 88
71 89
71 92
71 94
71 96
71 97
71 98
71 101
71 103
71 107
71 118
71 120
71 122
71 124
71 126
71 127
71 129
71 131
71 133
71 134
71 135
71 136
71 138
71 139
71 145
71 147
71 148
71 150
71 151
71 153
71 155
71 156
71 157
71 159
71 160
71 161
71 163
71 164
71 165
71 169
71 170
71 192
72 73
72 76
72 77
72 79
72 82
72 84
72 85
72 86
72 87
72 90
72 91
72 92
72 93
72 94
72 95
72 98
72 101
72 102
72 107
72 118
72 121
72 122
72 123
72 124
72 125
72 127
72 129
72 131
72 132
72 136
72 139
72 140
72 144
72 146
72 148
72 149
72 152
72 153
72 154
72 157
72 158
72 162
72 165
72 170
72 191
73 76
73 77
73 78
73 79
73 82
73 83
73 84
73 86
73 87
73 89
73 90
73 91
73 93
73 94
73 95
73 98
73 101
73 102
73 107
73 116
73 117
73 119
73 120
73 121
73 123
73 124
73 125
73 126
73 128
73 130
73 131
73 132
73 137
73 138
73 140
73 144
73 145
73 146
73 147
73 149
73 151
73 153
73 154
73 157
73 158
73 162
73 165
73 169
73 170
73 191
74 75
74 79
74 81
74 86
74 87
74 94
74 95
74 96
74 98
74 99
74 107
74 108
74 110
74 131
74 132
74 133
74 135
74 141
74 143
74 157
74 158
74 159
74 160
74 165
74 166
74 167
74 170
74 171
74 172
74 174
74 177
74 178
74 180
74 181
74 182
74 187
74 198
74 202
75 79
75 80
75 88
75 97
75 100
75 107
75 108
75 109
75 131
75 132
75 133
75 134
75 141
75 142
75 161
75 168
75 170
75 171
75 172
75 173
75 177
75 178
75 179
75 183
75 196
75 197
75 201
76 77
76 78
76 80
76 81
76 82
76 83
76 87
76 88
76 89
76 95
76 96
76 97
76 99
76 100
76 102
76 103
76 108
76 109
76 110
76 120
76 125
76 126
76 127
76 132
76 133
76 134
76 135
76 138
76 144
76 145
76 146
76 147
76 149
76 151
76 154
76 155
76 156
76 158
76 159
76 160
76 161
76 162
76 166
76 167
76 168
76 169
76 171
76 172
76 173
76 174
76 191
77 78
77 79
77 83
77 84
77 85
77 86
77 88
77 89
77 94
77 96
77 97
77 98
77 101
77 103
77 107
77 120
77 124
77 126
77 127
77 131
77 133
77 134
77 135
77 138
77 145
77 147
77 148
77 150
77 151
77 153
77 155
77 156
77 157
77 159
77 160
77 161
77 163
77 164
77 165
77 169
77 170
77 192
78 79
78 82
78 84
78 85
78 86
78 87
78 90
78 91
78 92
78 93
78 94
78 95
78 98
78 101
78 102
78 107
78 121
78 122
78 123
78 124
78 125
78 127
78 131
78 132
78 139
78 140
78 144
78 146
78 148
78 149
78 152
78 153
78 154
78 157
78 158
78 162
78 165
78 170
78 191
79 80
79 81
79 87
79 88
79 95
79 96
79 97
79 99
79 100
79 102
79 103
79 108
79 109
79 110
79 125
79 126
79 127
79 132
79 133
79 134
79 135
79 142
79 143
79 154
79 155
79 156
79 158
79 159
79 160
79 161
79 166
79 167
79 168
79 171
79 172
79 173
79 174
79 179
79 180
79 183
79 187
79 198
79 202
80 81
80 86
80 87
80 94
80 95
80 96
80 98
80 99
80 101
80 107
80 108
80 110
80 124
80 131
80 132
80 133
80 135
80 141
80 143
80 153
80 157
80 158
80 159
80 160
80 165
80 166
80 167
80 170
80 171
80 172
80 174
80 177
80 178
80 180
80 181
80 182
80 187
80 198
80 202
81 86
81 88
81 94
81 97
81 98
81 100
81 101
81 107
81 108
81 109
81 124
81 131
81 132
81 133
81 134
81 141
81 142
81 153
81 157
81 161
81 165
81 168
81 170
81 171
81 172
81 173
81 177
81 178
81 179
81 183
81 196
81 197
81 201
82 83
82 84
82 85
82 86
82 88
82 89
82 91
82 92
82 94
82 96
82 97
82 101
82 103
82 104
82 111
82 114
82 117
82 118
82 120
82 121
82 122
82 124
82 126
82 127
82 128
82 129
82 131
82 133
82 134
82 135
82 136
82 138
82 139
82 145
82 147
82 148
82 150
82 151
82 153
82 155
82 156
82 157
82 159
82 160
82 161
82 163
82 164
82 169
82 192
83 84
83 85
83 87
83 90
83 91
83 92
83 93
83 95
83 102
83 104
83 111
83 114
83 117
83 118
83 121
83 122
83 123
83 124
83 125
83 127
83 128
83 129
83 132
83 136
83 139
83 140
83 144
83 146
83 148
83 149
83 152
83 154
83 158
83 162
83 191
84 85
84 87
84 89
84 90
84 92
84 93
84 95
84 102
84 105
84 106
84 112
84 113
84 115
84 116
84 118
84 119
84 120
84 122
84 123
84 125
84 126
84 129
84 130
84 132
84 136
84 138
84 139
84 144
84 145
84 146
84 147
84 149
84 151
84 154
84 158
84 162
84 169
84 191
85 87
85 89
85 90
85 91
85 93
85 95
85 102
85 104
85 111
85 114
85 116
85 117
85 119
85 120
85 121
85 123
85 125
85 126
85 128
85 130
85 132
85 137
85 138
85 140
85 144
85 145
85 146
85 147
85 149
85 151
85 154
85 158
85 162
85 169
85 191
86 87
86 88
86 95
86 96
86 97
86 99
86 100
86 102
86 103
86 108
86 109
86 110
86 125
86 126
86 127
86 132
86 133
86 134
86 135
86 142
86 144
86 146
86 149
86 154
86 155
86 156
86 158
86 159
86 160
86 161
86 162
86 166
86 167
86 168
86 171
86 172
86 173
86 174
86 179
86 183
86 191
87 88
87 94
87 96
87 97
87 98
87 100
87 101
87 103
87 107
87 109
87 124
87 126
87 127
87 131
87 133
87 134
87 135
87 142
87 145
87 147
87 148
87 150
87 153
87 155
87 156
87 157
87 159
87 160
87 161
87 163
87 164
87 165
87 168
87 170
87 173
87 179
87 183
87 192
88 94
88 95
88 96
88 98
88 99
88 101
88 102
88 107
88 108
88 110
88 124
88 125
88 131
88 132
88 133
88 135
88 141
88 143
88 144
88 146
88 149
88 153
88 154
88 157
88 158
88 159
88 160
88 162
88 165
88 166
88 167
88 170
88 171
88 172
88 174
88 177
88 178
88 180
88 181
88 182
88 191
89 90
89 91
89 92
89 93
89 104
89 105
89 111
89 112
89 113
89 114
89 115
89 116
89 117
89 118
89 119
89 121
89 122
89 123
89 124
89 125
89 127
89 128
89 129
89 130
89 136
89 137
89 139
89 140
89 144
89 146
89 148
89 152
89 176
89 190
89 195
90 91
90 92
90 93
90 104
90 105
90 111
90 112
90 114
90 115
90 117
90 118
90 119
90 120
90 121
90 122
90 123
90 126
90 128
90 129
90 130
90 136
90 137
90 138
90 139
90 140
90 145
90 147
90 151
90 152
90 169
90 176
90 190
90 195
91 92
91 93
91 105
91 106
91 112
91 113
91 115
91 116
91 118
91 119
91 120
91 122
91 123
91 126
91 129
91 130
91 136
91 137
91 138
91 139
91 140
91 145
91 147
91 151
91 152
91 169
91 176
91 190
91 195
92 93
92 104
92 105
92 111
92 112
92 113
92 114
92 115
92 116
92 117
92 119
92 120
92 121
92 123
92 126
92 128
92 130
92 137
92 138
92 140
92 145
92 147
92 151
92 152
92 169
92 176
92 190
92 195
93 104
93 106
93 111
93 113
93 114
93 116
93 117
93 118
93 120
93 121
93 122
93 126
93 128
93 129
93 136
93 138
93 139
93 145
93 147
93 151
93 169
93 175
93 189
93 193
93 194
94 95
94 96
94 97
94 99
94 100
94 102
94 103
94 108
94 109
94 110
94 125
94 126
94 127
94 132
94 133
94 134
94 135
94 141
94 142
94 144
94 146
94 148
94 149
94 150
94 154
94 155
94 156
94 158
94 159
94 160
94 161
94 162
94 164
94 166
94 167
94 168
94 171
94 172
94 173
94 174
94 178
94 179
94 182
94 183
94 185
94 191
94 197
94 201
94 227
94 232
95 96
95 97
95 98
95 99
95 100
95 101
95 103
95 107
95 108
95 109
95 124
95 126
95 127
95 131
95 133
95 134
95 135
95 141
95 142
95 145
95 147
95 148
95 150
95 153
95 155
95 156
95 157
95 159
95 160
95 161
95 163
95 164
95 165
95 167
95 168
95 170
95 172
95 173
95 178
95 179
95 182
95 183
95 185
95 192
95 197
95 201
95 227
95 232
96 97
96 98
96 100
96 101
96 102
96 107
96 109
96 110
96 124
96 125
96 126
96 131
96 132
96 134
96 135
96 142
96 143
96 144
96 146
96 147
96 149
96 153
96 154
96 155
96 157
96 158
96 159
96 161
96 162
96 163
96 165
96 166
96 168
96 170
96 171
96 173
96 174
96 177
96 179
96 180
96 181
96 183
96 184
96 191
96 196
96 198
96 202
96 230
96 231
97 98
97 99
97 101
97 102
97 103
97 107
97 108
97 110
97 124
97 125
97 127
97 131
97 132
97 133
97 135
97 141
97 143
97 144
97 146
97 148
97 149
97 150
97 153
97 154
97 156
97 157
97 158
97 159
97 160
97 162
97 164
97 165
97 166
97 167
97 170
97 171
97 172
97 174
97 177
97 178
97 180
97 181
97 182
97 185
97 191
97 197
97 201
97 227
97 232
98 99
98 100
98 102
98 103
98 108
98 109
98 110
98 125
98 126
98 127
98 132
98 133
98 134
98 135
98 141
98 142
98 148
98 150
98 154
98 155
98 156
98 158
98 159
98 160
98 161
98 164
98 166
98 167
98 168
98 171
98 172
98 173
98 174
98 178
98 179
98 182
98 183
98 185
98 197
98 201
98 227
98 232
99 100
99 101
99 102
99 107
99 109
99 110
99 124
99 125
99 126
99 131
99 132
99 134
99 135
99 142
99 143
99 146
99 147
99 149
99 153
99 154
99 155
99 157
99 158
99 159
99 161
99 162
99 163
99 165
99 166
99 168
99 170
99 171
99 173
99 174
99 177
99 179
99 180
99 181
99 183
99 184
99 196
99 198
99 202
99 230
99 231
100 101
100 103
100 107
100 108
100 110
100 124
100 127
100 131
100 132
100 133
100 135
100 141
100 143
100 148
100 150
100 153
100 156
100 157
100 158
100 159
100 160
100 164
100 165
100 166
100 167
100 170
100 171
100 172
100 174
100 177
100 178
100 180
100 181
100 182
100 185
100 197
100 201
100 227
100 232
101 102
101 103
101 108
101 109
101 110
101 125
101 126
101 127
101 132
101 133
101 134
101 135
101 141
101 144
101 146
101 148
101 149
101 150
101 154
101 155
101 156
101 158
101 159
101 160
101 161
101 162
101 164
101 166
101 167
101 168
101 171
101 172
101 173
101 174
101 178
101 182
101 185
101 191
101 197
101 201
101 227
101 232
102 103
102 107
102 108
102 124
102 126
102 127
102 131
102 133
102 134
102 135
102 141
102 145
102 147
102 148
102 150
102 153
102 155
102 156
102 157
102 159
102 160
102 161
102 163
102 164
102 165
102 167
102 170
102 172
102 178
102 182
102 185
102 192
102 197
102 201
102 227
102 232
103 107
103 109
103 110
103 124
103 125
103 126
103 131
103 132
103 134
103 135
103 142
103 143
103 144
103 146
103 147
103 149
103 153
103 154
103 155
103 157
103 158
103 159
103 161
103 162
103 163
103 165
103 166
103 168
103 170
103 171
103 173
103 174
103 177
103 179
103 180
103 181
103 183
103 184
103 191
103 196
103 198
103 202
103 230
103 231
104 105
104 106
104 112
104 113
104 115
104 116
104 118
104 119
104 120
104 122
104 123
104 129
104 130
104 137
104 140
104 152
104 176
104 190
104 195
105 106
105 111
105 113
105 114
105 116
105 117
105 118
105 120
105 121
105 122
105 128
105 129
105 136
105 138
105 139
105 151
105 175
105 189
105 193
105 194
106 111
106 112
106 114
106 115
106 117
106 119
106 121
106 123
106 128
106 130
106 137
106 140
106 152
106 176
106 190
106 195
107 108
107 109
107 110
107 125
107 126
107 127
107 132
107 133
107 134
107 135
107 141
107 142
107 143
107 148
107 150
107 154
107 155
107 156
107 158
107 159
107 160
107 161
107 164
107 166
107 167
107 168
107 171
107 172
107 173
107 174
107 178
107 179
107 180
107 182
107 183
107 185
107 187
107 197
107 198
107 201
107 202
107 227
107 232
108 109
108 110
108 124
108 125
108 126
108 131
108 132
108 134
108 135
108 142
108 143
108 146
108 147
108 149
108 153
108 154
108 155
108 157
108 158
108 159
108 161
108 162
108 163
108 165
108 166
108 168
108 170
108 171
108 173
108 174
108 177
108 179
108 180
108 181
108 183
108 184
108 187
108 196
108 198
108 202
108 230
108 231
109 110
109 124
109 127
109 131
109 132
109 133
109 135
109 141
109 143
109 148
109 150
109 153
109 156
109 157
109 158
109 159
109 160
109 164
109 165
109 166
109 167
109 170
109 171
109 172
109 174
109 177
109 178
109 180
109 181
109 182
109 185
109 187
109 197
109 198
109 201
109 202
109 227
109 232
110 124
110 127
110 131
110 132
110 133
110 134
110 141
110 142
110 148
110 150
110 153
110 156
110 157
110 160
110 161
110 164
110 165
110 167
110 168
110 170
110 171
110 172
110 173
110 177
110 178
110 179
110 182
110 183
110 185
110 196
110 197
110 201
110 227
110 232
111 112
111 113
111 115
111 116
111 118
111 119
111 120
111 122
111 123
111 129
111 130
111 137
111 140
111 152
111 176
111 190
111 195
112 113
112 114
112 116
112 117
112 118
112 120
112 121
112 122
112 128
112 129
112 136
112 138
112 139
112 151
112 175
112 189
112 193
112 194
113 114
113 115
113 117
113 118
113 119
113 121
113 123
113 128
113 130
113 137
113 140
113 152
113 176
113 190
113 195
114 115
114 116
114 118
114 119
114 120
114 122
114 123
114 129
114 130
114 137
114 140
114 152
114 176
114 190
114 195
115 116
115 117
115 118
115 120
115 121
115 122
115 128
115 129
115 136
115 138
115 139
115 151
115 175
115 189
115 193
115 194
116 117
116 118
116 119
116 121
116 122
116 123
116 128
116 129
116 130
116 136
116 137
116 139
116 140
116 152
116 176
116 190
116 195
117 118
117 119
117 120
117 122
117 123
117 129
117 130
117 136
117 137
117 139
117 140
117 152
117 176
117 190
117 195
118 119
118 120
118 121
118 123
118 128
118 130
118 137
118 138
118 140
118 152
118 176
118 190
118 195
119 120
119 121
119 122
119 128
119 129
119 136
119 138
119 139
119 151
119 175
119 189
119 193
119 194
120 121
120 122
120 123
120 124
120 125
120 127
120 128
120 129
120 130
120 136
120 137
120 139
120 140
120 144
120 146
120 148
120 152
120 176
120 190
120 195
121 122
121 123
121 126
121 129
121 130
121 136
121 137
121 138
121 139
121 140
121 145
121 147
121 151
121 152
121 169
121 176
121 190
121 195
122 123
122 126
122 128
122 130
122 137
122 138
122 140
122 145
122 147
122 151
122 152
122 169
122 176
122 190
122 195
123 126
123 128
123 129
123 136
123 138
123 139
123 145
123 147
123 151
123 169
123 175
123 189
123 193
123 194
124 125
124 126
124 127
124 132
124 133
124 134
124 135
124 138
124 141
124 144
124 145
124 146
124 147
124 148
124 149
124 150
124 151
124 154
124 155
124 156
124 158
124 159
124 160
124 161
124 162
124 164
124 166
124 167
124 168
124 169
124 171
124 172
124 173
124 174
124 178
124 182
124 185
124 191
124 197
124 201
124 227
124 232
125 126
125 127
125 131
125 133
125 134
125 135
125 138
125 141
125 145
125 147
125 148
125 150
125 151
125 153
125 155
125 156
125 157
125 159
125 160
125 161
125 163
125 164
125 165
125 167
125 169
125 170
125 172
125 178
125 182
125 185
125 192
125 197
125 201
125 227
125 232
126 127
126 131
126 132
126 133
126 139
126 140
126 141
126 144
126 146
126 148
126 149
126 150
126 152
126 153
126 154
126 156
126 157
126 158
126 160
126 162
126 164
126 165
126 167
126 170
126 172
126 178
126 182
126 185
126 191
126 197
126 201
126 227
126 232
127 131
127 132
127 134
127 135
127 138
127 142
127 143
127 144
127 145
127 146
127 147
127 149
127 151
127 153
127 154
127 155
127 157
127 158
127 159
127 161
127 162
127 163
127 165
127 166
127 168
127 169
127 170
127 171
127 173
127 174
127 177
127 179
127 180
127 181
127 183
127 184
127 191
127 196
127 198
127 202
127 230
127 231
128 129
128 130
128 136
128 137
128 139
128 140
128 152
128 176
128 190
128 195
129 130
129 137
129 138
129 140
129 152
129 176
129 190
129 195
130 136
130 138
130 139
130 151
130 175
130 189
130 193
130 194
131 132
131 133
131 134
131 135
131 141
131 142
131 143
131 144
131 146
131 148
131 149
131 150
131 154
131 155
131 156
131 158
131 159
131 160
131 161
131 162
131 164
131 166
131 167
131 168
131 171
131 172
131 173
131 174
131 178
131 179
131 180
131 182
131 183
131 185
131 187
131 191
131 197
131 198
131 201
131 202
131 227
131 232
132 133
132 134
132 135
132 141
132 142
132 143
132 145
132 147
132 148
132 150
132 153
132 155
132 156
132 157
132 159
132 160
132 161
132 163
132 164
132 165
132 167
132 168
132 170
132 172
132 173
132 174
132 178
132 179
132 180
132 182
132 183
132 185
132 187
132 192
132 197
132 198
132 201
132 202
132 227
132 232
133 134
133 135
133 142
133 143
133 144
133 146
133 147
133 149
133 153
133 154
133 155
133 157
133 158
133 159
133 161
133 162
133 163
133 165
133 166
133 168
133 170
133 171
133 173
133 174
133 177
133 179
133 180
133 181
133 183
133 184
133 187
133 191
133 196
133 198
133 202
133 230
133 231
134 135
134 141
134 143
134 144
134 146
134 148
134 149
134 150
134 153
134 154
134 156
134 157
134 158
134 159
134 160
134 162
134 164
134 165
134 166
134 167
134 170
134 171
134 172
134 174
134 177
134 178
134 180
134 181
134 182
134 185
134 187
134 191
134 197
134 198
134 201
134 202
134 227
134 232
135 141
135 142
135 144
135 146
135 148
135 149
135 150
135 153
135 154
135 156
135 157
135 158
135 160
135 161
135 162
135 164
135 165
135 167
135 168
135 170
135 171
135 172
135 173
135 177
135 178
135 179
135 182
135 183
135 185
135 191
135 196
135 197
135 201
135 227
135 232
136 137
136 138
136 140
136 152
136 176
136 190
136 195
137 138
137 139
137 151
137 175
137 189
137 193
137 194
138 139
138 140
138 144
138 146
138 148
138 152
138 176
138 190
138 195
139 140
139 145
139 147
139 151
139 152
139 169
139 176
139 190
139 195
140 145
140 147
140 151
140 169
140 175
140 189
140 193
140 194
141 142
141 143
141 146
141 147
141 149
141 153
141 154
141 155
141 157
141 158
141 159
141 161
141 162
141 163
141 165
141 166
141 168
141 170
141 171
141 173
141 174
141 177
141 179
141 180
141 181
141 183
141 184
141 187
141 196
141 198
141 202
141 230
141 231
142 143
142 148
142 150
142 156
142 157
142 158
142 159
142 160
142 164
142 165
142 166
142 167
142 170
142 171
142 172
142 174
142 177
142 178
142 180
142 181
142 182
142 185
142 187
142 197
142 198
142 201
142 202
142 227
142 232
143 148
143 150
143 156
143 160
143 161
143 164
143 167
143 168
143 170
143 171
143 172
143 173
143 177
143 178
143 179
143 182
143 183
143 185
143 196
143 197
143 201
143 227
143 232
144 145
144 147
144 148
144 150
144 151
144 153
144 155
144 156
144 157
144 159
144 160
144 161
144 163
144 164
144 169
144 192
145 146
145 148
145 149
145 152
145 154
145 158
145 162
145 191
146 147
146 148
146 150
146 151
146 153
146 155
146 156
146 157
146 159
146 160
146 161
146 163
146 164
146 167
146 169
146 172
146 178
146 182
146 185
146 192
146 197
146 201
146 227
146 232
147 148
147 149
147 150
147 152
147 154
147 156
147 158
147 160
147 162
147 164
147 167
147 172
147 178
147 182
147 185
147 191
147 197
147 201
147 227
147 232
148 149
148 151
148 153
148 154
148 155
148 157
148 158
148 159
148 161
148 162
148 163
148 165
148 166
148 168
148 169
148 170
148 171
148 173
148 174
148 177
148 179
148 180
148 181
148 183
148 184
148 191
148 196
148 198
148 202
148 230
148 231
149 150
149 153
149 155
149 156
149 157
149 159
149 160
149 161
149 163
149 164
149 167
149 172
149 178
149 182
149 185
149 192
149 197
149 201
149 227
149 232
150 153
150 154
150 155
150 157
150 158
150 159
150 161
150 162
150 163
150 165
150 166
150 168
150 170
150 171
150 173
150 174
150 177
150 179
150 180
150 181
150 183
150 184
150 191
150 196
150 198
150 202
150 230
150 231
151 152
151 176
151 190
151 195
152 169
152 175
152 189
152 193
152 194
153 154
153 155
153 156
153 158
153 159
153 160
153 161
153 162
153 163
153 164
153 166
153 167
153 168
153 171
153 172
153 173
153 174
153 177
153 178
153 181
153 182
153 184
153 185
153 191
153 192
153 196
153 197
153 201
153 203
153 209
153 227
153 230
153 232
153 245
154 155
154 156
154 157
154 159
154 160
154 161
154 163
154 164
154 165
154 166
154 167
154 170
154 171
154 172
154 177
154 178
154 181
154 182
154 184
154 185
154 192
154 196
154 197
154 201
154 203
154 209
154 227
154 230
154 232
154 245
155 156
155 157
155 158
155 160
155 161
155 162
155 164
155 165
155 167
155 168
155 170
155 172
155 173
155 174
155 178
155 179
155 180
155 182
155 183
155 185
155 191
155 197
155 198
155 201
155 210
155 227
155 231
155 232
155 246
155 247
156 157
156 158
156 159
156 161
156 162
156 163
156 165
156 166
156 168
156 170
156 171
156 173
156 174
156 177
156 179
156 180
156 181
156 183
156 184
156 191
156 192
156 196
156 198
156 202
156 203
156 209
156 230
156 231
156 245
157 158
157 159
157 160
157 161
157 162
157 163
157 164
157 166
157 167
157 168
157 171
157 172
157 173
157 174
157 177
157 178
157 179
157 181
157 182
157 183
157 184
157 185
157 191
157 192
157 196
157 197
157 201
157 203
157 209
157 227
157 230
157 232
157 245
158 159
158 160
158 161
158 163
158 164
158 165
158 166
158 167
158 168
158 170
158 171
158 172
158 173
158 177
158 178
158 179
158 181
158 182
158 183
158 184
158 185
158 192
158 196
158 197
158 201
158 203
158 209
158 227
158 230
158 232
158 245
159 160
159 161
159 162
159 164
159 165
159 167
159 168
159 170
159 172
159 173
159 174
159 178
159 179
159 180
159 182
159 183
159 185
159 191
159 197
159 198
159 201
159 210
159 227
159 231
159 232
159 246
159 247
160 161
160 162
160 163
160 165
160 166
160 168
160 170
160 171
160 173
160 174
160 177
160 179
160 180
160 181
160 183
160 184
160 191
160 192
160 196
160 198
160 202
160 203
160 209
160 230
160 231
160 245
161 162
161 163
161 164
161 165
161 166
161 167
161 170
161 171
161 172
161 174
161 177
161 178
161 180
161 181
161 182
161 184
161 185
161 191
161 192
161 196
161 197
161 201
161 203
161 209
161 227
161 230
161 232
161 245
162 163
162 164
162 166
162 167
162 171
162 172
162 177
162 178
162 181
162 182
162 184
162 185
162 192
162 196
162 197
162 201
162 203
162 209
162 227
162 230
162 232
162 245
163 164
163 165
163 167
163 168
163 170
163 172
163 173
163 174
163 178
163 179
163 180
163 182
163 183
163 185
163 191
163 197
163 198
163 201
163 210
163 227
163 231
163 232
163 246
163 247
164 165
164 166
164 168
164 170
164 171
164 173
164 174
164 177
164 179
164 180
164 181
164 183
164 184
164 191
164 192
164 196
164 198
164 202
164 203
164 209
164 230
164 231
164 245
165 166
165 167
165 168
165 171
165 172
165 173
165 174
165 177
165 178
165 179
165 181
165 182
165 183
165 184
165 185
165 192
165 196
165 197
165 201
165 203
165 209
165 227
165 230
165 232
165 245
166 167
166 168
166 170
166 172
166 173
166 174
166 178
166 179
166 180
166 182
166 183
166 185
166 191
166 197
166 198
166 201
166 210
166 227
166 231
166 232
166 246
166 247
167 168
167 170
167 171
167 173
167 174
167 177
167 179
167 180
167 181
167 183
167 184
167 192
167 196
167 198
167 202
167 203
167 209
167 230
167 231
167 245
168 170
168 171
168 172
168 174
168 177
168 178
168 180
168 181
168 182
168 184
168 185
168 192
168 196
168 197
168 201
168 203
168 209
168 227
168 230
168 232
168 245
170 171
170 172
170 173
170 174
170 177
170 178
170 179
170 180
170 181
170 182
170 183
170 184
170 185
170 187
170 192
170 196
170 197
170 198
170 201
170 202
170 203
170 209
170 227
170 230
170 232
170 245
171 172
171 173
171 174
171 178
171 179
171 180
171 182
171 183
171 185
171 187
171 191
171 197
171 198
171 201
171 202
171 210
171 227
171 231
171 232
171 246
171 247
172 173
172 174
172 177
172 179
172 180
172 181
172 183
172 184
172 187
172 192
172 196
172 198
172 202
172 203
172 209
172 230
172 231
172 245
173 174
173 177
173 178
173 180
173 181
173 182
173 184
173 185
173 187
173 192
173 196
173 197
173 198
173 201
173 202
173 203
173 209
173 227
173 230
173 232
173 245
174 177
174 178
174 179
174 181
174 182
174 183
174 184
174 185
174 192
174 196
174 197
174 201
174 203
174 209
174 227
174 230
174 232
174 245
175 176
175 190
175 193
175 195
175 199
175 206
175 208
175 212
175 214
175 216
175 219
175 220
175 222
175 223
175 224
175 226
175 236
175 238
175 239
175 240
175 241
175 243
175 244
176 186
176 189
176 193
176 194
176 200
176 207
176 213
176 215
176 218
176 221
176 225
176 237
176 242
177 178
177 179
177 180
177 182
177 183
177 185
177 187
177 191
177 197
177 198
177 201
177 202
177 210
177 227
177 231
177 232
177 246
177 247
178 179
178 180
178 181
178 183
178 184
178 187
178 192
178 196
178 198
178 202
178 203
178 209
178 230
178 231
178 245
179 180
179 181
179 182
179 184
179 185
179 187
179 192
179 196
179 197
179 198
179 201
179 202
179 203
179 209
179 227
179 230
179 232
179 245
180 181
180 182
180 183
180 184
180 185
180 192
180 196
180 197
180 201
180 203
180 209
180 227
180 230
180 232
180 245
181 182
181 183
181 185
181 191
181 197
181 198
181 201
181 210
181 227
181 231
181 232
181 246
181 247
182 183
182 184
182 192
182 196
182 198
182 202
182 203
182 209
182 230
182 231
182 245
183 184
183 185
183 192
183 196
183 197
183 201
183 203
183 209
183 227
183 230
183 232
183 245
184 185
184 191
184 197
184 198
184 201
184 210
184 227
184 231
184 232
184 246
184 247
185 192
185 196
185 198
185 202
185 203
185 209
185 230
185 231
185 245
186 193
186 195
186 199
186 206
186 208
186 212
186 214
186 216
186 219
186 220
186 222
186 223
186 224
186 226
186 236
186 238
186 239
186 240
186 241
186 243
186 244
187 196
187 197
187 201
188 190
188 194
188 195
188 200
188 205
188 207
188 208
188 221
188 222
188 224
188 225
188 226
188 234
188 235
188 237
188 238
188 239
188 241
188 242
188 243
188 244
188 249
188 250
188 252
188 253
188 254
189 190
189 194
189 195
189 200
189 205
189 207
189 208
189 221
189 222
189 224
189 225
189 226
189 234
189 235
189 237
189 238
189 239
189 241
189 242
189 243
189 244
189 249
189 250
189 252
189 253
189 254
190 193
190 194
190 199
190 204
190 206
190 220
190 223
190 233
190 236
190 240
190 248
190 251
191 192
191 196
191 203
191 209
191 230
191 245
192 197
192 198
192 210
192 231
192 232
192 246
192 247
193 194
193 195
193 200
193 205
193 207
193 208
193 213
193 215
193 218
193 221
193 222
193 224
193 225
193 226
193 234
193 235
193 237
193 238
193 239
193 241
193 242
193 243
193 244
193 249
193 250
193 252
193 253
193 254
194 195
194 199
194 204
194 206
194 208
194 212
194 214
194 216
194 219
194 220
194 222
194 223
194 224
194 226
194 233
194 236
194 238
194 239
194 240
194 241
194 243
194 244
194 248
194 251
195 199
195 200
195 204
195 206
195 207
195 213
195 215
195 218
195 220
195 221
195 223
195 225
195 233
195 236
195 237
195 240
195 242
195 248
195 251
196 197
196 198
196 201
196 202
196 210
196 227
196 231
196 232
196 246
196 247
197 198
197 202
197 203
197 209
197 230
197 231
197 245
198 201
198 203
198 209
198 227
198 230
198 232
198 245
199 200
199 205
199 207
199 208
199 213
199 215
199 218
199 221
199 222
199 224
199 225
199 226
199 234
199 235
199 237
199 238
199 239
199 241
199 242
199 243
199 244
199 249
199 250
199 252
199 253
199 254
200 204
200 206
200 208
200 212
200 214
200 216
200 219
200 220
200 222
200 223
200 224
200 226
200 233
200 236
200 238
200 239
200 240
200 241
200 243
200 244
200 248
200 251
201 202
201 230
201 231
202 227
202 232
203 210
203 231
203 232
203 246
203 247
204 205
204 207
204 208
204 217
204 221
204 222
204 224
204 225
204 226
204 229
204 234
204 235
204 237
204 238
204 239
204 241
204 242
204 243
204 244
204 247
204 249
204 250
204 252
204 253
204 254
205 206
205 207
205 220
205 223
205 228
205 233
205 234
205 236
205 237
205 239
205 240
205 241
205 242
205 244
205 245
205 246
205 248
205 250
205 251
205 252
205 254
206 207
206 208
206 213
206 215
206 217
206 218
206 221
206 222
206 224
206 225
206 226
206 229
206 234
206 235
206 237
206 238
206 239
206 241
206 242
206 243
206 244
206 247
206 249
206 250
206 252
206 253
206 254
207 208
207 212
207 214
207 216
207 217
207 219
207 220
207 222
207 223
207 224
207 226
207 229
207 233
207 235
207 236
207 238
207 239
207 240
207 241
207 243
207 244
207 247
207 248
207 249
207 251
207 253
208 213
208 215
208 218
208 220
208 221
208 223
208 225
208 228
208 233
208 234
208 236
208 237
208 239
208 240
208 241
208 242
208 244
208 245
208 246
208 248
208 250
208 251
208 252
208 254
209 210
209 211
209 228
209 231
209 232
209 234
209 246
209 247
210 229
210 230
210 232
210 233
210 235
210 245
210 247
211 229
211 230
211 232
211 233
211 235
211 245
211 247
212 213
212 215
212 216
212 218
212 221
212 223
212 225
212 226
212 237
212 240
212 242
212 243
212 244
212 251
212 253
212 254
212 256
213 214
213 216
213 219
213 220
213 222
213 223
213 224
213 226
213 236
213 238
213 239
213 240
213 241
213 243
213 244
213 252
213 255
214 215
214 216
214 218
214 219
214 221
214 222
214 223
214 225
214 226
214 237
214 239
214 240
214 242
214 243
214 244
214 250
214 251
214 253
214 254
214 256
215 216
215 219
215 220
215 222
215 223
215 224
215 226
215 236
215 238
215 239
215 240
215 241
215 243
215 244
215 250
215 252
215 254
215 255
215 256
216 218
216 220
216 221
216 223
216 224
216 225
216 236
216 237
216 238
216 240
216 241
216 242
216 243
216 248
216 249
216 251
216 252
216 253
216 255
217 228
217 233
217 234
217 236
217 237
217 239
217 240
217 241
217 242
217 244
217 245
217 246
217 248
217 250
217 251
217 252
217 254
218 219
218 220
218 222
218 223
218 224
218 226
218 236
218 238
218 239
218 240
218 241
218 243
218 244
218 250
218 254
218 256
219 220
219 221
219 223
219 224
219 225
219 236
219 237
219 238
219 240
219 241
219 242
219 243
219 248
219 249
219 251
219 252
219 253
219 255
220 221
220 222
220 224
220 225
220 226
220 234
220 235
220 237
220 238
220 239
220 241
220 242
220 243
220 244
220 249
220 250
220 252
220 253
220 254
220 256
221 222
221 223
221 224
221 226
221 233
221 236
221 238
221 239
221 240
221 241
221 243
221 244
221 248
221 250
221 251
221 254
221 256
222 223
222 224
222 225
222 233
222 236
222 237
222 238
222 240
222 241
222 242
222 243
222 248
222 249
222 251
222 252
222 253
222 255
223 224
223 225
223 226
223 234
223 235
223 237
223 238
223 239
223 241
223 242
223 243
223 244
223 249
223 250
223 252
223 253
223 254
223 255
223 256
224 225
224 226
224 233
224 236
224 237
224 239
224 240
224 242
224 243
224 244
224 248
224 250
224 251
224 253
224 254
224 256
225 226
225 233
225 236
225 238
225 239
225 240
225 241
225 243
225 244
225 248
225 250
225 251
225 252
225 254
225 255
225 256
226 233
226 236
226 237
226 238
226 240
226 241
226 242
226 243
226 248
226 249
226 251
226 252
226 253
226 255
227 230
227 231
228 229
228 230
228 232
228 233
228 235
228 238
228 243
228 245
228 247
228 249
228 253
229 231
229 233
229 234
229 236
229 237
229 239
229 240
229 241
229 242
229 244
229 245
229 246
229 248
229 250
229 251
229 252
229 254
230 231
230 232
230 234
230 246
230 247
231 232
231 233
231 235
231 245
231 247
232 234
232 245
232 246
233 234
233 235
233 237
233 238
233 239
233 241
233 242
233 243
233 244
233 246
233 247
233 249
233 250
233 252
233 253
233 254
234 235
234 236
234 238
234 240
234 243
234 245
234 247
234 248
234 249
234 251
234 253
235 236
235 237
235 239
235 240
235 241
235 242
235 244
235 245
235 246
235 248
235 250
235 251
235 252
235 254
236 237
236 238
236 239
236 241
236 242
236 243
236 244
236 247
236 249
236 250
236 252
236 253
236 254
236 256
237 238
237 239
237 240
237 241
237 243
237 244
237 247
237 248
237 249
237 250
237 251
237 253
237 254
237 256
238 239
238 240
238 241
238 242
238 244
238 245
238 246
238 248
238 250
238 251
238 252
238 254
238 256
239 240
239 241
239 242
239 243
239 247
239 248
239 249
239 251
239 252
239 253
239 255
240 241
240 242
240 243
240 244
240 247
240 249
240 250
240 252
240 253
240 254
240 255
240 256
241 242
241 243
241 244
241 247
241 248
241 249
241 250
241 251
241 253
241 254
241 256
242 243
242 244
242 247
242 248
242 249
242 250
242 251
242 252
242 253
242 254
242 255
242 256
243 244
243 245
243 246
243 248
243 250
243 251
243 252
243 254
243 255
243 256
244 247
244 248
244 249
244 251
244 252
244 253
244 255
245 246
245 247
245 249
245 253
246 247
246 249
246 253
247 248
247 250
247 251
247 252
247 254
248 249
248 250
248 252
248 253
248 254
248 256
249 250
249 251
249 252
249 254
249 256
250 251
250 252
250 253
250 255
251 252
251 253
251 254
251 255
251 256
252 253
252 254
252 256
253 254
253 255
253 256
254 255
255 256
