231:7245
0 3
0 13
1 4
1 9
1 11
1 16
1 18
1 19
1 26
1 27
1 32
1 33
1 34
1 46
1 47
2 7
2 8
2 25
2 26
2 63
2 64
2 66
3 4
3 9
3 11
3 12
3 16
3 18
3 19
3 26
3 27
3 32
3 33
3 34
3 46
3 47
4 8
4 10
4 13
4 15
4 17
4 25
4 31
4 45
5 6
5 49
5 57
5 58
5 60
5 62
5 63
5 78
5 79
5 80
5 82
5 83
6 7
6 8
6 25
6 26
6 50
6 59
6 61
6 63
6 64
6 66
6 81
6 84
7 9
7 27
7 49
7 57
7 58
7 60
7 62
7 63
7 65
7 78
7 79
7 80
7 82
7 83
8 9
8 11
8 16
8 18
8 19
8 26
8 27
8 32
8 33
8 34
8 46
8 47
8 62
8 65
9 10
9 15
9 17
9 25
9 26
9 31
9 45
9 63
9 64
9 66
10 11
10 16
10 18
10 19
10 20
10 26
10 27
10 28
10 32
10 33
10 34
10 35
10 38
10 46
10 47
10 48
10 51
10 73
10 90
10 145
11 15
11 17
11 19
11 21
11 25
11 27
11 29
11 30
11 31
11 33
11 34
11 36
11 37
11 39
11 40
11 41
11 45
11 47
11 52
11 74
11 75
11 76
11 77
11 91
11 92
11 93
11 146
11 147
12 13
12 14
12 16
12 19
12 21
12 22
12 29
12 34
12 37
12 40
12 43
12 55
12 68
12 76
12 93
12 98
12 102
12 106
12 114
12 120
12 125
12 137
12 141
12 155
13 15
13 17
13 18
13 20
13 23
13 28
13 30
13 31
13 32
13 33
13 35
13 36
13 38
13 39
13 41
13 42
13 44
13 53
13 54
13 56
13 67
13 69
13 73
13 74
13 75
13 77
13 90
13 91
13 92
13 96
13 97
13 99
13 100
13 101
13 103
13 104
13 105
13 107
13 111
13 112
13 113
13 115
13 116
13 117
13 118
13 119
13 121
13 122
13 123
13 124
13 126
13 136
13 138
13 139
13 140
13 151
13 152
13 153
13 154
14 15
14 17
14 18
14 20
14 23
14 28
14 30
14 31
14 32
14 33
14 35
14 36
14 38
14 39
14 41
14 42
14 44
14 53
14 54
14 56
14 67
14 69
14 73
14 74
14 75
14 77
14 90
14 91
14 92
14 96
14 97
14 99
14 100
14 101
14 103
14 104
14 105
14 107
14 111
14 112
14 113
14 115
14 116
14 117
14 118
14 119
14 121
14 122
14 123
14 124
14 126
14 136
14 138
14 139
14 140
14 151
14 152
14 153
14 154
15 16
15 18
15 19
15 21
15 22
15 26
15 27
15 29
15 32
15 33
15 34
15 37
15 40
15 43
15 46
15 47
15 55
15 68
15 76
15 93
15 98
15 102
15 106
15 114
15 120
15 125
15 137
15 141
15 155
16 17
16 18
16 20
16 23
16 25
16 28
16 30
16 31
16 32
16 33
16 35
16 36
16 38
16 39
16 41
16 42
16 44
16 45
16 53
16 54
16 56
16 67
16 69
16 73
16 74
16 75
16 77
16 90
16 91
16 92
16 96
16 97
16 99
16 100
16 101
16 103
16 104
16 105
16 107
16 111
16 112
16 113
16 115
16 116
16 117
16 118
16 119
16 121
16 122
16 123
16 124
16 126
16 136
16 138
16 139
16 140
16 151
16 152
16 153
16 154
17 18
17 19
17 20
17 21
17 22
17 26
17 27
17 28
17 29
17 32
17 33
17 34
17 35
17 37
17 38
17 40
17 43
17 46
17 47
17 48
17 51
17 55
17 68
17 73
17 76
17 90
17 93
17 98
17 102
17 106
17 114
17 120
17 125
17 137
17 141
17 145
17 155
18 19
18 21
18 22
18 25
18 27
18 29
18 30
18 31
18 33
18 34
18 36
18 37
18 39
18 40
18 41
18 43
18 45
18 47
18 52
18 55
18 68
18 74
18 75
18 76
18 77
18 91
18 92
18 93
18 98
18 102
18 106
18 114
18 120
18 125
18 137
18 141
18 146
18 147
18 155
19 20
19 23
19 25
19 26
19 28
19 30
19 31
19 32
19 33
19 35
19 36
19 38
19 39
19 41
19 42
19 44
19 45
19 46
19 48
19 51
19 53
19 54
19 56
19 67
19 69
19 73
19 74
19 75
19 77
19 90
19 91
19 92
19 96
19 97
19 99
19 100
19 101
19 103
19 104
19 105
19 107
19 111
19 112
19 113
19 115
19 116
19 117
19 118
19 119
19 121
19 122
19 123
19 124
19 126
19 136
19 138
19 139
19 140
19 145
19 151
19 152
19 153
19 154
20 21
20 22
20 25
20 27
20 29
20 30
20 31
20 33
20 34
20 36
20 37
20 39
20 40
20 41
20 43
20 45
20 47
20 52
20 55
20 68
20 74
20 75
20 76
20 77
20 91
20 92
20 93
20 98
20 102
20 106
20 114
20 120
20 125
20 137
20 141
20 146
20 147
20 155
21 23
21 26
21 28
21 30
21 31
21 32
21 33
21 35
21 36
21 38
21 39
21 41
21 42
21 44
21 46
21 48
21 51
21 53
21 54
21 56
21 67
21 69
21 73
21 74
21 75
21 77
21 90
21 91
21 92
21 96
21 97
21 99
21 100
21 101
21 103
21 104
21 105
21 107
21 111
21 112
21 113
21 115
21 116
21 117
21 118
21 119
21 121
21 122
21 123
21 124
21 126
21 136
21 138
21 139
21 140
21 145
21 151
21 152
21 153
21 154
22 23
22 24
22 28
22 30
22 31
22 32
22 33
22 35
22 36
22 38
22 39
22 41
22 42
22 44
22 53
22 54
22 56
22 67
22 69
22 73
22 74
22 75
22 77
22 86
22 90
22 91
22 92
22 96
22 97
22 99
22 100
22 101
22 103
22 104
22 105
22 107
22 110
22 111
22 112
22 113
22 115
22 116
22 117
22 118
22 119
22 121
22 122
22 123
22 124
22 126
22 130
22 135
22 136
22 138
22 139
22 140
22 151
22 152
22 153
22 154
23 28
23 29
23 34
23 37
23 38
23 39
23 40
23 42
23 43
23 53
23 54
23 55
23 67
23 68
23 73
23 74
23 75
23 76
23 85
23 93
23 98
23 99
23 100
23 101
23 102
23 104
23 105
23 106
23 108
23 109
23 111
23 112
23 113
23 114
23 116
23 117
23 118
23 119
23 120
23 122
23 123
23 124
23 125
23 127
23 128
23 129
23 131
23 132
23 133
23 134
23 137
23 141
23 155
24 28
24 29
24 38
24 39
24 40
24 42
24 43
24 53
24 54
24 55
24 67
24 68
24 73
24 74
24 75
24 76
24 85
24 99
24 100
24 101
24 102
24 104
24 105
24 106
24 108
24 109
24 111
24 112
24 113
24 114
24 116
24 117
24 118
24 119
24 120
24 122
24 123
24 124
24 125
24 127
24 128
24 129
24 131
24 132
24 133
24 134
25 26
25 27
25 28
25 32
25 33
25 34
25 35
25 38
25 46
25 47
25 48
25 51
25 62
25 65
25 73
25 90
25 145
26 27
26 29
26 30
26 31
26 33
26 34
26 36
26 37
26 39
26 40
26 41
26 45
26 47
26 52
26 62
26 65
26 74
26 75
26 76
26 77
26 91
26 92
26 93
26 146
26 147
27 28
27 31
27 32
27 35
27 38
27 45
27 46
27 48
27 51
27 63
27 64
27 66
27 73
27 90
27 145
28 29
28 30
28 31
28 33
28 34
28 36
28 37
28 39
28 40
28 41
28 43
28 44
28 45
28 47
28 52
28 55
28 56
28 68
28 69
28 74
28 75
28 76
28 77
28 86
28 91
28 92
28 93
28 98
28 102
28 103
28 106
28 107
28 110
28 114
28 115
28 120
28 121
28 125
28 126
28 130
28 135
28 137
28 141
28 146
28 147
28 155
29 30
29 31
29 32
29 33
29 35
29 36
29 38
29 39
29 41
29 42
29 44
29 46
29 48
29 51
29 53
29 54
29 56
29 67
29 69
29 73
29 74
29 75
29 77
29 86
29 90
29 91
29 92
29 96
29 97
29 99
29 100
29 101
29 103
29 104
29 105
29 107
29 110
29 111
29 112
29 113
29 115
29 116
29 117
29 118
29 119
29 121
29 122
29 123
29 124
29 126
29 130
29 135
29 136
29 138
29 139
29 140
29 145
29 151
29 152
29 153
29 154
30 32
30 34
30 35
30 37
30 38
30 39
30 40
30 42
30 43
30 46
30 48
30 51
30 53
30 54
30 55
30 67
30 68
30 73
30 74
30 75
30 76
30 85
30 90
30 93
30 98
30 99
30 100
30 101
30 102
30 104
30 105
30 106
30 108
30 109
30 111
30 112
30 113
30 114
30 116
30 117
30 118
30 119
30 120
30 122
30 123
30 124
30 125
30 127
30 128
30 129
30 131
30 132
30 133
30 134
30 137
30 141
30 145
30 155
31 32
31 33
31 34
31 35
31 36
31 37
31 38
31 39
31 40
31 42
31 43
31 46
31 47
31 48
31 51
31 52
31 54
31 55
31 68
31 73
31 75
31 76
31 90
31 92
31 93
31 97
31 98
31 100
31 102
31 106
31 112
31 114
31 117
31 120
31 125
31 132
31 136
31 137
31 139
31 141
31 142
31 144
31 145
31 146
31 148
31 152
31 155
31 157
31 160
31 163
31 167
31 171
31 190
32 33
32 34
32 36
32 37
32 39
32 40
32 41
32 42
32 43
32 45
32 47
32 52
32 54
32 55
32 68
32 74
32 75
32 76
32 77
32 91
32 92
32 93
32 97
32 98
32 100
32 102
32 106
32 112
32 114
32 117
32 120
32 125
32 132
32 136
32 137
32 139
32 141
32 142
32 144
32 146
32 147
32 148
32 152
32 155
32 157
32 160
32 163
32 167
32 171
32 190
33 34
33 35
33 37
33 38
33 40
33 41
33 43
33 44
33 45
33 46
33 48
33 51
33 53
33 55
33 56
33 68
33 73
33 74
33 76
33 77
33 90
33 91
33 93
33 96
33 98
33 99
33 101
33 102
33 103
33 106
33 111
33 113
33 114
33 115
33 116
33 118
33 119
33 120
33 121
33 125
33 131
33 133
33 134
33 135
33 137
33 138
33 140
33 141
33 143
33 145
33 147
33 149
33 151
33 153
33 154
33 155
33 156
33 158
33 159
33 161
33 162
33 164
33 165
33 166
33 168
33 169
33 170
33 172
33 173
33 174
33 191
33 192
34 35
34 36
34 38
34 39
34 41
34 42
34 44
34 45
34 46
34 47
34 48
34 51
34 52
34 53
34 54
34 56
34 67
34 69
34 73
34 74
34 75
34 77
34 90
34 91
34 92
34 96
34 97
34 99
34 100
34 101
34 103
34 104
34 105
34 107
34 111
34 112
34 113
34 115
34 116
34 117
34 118
34 119
34 121
34 122
34 123
34 124
34 126
34 132
34 136
34 138
34 139
34 140
34 142
34 144
34 145
34 146
34 148
34 151
34 152
34 153
34 154
34 157
34 160
34 163
34 167
34 171
34 190
35 36
35 37
35 39
35 40
35 41
35 42
35 43
35 45
35 47
35 52
35 54
35 55
35 68
35 74
35 75
35 76
35 77
35 91
35 92
35 93
35 97
35 98
35 100
35 102
35 106
35 112
35 114
35 117
35 120
35 125
35 132
35 136
35 137
35 139
35 141
35 142
35 144
35 146
35 147
35 148
35 152
35 155
35 157
35 160
35 163
35 167
35 171
35 190
36 37
36 38
36 40
36 41
36 43
36 44
36 45
36 46
36 48
36 51
36 53
36 55
36 56
36 68
36 73
36 74
36 76
36 77
36 90
36 91
36 93
36 96
36 98
36 99
36 101
36 102
36 103
36 106
36 111
36 113
36 114
36 115
36 116
36 118
36 119
36 120
36 121
36 125
36 131
36 133
36 134
36 135
36 137
36 138
36 140
36 141
36 143
36 145
36 147
36 149
36 151
36 153
36 154
36 155
36 156
36 158
36 159
36 161
36 162
36 164
36 165
36 166
36 168
36 169
36 170
36 172
36 173
36 174
36 191
36 192
37 38
37 39
37 41
37 42
37 44
37 46
37 47
37 48
37 51
37 52
37 53
37 54
37 56
37 67
37 69
37 73
37 74
37 75
37 77
37 90
37 91
37 92
37 96
37 97
37 99
37 100
37 101
37 103
37 104
37 105
37 107
37 111
37 112
37 113
37 115
37 116
37 117
37 118
37 119
37 121
37 122
37 123
37 124
37 126
37 132
37 136
37 138
37 139
37 140
37 142
37 144
37 145
37 146
37 148
37 151
37 152
37 153
37 154
37 157
37 160
37 163
37 167
37 171
37 190
38 39
38 40
38 41
38 42
38 43
38 44
38 45
38 47
38 52
38 54
38 55
38 56
38 68
38 69
38 74
38 75
38 76
38 77
38 86
38 91
38 92
38 93
38 97
38 98
38 100
38 102
38 103
38 106
38 107
38 110
38 112
38 114
38 115
38 117
38 120
38 121
38 125
38 126
38 130
38 132
38 135
38 136
38 137
38 139
38 141
38 142
38 144
38 146
38 147
38 148
38 152
38 155
38 157
38 160
38 163
38 167
38 171
38 190
39 40
39 41
39 43
39 44
39 45
39 46
39 48
39 51
39 53
39 55
39 56
39 68
39 69
39 73
39 74
39 76
39 77
39 86
39 90
39 91
39 93
39 96
39 98
39 99
39 101
39 102
39 103
39 106
39 107
39 110
39 111
39 113
39 114
39 115
39 116
39 118
39 119
39 120
39 121
39 125
39 126
39 130
39 131
39 133
39 134
39 135
39 137
39 138
39 140
39 141
39 143
39 145
39 147
39 149
39 151
39 153
39 154
39 155
39 156
39 158
39 159
39 161
39 162
39 164
39 165
39 166
39 168
39 169
39 170
39 172
39 173
39 174
39 191
39 192
40 41
40 42
40 44
40 46
40 47
40 48
40 51
40 52
40 53
40 54
40 56
40 67
40 69
40 73
40 74
40 75
40 77
40 86
40 90
40 91
40 92
40 96
40 97
40 99
40 100
40 101
40 103
40 104
40 105
40 107
40 110
40 111
40 112
40 113
40 115
40 116
40 117
40 118
40 119
40 121
40 122
40 123
40 124
40 126
40 130
40 132
40 135
40 136
40 138
40 139
40 140
40 142
40 144
40 145
40 146
40 148
40 151
40 152
40 153
40 154
40 157
40 160
40 163
40 167
40 171
40 190
41 42
41 43
41 46
41 47
41 48
41 51
41 52
41 53
41 54
41 55
41 67
41 68
41 73
41 74
41 75
41 76
41 85
41 90
41 92
41 93
41 97
41 98
41 99
41 100
41 101
41 102
41 104
41 105
41 106
41 108
41 109
41 111
41 112
41 113
41 114
41 116
41 117
41 118
41 119
41 120
41 122
41 123
41 124
41 125
41 127
41 128
41 129
41 131
41 132
41 133
41 134
41 136
41 137
41 139
41 141
41 142
41 144
41 145
41 146
41 148
41 152
41 155
41 157
41 160
41 163
41 167
41 171
41 190
42 43
42 44
42 45
42 46
42 51
42 53
42 55
42 56
42 68
42 69
42 73
42 74
42 76
42 77
42 86
42 90
42 91
42 93
42 96
42 98
42 99
42 101
42 102
42 103
42 106
42 107
42 110
42 111
42 113
42 114
42 115
42 116
42 118
42 119
42 120
42 121
42 125
42 126
42 130
42 131
42 133
42 134
42 135
42 137
42 138
42 140
42 141
42 143
42 145
42 147
42 149
42 151
42 153
42 154
42 155
42 156
42 158
42 159
42 161
42 162
42 164
42 165
42 166
42 168
42 169
42 170
42 172
42 173
42 174
42 191
42 192
43 44
43 47
43 52
43 53
43 54
43 56
43 67
43 69
43 73
43 74
43 75
43 77
43 86
43 90
43 91
43 92
43 96
43 97
43 99
43 100
43 101
43 103
43 104
43 105
43 107
43 110
43 111
43 112
43 113
43 115
43 116
43 117
43 118
43 119
43 121
43 122
43 123
43 124
43 126
43 130
43 132
43 135
43 136
43 138
43 139
43 140
43 142
43 144
43 146
43 148
43 151
43 152
43 153
43 154
43 157
43 160
43 163
43 167
43 171
43 190
44 47
44 52
44 53
44 54
44 55
44 67
44 68
44 73
44 74
44 75
44 76
44 85
44 92
44 93
44 97
44 98
44 99
44 100
44 101
44 102
44 104
44 105
44 106
44 108
44 109
44 111
44 112
44 113
44 114
44 116
44 117
44 118
44 119
44 120
44 122
44 123
44 124
44 125
44 127
44 128
44 129
44 131
44 132
44 133
44 134
44 136
44 137
44 139
44 141
44 142
44 144
44 146
44 148
44 152
44 155
44 157
44 160
44 163
44 167
44 171
44 190
45 46
45 47
45 48
45 51
45 52
45 54
45 73
45 75
45 90
45 92
45 97
45 100
45 112
45 117
45 132
45 136
45 139
45 142
45 144
45 145
45 146
45 148
45 152
45 157
45 160
45 163
45 167
45 171
45 190
46 47
46 52
46 54
46 74
46 75
46 76
46 77
46 91
46 92
46 93
46 97
46 100
46 112
46 117
46 132
46 136
46 139
46 142
46 144
46 146
46 147
46 148
46 152
46 157
46 160
46 163
46 167
46 171
46 190
47 48
47 51
47 53
47 55
47 56
47 73
47 74
47 76
47 77
47 90
47 91
47 93
47 96
47 98
47 99
47 101
47 102
47 103
47 111
47 113
47 114
47 115
47 116
47 118
47 119
47 120
47 121
47 131
47 133
47 134
47 135
47 137
47 138
47 140
47 141
47 143
47 145
47 147
47 149
47 151
47 153
47 154
47 155
47 156
47 158
47 159
47 161
47 162
47 164
47 165
47 166
47 168
47 169
47 170
47 172
47 173
47 174
47 191
47 192
48 52
48 74
48 75
48 76
48 77
48 91
48 92
48 93
48 146
48 147
49 50
49 58
49 59
49 61
49 64
49 72
49 79
49 80
49 81
49 83
49 84
49 88
49 89
49 95
50 57
50 58
50 60
50 62
50 63
50 71
50 78
50 79
50 80
50 82
50 83
50 87
50 94
51 52
51 54
51 74
51 75
51 76
51 77
51 91
51 92
51 93
51 97
51 100
51 112
51 117
51 132
51 136
51 139
51 142
51 144
51 146
51 147
51 148
51 152
51 157
51 160
51 163
51 167
51 171
51 190
52 53
52 55
52 56
52 73
52 74
52 76
52 77
52 90
52 91
52 93
52 96
52 98
52 99
52 101
52 102
52 103
52 111
52 113
52 114
52 115
52 116
52 118
52 119
52 120
52 121
52 131
52 133
52 134
52 135
52 137
52 138
52 140
52 141
52 143
52 145
52 147
52 149
52 151
52 153
52 154
52 155
52 156
52 158
52 159
52 161
52 162
52 164
52 165
52 166
52 168
52 169
52 170
52 172
52 173
52 174
52 191
52 192
53 54
53 55
53 56
53 68
53 69
53 73
53 75
53 76
53 77
53 86
53 90
53 92
53 93
53 97
53 98
53 100
53 101
53 102
53 103
53 105
53 106
53 107
53 109
53 110
53 112
53 113
53 114
53 115
53 117
53 118
53 119
53 120
53 121
53 123
53 124
53 125
53 126
53 128
53 129
53 130
53 132
53 133
53 134
53 135
53 136
53 137
53 139
53 140
53 141
53 142
53 144
53 146
53 148
53 152
53 153
53 154
53 155
53 157
53 158
53 160
53 161
53 163
53 164
53 165
53 167
53 168
53 169
53 171
53 172
53 173
53 174
53 176
53 177
53 190
53 196
53 197
53 199
53 200
53 201
54 55
54 56
54 67
54 68
54 69
54 73
54 74
54 76
54 77
54 85
54 86
54 90
54 91
54 93
54 96
54 98
54 99
54 101
54 102
54 103
54 104
54 106
54 107
54 108
54 110
54 111
54 113
54 114
54 115
54 116
54 118
54 119
54 120
54 121
54 122
54 125
54 126
54 127
54 130
54 131
54 133
54 134
54 135
54 137
54 138
54 140
54 141
54 143
54 145
54 147
54 149
54 151
54 153
54 154
54 155
54 156
54 158
54 159
54 161
54 162
54 164
54 165
54 166
54 168
54 169
54 170
54 172
54 173
54 174
54 175
54 191
54 192
54 195
54 198
55 56
55 67
55 69
55 73
55 74
55 75
55 77
55 85
55 86
55 90
55 91
55 92
55 96
55 97
55 99
55 100
55 101
55 103
55 104
55 105
55 107
55 108
55 110
55 111
55 112
55 113
55 115
55 116
55 117
55 118
55 119
55 121
55 122
55 123
55 124
55 126
55 127
55 130
55 131
55 132
55 135
55 136
55 138
55 139
55 140
55 142
55 143
55 144
55 146
55 148
55 151
55 152
55 153
55 154
55 156
55 157
55 159
55 160
55 162
55 163
55 166
55 167
55 170
55 171
55 175
55 190
55 195
55 198
56 67
56 68
56 73
56 74
56 75
56 76
56 85
56 91
56 92
56 93
56 96
56 97
56 98
56 99
56 100
56 101
56 102
56 104
56 105
56 106
56 108
56 109
56 111
56 112
56 113
56 114
56 116
56 117
56 118
56 119
56 120
56 122
56 123
56 124
56 125
56 127
56 128
56 129
56 131
56 132
56 133
56 134
56 136
56 137
56 138
56 139
56 141
56 142
56 143
56 144
56 146
56 148
56 151
56 152
56 155
56 156
56 157
56 159
56 160
56 162
56 163
56 166
56 167
56 170
56 171
56 175
56 190
56 195
56 198
57 58
57 59
57 60
57 61
57 63
57 64
57 66
57 70
57 72
57 79
57 80
57 81
57 83
57 84
57 88
57 89
57 95
57 181
57 189
57 203
58 59
58 61
58 62
58 64
58 65
58 71
58 78
58 80
58 81
58 82
58 84
58 87
58 89
58 94
58 182
58 188
58 202
58 204
59 60
59 62
59 63
59 66
59 70
59 71
59 72
59 78
59 79
59 80
59 82
59 83
59 87
59 88
59 94
59 181
59 189
59 203
60 61
60 62
60 64
60 65
60 71
60 78
60 80
60 81
60 84
60 87
60 89
60 182
60 188
60 202
60 204
61 62
61 63
61 66
61 70
61 72
61 78
61 79
61 80
61 82
61 83
61 88
61 181
61 189
61 203
62 63
62 64
62 66
62 70
62 72
62 79
62 81
62 84
62 88
62 181
62 189
62 203
63 64
63 65
63 71
63 78
63 80
63 81
63 84
63 87
63 89
63 182
63 188
63 202
63 204
64 65
64 66
64 70
64 72
64 78
64 79
64 80
64 82
64 83
64 88
64 181
64 189
64 203
65 66
65 70
65 72
65 79
65 88
65 181
65 189
65 203
66 71
66 78
66 80
66 81
66 87
66 89
66 182
66 188
66 202
66 204
67 68
67 69
67 73
67 75
67 76
67 77
67 86
67 90
67 92
67 93
67 97
67 98
67 100
67 101
67 102
67 103
67 105
67 106
67 107
67 109
67 110
67 112
67 113
67 114
67 115
67 117
67 118
67 119
67 120
67 121
67 123
67 124
67 125
67 126
67 128
67 129
67 130
67 132
67 133
67 134
67 135
67 137
67 139
67 140
67 141
67 144
67 152
67 153
67 154
67 155
67 157
67 158
67 160
67 161
67 163
67 164
67 165
67 167
67 168
67 169
67 171
67 172
67 173
67 174
67 176
67 177
67 196
67 197
67 199
67 200
67 201
68 69
68 73
68 74
68 75
68 77
68 85
68 86
68 90
68 91
68 92
68 96
68 97
68 99
68 100
68 101
68 103
68 104
68 105
68 107
68 108
68 110
68 111
68 112
68 113
68 115
68 116
68 117
68 118
68 119
68 121
68 122
68 123
68 124
68 126
68 127
68 130
68 131
68 135
68 136
68 138
68 139
68 140
68 143
68 151
68 152
68 153
68 154
68 156
68 159
68 162
68 166
68 170
68 175
68 195
68 198
69 73
69 74
69 75
69 76
69 85
69 91
69 93
69 96
69 98
69 99
69 100
69 101
69 102
69 104
69 105
69 106
69 108
69 109
69 111
69 112
69 113
69 114
69 116
69 117
69 118
69 119
69 120
69 122
69 123
69 124
69 125
69 127
69 128
69 129
69 131
69 132
69 133
69 134
69 137
69 138
69 141
69 143
69 151
69 155
69 156
69 159
69 162
69 166
69 170
69 175
69 195
69 198
70 71
70 78
70 80
70 81
70 87
70 89
70 182
70 188
70 202
70 204
71 72
71 79
71 80
71 81
71 83
71 84
71 88
71 89
71 95
71 181
71 189
71 203
72 78
72 80
72 81
72 82
72 87
72 89
72 94
72 182
72 188
72 202
72 204
73 74
73 75
73 76
73 77
73 85
73 86
73 91
73 92
73 93
73 96
73 97
73 98
73 99
73 100
73 102
73 103
73 104
73 106
73 107
73 108
73 110
73 111
73 112
73 114
73 115
73 116
73 117
73 120
73 121
73 122
73 125
73 126
73 127
73 130
73 131
73 132
73 135
73 136
73 137
73 138
73 139
73 141
73 142
73 143
73 144
73 146
73 147
73 148
73 151
73 152
73 155
73 156
73 157
73 159
73 160
73 162
73 163
73 166
73 167
73 170
73 171
73 175
73 190
73 195
73 198
74 75
74 76
74 77
74 86
74 90
74 92
74 93
74 97
74 98
74 100
74 101
74 102
74 103
74 105
74 106
74 107
74 109
74 110
74 112
74 113
74 114
74 115
74 117
74 118
74 119
74 120
74 121
74 123
74 124
74 125
74 126
74 128
74 129
74 130
74 132
74 133
74 134
74 135
74 136
74 137
74 139
74 140
74 141
74 142
74 144
74 145
74 146
74 148
74 152
74 153
74 154
74 155
74 157
74 158
74 160
74 161
74 163
74 164
74 165
74 167
74 168
74 169
74 171
74 172
74 173
74 174
74 176
74 177
74 190
74 196
74 197
74 199
74 200
74 201
75 76
75 77
75 85
75 86
75 90
75 91
75 93
75 96
75 98
75 99
75 101
75 102
75 103
75 104
75 106
75 107
75 108
75 110
75 111
75 113
75 114
75 115
75 116
75 118
75 119
75 120
75 121
75 122
75 125
75 126
75 127
75 130
75 131
75 133
75 134
75 135
75 137
75 138
75 140
75 141
75 143
75 145
75 147
75 149
75 151
75 153
75 154
75 155
75 156
75 158
75 159
75 161
75 162
75 164
75 165
75 166
75 168
75 169
75 170
75 172
75 173
75 174
75 175
75 191
75 192
75 195
75 198
76 77
76 85
76 86
76 90
76 91
76 92
76 96
76 97
76 99
76 100
76 101
76 103
76 104
76 105
76 107
76 108
76 110
76 111
76 112
76 113
76 115
76 116
76 117
76 118
76 119
76 121
76 122
76 123
76 124
76 126
76 127
76 130
76 131
76 132
76 135
76 136
76 138
76 139
76 140
76 142
76 143
76 144
76 145
76 146
76 148
76 151
76 152
76 153
76 154
76 156
76 157
76 159
76 160
76 162
76 163
76 166
76 167
76 170
76 171
76 175
76 190
76 195
76 198
77 85
77 90
77 91
77 92
77 93
77 96
77 97
77 98
77 99
77 100
77 101
77 102
77 104
77 105
77 106
77 108
77 109
77 111
77 112
77 113
77 114
77 116
77 117
77 118
77 119
77 120
77 122
77 123
77 124
77 125
77 127
77 128
77 129
77 131
77 132
77 133
77 134
77 136
77 137
77 138
77 139
77 141
77 142
77 143
77 144
77 145
77 146
77 148
77 151
77 152
77 155
77 156
77 157
77 159
77 160
77 162
77 163
77 166
77 167
77 170
77 171
77 175
77 190
77 195
77 198
78 79
78 80
78 81
78 83
78 84
78 88
78 89
78 95
78 181
78 182
78 189
78 203
78 217
79 80
79 81
79 82
79 83
79 84
79 87
79 89
79 94
79 95
79 182
79 188
79 202
79 204
79 217
80 81
80 82
80 84
80 87
80 88
80 94
80 181
80 189
80 203
81 82
81 83
81 87
81 88
81 89
81 94
81 95
81 181
81 182
81 189
81 203
81 217
82 83
82 84
82 88
82 89
82 95
82 182
82 217
83 84
83 87
83 88
83 94
83 181
84 87
84 89
84 94
84 95
84 182
84 217
85 86
85 90
85 92
85 93
85 97
85 98
85 100
85 101
85 102
85 103
85 105
85 106
85 107
85 109
85 110
85 112
85 113
85 114
85 115
85 117
85 118
85 119
85 120
85 121
85 123
85 124
85 125
85 126
85 128
85 129
85 130
85 132
85 133
85 134
85 135
85 139
85 140
85 141
85 144
85 152
85 153
85 154
85 155
85 157
85 158
85 160
85 161
85 163
85 164
85 165
85 167
85 168
85 169
85 171
85 172
85 173
85 174
85 176
85 177
85 196
85 197
85 199
85 200
85 201
86 91
86 96
86 99
86 100
86 101
86 102
86 104
86 105
86 106
86 108
86 109
86 111
86 112
86 113
86 114
86 116
86 117
86 118
86 119
86 120
86 122
86 123
86 124
86 125
86 127
86 128
86 129
86 131
86 132
86 133
86 134
86 138
86 143
86 151
86 156
86 159
86 162
86 166
86 170
86 175
86 195
86 198
87 88
87 89
87 95
87 181
87 182
87 189
87 203
87 217
88 89
88 94
88 95
88 182
88 188
88 202
88 204
88 217
89 94
89 181
89 189
89 203
90 91
90 92
90 93
90 96
90 97
90 98
90 99
90 100
90 102
90 104
90 106
90 108
90 111
90 112
90 114
90 116
90 117
90 120
90 122
90 125
90 127
90 131
90 132
90 136
90 137
90 138
90 139
90 141
90 142
90 143
90 144
90 146
90 147
90 148
90 151
90 152
90 155
90 156
90 157
90 159
90 160
90 162
90 163
90 166
90 167
90 170
90 171
90 175
90 190
90 195
90 198
91 92
91 93
91 97
91 98
91 100
91 101
91 102
91 103
91 105
91 106
91 107
91 109
91 110
91 112
91 113
91 114
91 115
91 117
91 118
91 119
91 120
91 121
91 123
91 124
91 125
91 126
91 128
91 129
91 130
91 132
91 133
91 134
91 135
91 136
91 137
91 139
91 140
91 141
91 142
91 144
91 145
91 146
91 148
91 152
91 153
91 154
91 155
91 157
91 158
91 160
91 161
91 163
91 164
91 165
91 167
91 168
91 169
91 171
91 172
91 173
91 174
91 176
91 177
91 190
91 196
91 197
91 199
91 200
91 201
92 93
92 96
92 98
92 99
92 101
92 102
92 103
92 104
92 106
92 108
92 111
92 113
92 114
92 115
92 116
92 118
92 119
92 120
92 121
92 122
92 125
92 127
92 131
92 133
92 134
92 135
92 137
92 138
92 140
92 141
92 143
92 145
92 147
92 149
92 151
92 153
92 154
92 155
92 156
92 158
92 159
92 161
92 162
92 164
92 165
92 166
92 168
92 169
92 170
92 172
92 173
92 174
92 175
92 191
92 192
92 195
92 198
93 96
93 97
93 99
93 100
93 101
93 103
93 104
93 105
93 107
93 108
93 111
93 112
93 113
93 115
93 116
93 117
93 118
93 119
93 121
93 122
93 123
93 124
93 126
93 127
93 131
93 132
93 136
93 138
93 139
93 140
93 142
93 143
93 144
93 145
93 146
93 148
93 151
93 152
93 153
93 154
93 156
93 157
93 159
93 160
93 162
93 163
93 166
93 167
93 170
93 171
93 175
93 190
93 195
93 198
94 95
94 182
94 217
95 181
96 97
96 98
96 100
96 101
96 102
96 103
96 105
96 106
96 107
96 109
96 110
96 112
96 113
96 114
96 115
96 117
96 118
96 119
96 120
96 121
96 123
96 124
96 125
96 126
96 128
96 129
96 130
96 132
96 133
96 134
96 135
96 136
96 137
96 139
96 140
96 141
96 142
96 144
96 146
96 148
96 152
96 153
96 154
96 155
96 157
96 158
96 160
96 161
96 163
96 164
96 165
96 167
96 168
96 169
96 171
96 172
96 173
96 174
96 176
96 177
96 190
96 196
96 197
96 199
96 200
96 201
97 98
97 99
97 101
97 102
97 103
97 104
97 106
97 108
97 111
97 113
97 114
97 115
97 116
97 118
97 119
97 120
97 121
97 122
97 125
97 127
97 131
97 133
97 134
97 135
97 137
97 138
97 140
97 141
97 143
97 145
97 147
97 149
97 151
97 153
97 154
97 155
97 156
97 158
97 159
97 161
97 162
97 164
97 165
97 166
97 168
97 169
97 170
97 172
97 173
97 174
97 175
97 191
97 192
97 195
97 198
98 99
98 100
98 101
98 103
98 104
98 105
98 107
98 108
98 111
98 112
98 113
98 115
98 116
98 117
98 118
98 119
98 121
98 122
98 123
98 124
98 126
98 127
98 131
98 132
98 136
98 138
98 139
98 140
98 142
98 143
98 144
98 146
98 148
98 151
98 152
98 153
98 154
98 156
98 157
98 159
98 160
98 162
98 163
98 166
98 167
98 170
98 171
98 175
98 190
98 195
98 198
99 100
99 101
99 102
99 103
99 105
99 106
99 107
99 109
99 110
99 112
99 113
99 114
99 115
99 117
99 118
99 119
99 120
99 121
99 123
99 124
99 125
99 126
99 128
99 129
99 130
99 132
99 133
99 134
99 135
99 136
99 137
99 139
99 140
99 141
99 142
99 144
99 146
99 148
99 152
99 153
99 154
99 155
99 157
99 158
99 160
99 161
99 163
99 164
99 165
99 167
99 168
99 169
99 171
99 172
99 173
99 174
99 176
99 177
99 190
99 196
99 197
99 199
99 200
99 201
99 207
99 209
99 222
100 101
100 102
100 103
100 104
100 105
100 106
100 107
100 108
100 109
100 110
100 111
100 113
100 114
100 115
100 116
100 118
100 119
100 120
100 121
100 122
100 124
100 125
100 126
100 127
100 129
100 130
100 131
100 133
100 134
100 135
100 137
100 138
100 140
100 141
100 143
100 145
100 147
100 149
100 151
100 153
100 154
100 155
100 156
100 158
100 159
100 161
100 162
100 164
100 165
100 166
100 168
100 169
100 170
100 172
100 173
100 174
100 175
100 177
100 191
100 192
100 195
100 198
100 201
100 207
100 209
100 222
101 102
101 103
101 104
101 106
101 107
101 108
101 110
101 111
101 112
101 114
101 115
101 116
101 117
101 118
101 120
101 121
101 122
101 123
101 125
101 126
101 127
101 128
101 130
101 131
101 132
101 133
101 135
101 136
101 137
101 138
101 139
101 141
101 142
101 143
101 144
101 146
101 148
101 151
101 152
101 153
101 155
101 156
101 157
101 159
101 160
101 162
101 163
101 164
101 166
101 167
101 170
101 171
101 172
101 173
101 175
101 176
101 190
101 195
101 198
101 199
101 200
101 205
101 206
101 208
102 103
102 104
102 105
102 107
102 108
102 109
102 110
102 111
102 112
102 113
102 115
102 116
102 117
102 118
102 119
102 121
102 122
102 123
102 124
102 126
102 127
102 129
102 130
102 131
102 132
102 134
102 135
102 136
102 138
102 139
102 140
102 142
102 143
102 144
102 146
102 148
102 151
102 152
102 153
102 154
102 156
102 157
102 159
102 160
102 162
102 163
102 165
102 166
102 167
102 170
102 171
102 174
102 175
102 177
102 190
102 195
102 198
102 201
102 207
102 209
102 222
103 104
103 105
103 106
103 108
103 109
103 111
103 112
103 113
103 114
103 116
103 117
103 118
103 119
103 120
103 122
103 123
103 124
103 125
103 127
103 128
103 129
103 131
103 132
103 133
103 134
103 136
103 137
103 138
103 139
103 141
103 142
103 143
103 144
103 146
103 148
103 151
103 152
103 154
103 155
103 156
103 157
103 159
103 160
103 162
103 163
103 165
103 166
103 167
103 170
103 171
103 174
103 175
103 177
103 190
103 195
103 198
103 201
103 207
103 209
103 222
104 105
104 106
104 107
104 109
104 110
104 112
104 113
104 114
104 115
104 117
104 118
104 119
104 120
104 121
104 123
104 124
104 125
104 126
104 128
104 129
104 130
104 132
104 133
104 134
104 135
104 137
104 139
104 140
104 141
104 144
104 152
104 153
104 154
104 155
104 157
104 158
104 160
104 161
104 163
104 164
104 165
104 167
104 168
104 169
104 171
104 172
104 173
104 174
104 176
104 177
104 196
104 197
104 199
104 200
104 201
104 207
104 209
104 222
105 106
105 107
105 108
105 110
105 111
105 114
105 115
105 116
105 117
105 118
105 120
105 121
105 122
105 123
105 125
105 126
105 127
105 128
105 130
105 131
105 132
105 133
105 135
105 137
105 138
105 141
105 143
105 151
105 152
105 153
105 155
105 156
105 159
105 162
105 163
105 164
105 166
105 170
105 171
105 172
105 173
105 175
105 176
105 195
105 198
105 199
105 200
105 205
105 206
105 208
106 107
106 108
106 109
106 110
106 111
106 112
106 113
106 115
106 116
106 117
106 118
106 119
106 121
106 122
106 123
106 124
106 126
106 127
106 129
106 130
106 131
106 134
106 135
106 136
106 138
106 139
106 140
106 143
106 151
106 152
106 153
106 154
106 156
106 159
106 162
106 165
106 166
106 170
106 174
106 175
106 177
106 195
106 198
106 201
106 207
106 209
106 222
107 108
107 109
107 111
107 112
107 113
107 114
107 116
107 117
107 118
107 119
107 120
107 122
107 123
107 124
107 125
107 127
107 128
107 129
107 131
107 132
107 133
107 134
107 137
107 138
107 141
107 143
107 151
107 154
107 155
107 156
107 159
107 162
107 165
107 166
107 170
107 174
107 175
107 177
107 195
107 198
107 201
107 207
107 209
107 222
108 109
108 110
108 112
108 113
108 114
108 115
108 117
108 118
108 119
108 120
108 121
108 123
108 124
108 125
108 126
108 128
108 129
108 130
108 132
108 133
108 134
108 135
108 139
108 140
108 141
108 144
108 152
108 153
108 154
108 155
108 157
108 158
108 160
108 161
108 163
108 164
108 165
108 167
108 168
108 169
108 171
108 172
108 173
108 174
108 176
108 177
108 196
108 197
108 199
108 200
108 201
108 207
108 209
108 222
109 110
109 111
109 115
109 116
109 117
109 118
109 120
109 121
109 122
109 123
109 125
109 126
109 127
109 128
109 130
109 131
109 132
109 133
109 135
109 138
109 143
109 151
109 152
109 153
109 155
109 156
109 159
109 162
109 163
109 164
109 166
109 170
109 171
109 172
109 173
109 175
109 176
109 195
109 198
109 199
109 200
109 205
109 206
109 208
110 111
110 112
110 113
110 114
110 116
110 117
110 118
110 119
110 120
110 122
110 123
110 124
110 125
110 127
110 128
110 129
110 131
110 132
110 133
110 134
110 138
110 143
110 151
110 154
110 156
110 159
110 162
110 165
110 166
110 170
110 174
110 175
110 177
110 195
110 198
110 201
110 207
110 209
110 222
111 112
111 113
111 114
111 115
111 117
111 118
111 119
111 120
111 121
111 123
111 124
111 125
111 126
111 128
111 129
111 130
111 132
111 133
111 134
111 135
111 136
111 137
111 139
111 140
111 141
111 142
111 144
111 146
111 148
111 152
111 153
111 154
111 155
111 157
111 158
111 160
111 161
111 163
111 164
111 165
111 167
111 168
111 169
111 171
111 172
111 173
111 174
111 176
111 177
111 190
111 192
111 194
111 196
111 197
111 199
111 200
111 201
111 206
111 208
111 219
112 113
112 114
112 115
112 116
112 118
112 119
112 120
112 121
112 122
112 123
112 125
112 126
112 127
112 128
112 130
112 131
112 133
112 134
112 135
112 137
112 138
112 140
112 141
112 143
112 145
112 147
112 149
112 151
112 153
112 154
112 155
112 156
112 158
112 159
112 161
112 162
112 164
112 165
112 166
112 168
112 169
112 170
112 172
112 173
112 174
112 175
112 176
112 191
112 192
112 194
112 195
112 197
112 198
112 200
112 206
112 208
112 219
113 114
113 115
113 116
113 117
113 119
113 120
113 121
113 122
113 124
113 125
113 126
113 127
113 129
113 130
113 131
113 132
113 134
113 135
113 136
113 137
113 138
113 139
113 141
113 142
113 143
113 144
113 146
113 148
113 151
113 152
113 154
113 155
113 156
113 157
113 159
113 160
113 162
113 163
113 165
113 166
113 167
113 168
113 170
113 171
113 172
113 174
113 175
113 177
113 190
113 191
113 193
113 195
113 196
113 198
113 199
113 201
113 205
113 207
113 209
114 115
114 116
114 117
114 118
114 119
114 121
114 122
114 123
114 124
114 126
114 127
114 128
114 130
114 131
114 132
114 133
114 135
114 136
114 138
114 139
114 140
114 142
114 143
114 144
114 146
114 148
114 151
114 152
114 153
114 154
114 156
114 157
114 159
114 160
114 161
114 162
114 163
114 164
114 166
114 167
114 169
114 170
114 171
114 173
114 175
114 176
114 190
114 192
114 194
114 195
114 197
114 198
114 200
114 206
114 208
114 219
115 116
115 117
115 118
115 119
115 120
115 122
115 123
115 124
115 125
115 127
115 128
115 129
115 131
115 132
115 133
115 134
115 136
115 137
115 138
115 139
115 140
115 141
115 142
115 143
115 144
115 146
115 148
115 151
115 152
115 153
115 155
115 156
115 157
115 159
115 160
115 161
115 162
115 163
115 164
115 166
115 167
115 169
115 170
115 171
115 173
115 175
115 176
115 190
115 192
115 194
115 195
115 197
115 198
115 200
115 206
115 208
115 219
116 117
116 118
116 119
116 120
116 121
116 123
116 124
116 125
116 126
116 128
116 129
116 130
116 132
116 133
116 134
116 135
116 136
116 137
116 139
116 140
116 141
116 142
116 144
116 146
116 148
116 152
116 153
116 154
116 155
116 157
116 158
116 160
116 161
116 163
116 164
116 165
116 167
116 168
116 169
116 171
116 172
116 173
116 174
116 176
116 177
116 190
116 192
116 194
116 196
116 197
116 199
116 200
116 201
116 206
116 207
116 208
116 209
116 219
116 222
117 118
117 119
117 120
117 121
117 122
117 123
117 124
117 125
117 126
117 127
117 128
117 129
117 130
117 131
117 133
117 134
117 135
117 137
117 138
117 140
117 141
117 143
117 145
117 147
117 149
117 151
117 153
117 154
117 155
117 156
117 158
117 159
117 161
117 162
117 164
117 165
117 166
117 168
117 169
117 170
117 172
117 173
117 174
117 175
117 176
117 177
117 191
117 192
117 194
117 195
117 197
117 198
117 200
117 201
117 206
117 207
117 208
117 209
117 219
117 222
118 119
118 120
118 121
118 122
118 124
118 125
118 126
118 127
118 129
118 130
118 131
118 132
118 134
118 135
118 136
118 137
118 138
118 139
118 141
118 142
118 143
118 144
118 146
118 148
118 151
118 152
118 154
118 155
118 156
118 157
118 159
118 160
118 162
118 163
118 165
118 166
118 167
118 168
118 170
118 171
118 172
118 174
118 175
118 177
118 190
118 191
118 193
118 195
118 196
118 198
118 199
118 201
118 205
118 207
118 209
118 222
119 120
119 121
119 122
119 123
119 125
119 126
119 127
119 128
119 130
119 131
119 132
119 133
119 135
119 136
119 137
119 138
119 139
119 140
119 141
119 142
119 143
119 144
119 146
119 148
119 151
119 152
119 153
119 155
119 156
119 157
119 159
119 160
119 161
119 162
119 163
119 164
119 166
119 167
119 169
119 170
119 171
119 172
119 173
119 175
119 176
119 190
119 192
119 194
119 195
119 197
119 198
119 199
119 200
119 205
119 206
119 208
119 219
120 121
120 122
120 123
120 124
120 126
120 127
120 128
120 129
120 130
120 131
120 132
120 133
120 134
120 135
120 136
120 138
120 139
120 140
120 142
120 143
120 144
120 146
120 148
120 151
120 152
120 153
120 154
120 156
120 157
120 159
120 160
120 161
120 162
120 163
120 164
120 165
120 166
120 167
120 169
120 170
120 171
120 173
120 174
120 175
120 176
120 177
120 190
120 192
120 194
120 195
120 197
120 198
120 200
120 201
120 206
120 207
120 208
120 209
120 219
120 222
121 122
121 123
121 124
121 125
121 127
121 128
121 129
121 131
121 132
121 133
121 134
121 136
121 137
121 138
121 139
121 140
121 141
121 142
121 143
121 144
121 146
121 148
121 151
121 152
121 153
121 154
121 155
121 156
121 157
121 159
121 160
121 161
121 162
121 163
121 164
121 165
121 166
121 167
121 169
121 170
121 171
121 173
121 174
121 175
121 176
121 177
121 190
121 192
121 194
121 195
121 197
121 198
121 200
121 201
121 206
121 207
121 208
121 209
121 219
121 222
122 123
122 124
122 125
122 126
122 128
122 129
122 130
122 132
122 133
122 134
122 135
122 137
122 139
122 140
122 141
122 144
122 152
122 153
122 154
122 155
122 157
122 158
122 160
122 161
122 163
122 164
122 165
122 167
122 168
122 169
122 171
122 172
122 173
122 174
122 176
122 177
122 192
122 194
122 196
122 197
122 199
122 200
122 201
122 206
122 207
122 208
122 209
122 219
122 222
123 124
123 125
123 126
123 127
123 129
123 130
123 131
123 132
123 134
123 135
123 137
123 138
123 139
123 141
123 143
123 151
123 152
123 154
123 155
123 156
123 159
123 160
123 162
123 163
123 165
123 166
123 167
123 168
123 170
123 171
123 172
123 174
123 175
123 177
123 190
123 191
123 193
123 195
123 196
123 198
123 199
123 201
123 205
123 207
123 209
123 222
124 125
124 126
124 127
124 128
124 130
124 131
124 132
124 133
124 135
124 137
124 138
124 140
124 141
124 143
124 151
124 152
124 153
124 155
124 156
124 159
124 161
124 162
124 163
124 164
124 166
124 169
124 170
124 171
124 172
124 173
124 175
124 176
124 192
124 194
124 195
124 197
124 198
124 199
124 200
124 205
124 206
124 208
124 219
125 126
125 127
125 128
125 129
125 130
125 131
125 133
125 134
125 135
125 136
125 138
125 139
125 140
125 143
125 151
125 152
125 153
125 154
125 156
125 159
125 161
125 162
125 164
125 165
125 166
125 169
125 170
125 173
125 174
125 175
125 176
125 177
125 192
125 194
125 195
125 197
125 198
125 200
125 201
125 206
125 207
125 208
125 209
125 219
125 222
126 127
126 128
126 129
126 131
126 132
126 133
126 134
126 137
126 138
126 140
126 141
126 143
126 151
126 153
126 154
126 155
126 156
126 159
126 161
126 162
126 164
126 165
126 166
126 169
126 170
126 173
126 174
126 175
126 176
126 177
126 192
126 194
126 195
126 197
126 198
126 200
126 201
126 206
126 207
126 208
126 209
126 219
126 222
127 128
127 129
127 130
127 132
127 133
127 134
127 135
127 139
127 140
127 141
127 144
127 152
127 153
127 154
127 155
127 157
127 158
127 160
127 161
127 163
127 164
127 165
127 167
127 168
127 169
127 171
127 172
127 173
127 174
127 176
127 177
127 192
127 194
127 196
127 197
127 199
127 200
127 201
127 206
127 207
127 208
127 209
127 219
127 222
128 129
128 130
128 131
128 132
128 134
128 135
128 138
128 139
128 141
128 143
128 151
128 152
128 154
128 155
128 156
128 159
128 160
128 162
128 163
128 165
128 166
128 167
128 168
128 170
128 171
128 172
128 174
128 175
128 177
128 190
128 191
128 193
128 195
128 196
128 198
128 199
128 201
128 205
128 207
128 209
128 222
129 130
129 131
129 132
129 133
129 135
129 138
129 140
129 143
129 151
129 152
129 153
129 155
129 156
129 159
129 161
129 162
129 163
129 164
129 166
129 169
129 170
129 171
129 172
129 173
129 175
129 176
129 192
129 194
129 195
129 197
129 198
129 199
129 200
129 205
129 206
129 208
129 219
130 131
130 132
130 133
130 134
130 138
130 140
130 143
130 151
130 153
130 154
130 156
130 159
130 161
130 162
130 164
130 165
130 166
130 169
130 170
130 173
130 174
130 175
130 176
130 177
130 192
130 194
130 195
130 197
130 198
130 200
130 201
130 206
130 207
130 208
130 209
130 219
130 222
131 132
131 133
131 134
131 135
131 136
131 139
131 140
131 141
131 142
131 144
131 146
131 148
131 152
131 153
131 154
131 155
131 157
131 158
131 160
131 161
131 163
131 164
131 165
131 167
131 168
131 169
131 171
131 172
131 173
131 174
131 176
131 177
131 190
131 192
131 194
131 196
131 197
131 199
131 200
131 201
131 206
131 207
131 208
131 209
131 219
131 222
132 133
132 134
132 135
132 137
132 138
132 140
132 141
132 143
132 145
132 147
132 149
132 151
132 153
132 154
132 155
132 156
132 158
132 159
132 161
132 162
132 164
132 165
132 166
132 168
132 169
132 170
132 172
132 173
132 174
132 175
132 176
132 177
132 191
132 192
132 194
132 195
132 197
132 198
132 200
132 201
132 206
132 207
132 208
132 209
132 219
132 222
133 134
133 135
133 136
133 138
133 139
133 141
133 142
133 143
133 144
133 146
133 148
133 151
133 152
133 154
133 155
133 156
133 157
133 159
133 160
133 162
133 163
133 165
133 166
133 167
133 168
133 170
133 171
133 172
133 174
133 175
133 177
133 190
133 191
133 193
133 195
133 196
133 198
133 199
133 201
133 205
133 207
133 209
133 222
134 135
134 136
134 138
134 139
134 140
134 142
134 143
134 144
134 146
134 148
134 151
134 152
134 153
134 155
134 156
134 157
134 159
134 160
134 161
134 162
134 163
134 164
134 166
134 167
134 169
134 170
134 171
134 172
134 173
134 175
134 176
134 190
134 192
134 194
134 195
134 197
134 198
134 199
134 200
134 205
134 206
134 208
134 219
135 136
135 138
135 139
135 140
135 142
135 143
135 144
135 146
135 148
135 151
135 152
135 153
135 154
135 156
135 157
135 159
135 160
135 161
135 162
135 163
135 164
135 165
135 166
135 167
135 169
135 170
135 171
135 173
135 174
135 175
135 176
135 177
135 190
135 192
135 194
135 195
135 197
135 198
135 200
135 201
135 206
135 207
135 208
135 209
135 219
135 222
136 137
136 138
136 140
136 141
136 143
136 145
136 147
136 149
136 151
136 153
136 154
136 155
136 156
136 158
136 159
136 161
136 162
136 164
136 165
136 166
136 168
136 169
136 170
136 172
136 173
136 174
136 191
136 192
137 138
137 139
137 140
137 142
137 144
137 146
137 148
137 151
137 152
137 153
137 154
137 157
137 160
137 163
137 167
137 171
137 190
138 139
138 140
138 141
138 142
138 144
138 146
138 148
138 152
138 153
138 154
138 155
138 157
138 158
138 160
138 161
138 163
138 164
138 165
138 167
138 168
138 169
138 171
138 172
138 173
138 174
138 176
138 177
138 190
138 192
138 194
138 196
138 197
138 199
138 200
138 201
138 206
138 208
138 219
139 140
139 141
139 143
139 145
139 147
139 149
139 151
139 153
139 154
139 155
139 156
139 158
139 159
139 161
139 162
139 164
139 165
139 166
139 168
139 169
139 170
139 172
139 173
139 174
139 175
139 176
139 191
139 192
139 194
139 195
139 197
139 198
139 200
139 206
139 208
139 219
140 141
140 142
140 143
140 144
140 146
140 148
140 151
140 152
140 154
140 155
140 156
140 157
140 159
140 160
140 162
140 163
140 165
140 166
140 167
140 168
140 170
140 171
140 172
140 174
140 175
140 177
140 190
140 191
140 193
140 195
140 196
140 198
140 199
140 201
140 205
140 207
140 209
141 142
141 143
141 144
141 146
141 148
141 151
141 152
141 153
141 154
141 156
141 157
141 159
141 160
141 161
141 162
141 163
141 164
141 166
141 167
141 169
141 170
141 171
141 173
141 175
141 176
141 190
141 192
141 194
141 195
141 197
141 198
141 200
141 206
141 208
141 219
142 143
142 145
142 147
142 149
142 151
142 153
142 154
142 155
142 156
142 158
142 159
142 161
142 162
142 164
142 165
142 166
142 168
142 169
142 170
142 172
142 173
142 174
142 191
142 192
143 144
143 146
143 148
143 152
143 153
143 154
143 155
143 157
143 158
143 160
143 161
143 163
143 164
143 165
143 167
143 168
143 169
143 171
143 172
143 173
143 174
143 176
143 177
143 190
143 196
143 197
143 199
143 200
143 201
144 145
144 147
144 149
144 151
144 153
144 154
144 155
144 156
144 158
144 159
144 161
144 162
144 164
144 165
144 166
144 168
144 169
144 170
144 172
144 173
144 174
144 175
144 191
144 192
144 195
144 198
145 146
145 147
145 148
145 149
145 150
145 152
145 157
145 158
145 160
145 163
145 167
145 168
145 171
145 172
145 179
145 184
145 190
145 191
145 193
145 196
145 199
145 205
145 212
145 220
145 226
145 230
146 147
146 149
146 150
146 151
146 153
146 154
146 155
146 156
146 158
146 159
146 161
146 162
146 164
146 165
146 166
146 168
146 169
146 170
146 172
146 173
146 174
146 179
146 184
146 191
146 192
146 193
146 196
146 199
146 205
146 212
146 220
146 226
146 230
147 148
147 152
147 156
147 157
147 160
147 163
147 166
147 167
147 169
147 170
147 171
147 173
147 174
147 178
147 183
147 185
147 190
147 192
147 194
147 195
147 197
147 198
147 200
147 201
147 206
147 207
147 210
147 211
147 213
147 221
147 225
147 227
147 229
148 149
148 150
148 151
148 153
148 154
148 155
148 156
148 158
148 159
148 161
148 162
148 164
148 165
148 166
148 168
148 169
148 170
148 172
148 173
148 174
148 179
148 184
148 191
148 192
148 193
148 196
148 199
148 205
148 212
148 220
148 226
148 230
149 152
149 156
149 157
149 160
149 163
149 166
149 167
149 169
149 170
149 171
149 173
149 174
149 178
149 183
149 185
149 190
149 192
149 194
149 195
149 197
149 198
149 200
149 201
149 206
149 207
149 210
149 211
149 213
149 221
149 225
149 227
149 229
150 156
150 157
150 166
150 167
150 169
150 170
150 171
150 173
150 174
150 178
150 183
150 185
150 190
150 192
150 194
150 195
150 197
150 198
150 200
150 201
150 206
150 207
150 210
150 211
150 213
150 221
150 225
150 227
150 229
151 152
151 153
151 154
151 155
151 157
151 158
151 160
151 161
151 163
151 164
151 165
151 167
151 168
151 169
151 171
151 172
151 173
151 174
151 176
151 177
151 190
151 192
151 194
151 196
151 197
151 199
151 200
151 201
151 206
151 207
151 208
151 209
151 219
151 222
152 153
152 154
152 155
152 156
152 158
152 159
152 161
152 162
152 164
152 165
152 166
152 168
152 169
152 170
152 172
152 173
152 174
152 175
152 176
152 177
152 191
152 192
152 194
152 195
152 197
152 198
152 200
152 201
152 206
152 207
152 208
152 209
152 219
152 222
153 154
153 155
153 156
153 157
153 159
153 160
153 162
153 163
153 165
153 166
153 167
153 168
153 170
153 171
153 172
153 174
153 175
153 177
153 190
153 191
153 193
153 195
153 196
153 198
153 199
153 201
153 205
153 207
153 209
153 222
154 155
154 156
154 157
154 159
154 160
154 161
154 162
154 163
154 164
154 166
154 167
154 169
154 170
154 171
154 172
154 173
154 175
154 176
154 190
154 192
154 194
154 195
154 197
154 198
154 199
154 200
154 205
154 206
154 208
154 219
155 156
155 157
155 159
155 160
155 161
155 162
155 163
155 164
155 165
155 166
155 167
155 169
155 170
155 171
155 173
155 174
155 175
155 176
155 177
155 190
155 192
155 194
155 195
155 197
155 198
155 200
155 201
155 206
155 207
155 208
155 209
155 219
155 222
156 157
156 158
156 160
156 161
156 163
156 164
156 165
156 167
156 168
156 169
156 171
156 172
156 173
156 174
156 176
156 177
156 179
156 184
156 190
156 191
156 193
156 196
156 197
156 199
156 200
156 201
156 205
156 212
156 220
156 226
156 230
157 158
157 159
157 161
157 162
157 164
157 165
157 166
157 168
157 169
157 170
157 172
157 173
157 174
157 175
157 179
157 184
157 191
157 192
157 193
157 195
157 196
157 198
157 199
157 205
157 212
157 220
157 226
157 230
158 159
158 160
158 162
158 163
158 166
158 167
158 169
158 170
158 171
158 173
158 174
158 175
158 178
158 183
158 185
158 190
158 192
158 194
158 195
158 197
158 198
158 200
158 201
158 206
158 207
158 210
158 211
158 213
158 221
158 225
158 227
158 229
159 160
159 161
159 163
159 164
159 165
159 167
159 168
159 169
159 171
159 172
159 173
159 174
159 176
159 177
159 190
159 192
159 194
159 196
159 197
159 199
159 200
159 201
159 206
159 208
159 219
160 161
160 162
160 164
160 165
160 166
160 168
160 169
160 170
160 172
160 173
160 174
160 175
160 176
160 191
160 192
160 194
160 195
160 197
160 198
160 200
160 206
160 208
160 219
161 162
161 163
161 165
161 166
161 167
161 168
161 170
161 171
161 172
161 174
161 175
161 177
161 190
161 191
161 193
161 195
161 196
161 198
161 199
161 201
161 205
161 207
161 209
162 163
162 164
162 165
162 167
162 168
162 169
162 171
162 172
162 173
162 174
162 176
162 177
162 190
162 192
162 194
162 196
162 197
162 199
162 200
162 201
162 206
162 207
162 208
162 209
162 219
162 222
163 164
163 165
163 166
163 168
163 169
163 170
163 172
163 173
163 174
163 175
163 176
163 177
163 191
163 192
163 194
163 195
163 197
163 198
163 200
163 201
163 206
163 207
163 208
163 209
163 219
163 222
164 165
164 166
164 167
164 168
164 170
164 171
164 172
164 174
164 175
164 177
164 190
164 191
164 193
164 195
164 196
164 198
164 199
164 201
164 205
164 207
164 209
164 222
165 166
165 167
165 169
165 170
165 171
165 172
165 173
165 175
165 176
165 190
165 192
165 194
165 195
165 197
165 198
165 199
165 200
165 205
165 206
165 208
165 219
166 167
166 168
166 169
166 171
166 172
166 173
166 174
166 176
166 177
166 179
166 184
166 190
166 191
166 192
166 193
166 194
166 196
166 197
166 199
166 200
166 201
166 205
166 206
166 208
166 212
166 219
166 220
166 226
166 230
167 168
167 169
167 170
167 172
167 173
167 174
167 175
167 176
167 179
167 184
167 191
167 192
167 193
167 194
167 195
167 196
167 197
167 198
167 199
167 200
167 205
167 206
167 208
167 212
167 219
167 220
167 226
167 230
168 169
168 170
168 171
168 173
168 174
168 175
168 176
168 178
168 183
168 185
168 190
168 192
168 194
168 195
168 197
168 198
168 200
168 201
168 206
168 207
168 208
168 210
168 211
168 213
168 219
168 221
168 225
168 227
168 229
169 170
169 171
169 172
169 174
169 175
169 177
169 179
169 184
169 190
169 191
169 193
169 195
169 196
169 198
169 199
169 201
169 205
169 207
169 209
169 212
169 220
169 226
169 230
170 171
170 172
170 173
170 174
170 176
170 177
170 179
170 184
170 190
170 191
170 192
170 193
170 194
170 196
170 197
170 199
170 200
170 201
170 205
170 206
170 207
170 208
170 209
170 212
170 219
170 220
170 222
170 226
170 230
171 172
171 173
171 174
171 175
171 176
171 177
171 179
171 184
171 191
171 192
171 193
171 194
171 195
171 196
171 197
171 198
171 199
171 200
171 201
171 205
171 206
171 207
171 208
171 209
171 212
171 219
171 220
171 222
171 226
171 230
172 173
172 174
172 175
172 176
172 177
172 178
172 183
172 185
172 190
172 192
172 194
172 195
172 197
172 198
172 200
172 201
172 206
172 207
172 208
172 209
172 210
172 211
172 213
172 219
172 221
172 222
172 225
172 227
172 229
173 174
173 175
173 177
173 179
173 184
173 190
173 191
173 193
173 195
173 196
173 198
173 199
173 201
173 205
173 207
173 209
173 212
173 220
173 222
173 226
173 230
174 175
174 176
174 179
174 184
174 190
174 191
174 192
174 193
174 194
174 195
174 196
174 197
174 198
174 199
174 200
174 205
174 206
174 208
174 212
174 219
174 220
174 226
174 230
175 176
175 177
175 192
175 194
175 196
175 197
175 199
175 200
175 201
175 206
175 207
175 208
175 209
175 219
175 222
176 177
176 190
176 191
176 193
176 195
176 196
176 198
176 199
176 201
176 205
176 207
176 209
176 222
177 192
177 194
177 195
177 197
177 198
177 199
177 200
177 205
177 206
177 208
177 219
178 179
178 184
178 185
178 187
178 189
178 191
178 193
178 196
178 199
178 203
178 204
178 205
178 210
178 212
178 213
178 214
178 216
178 220
178 226
178 230
179 180
179 183
179 185
179 186
179 188
179 190
179 192
179 194
179 195
179 197
179 198
179 200
179 201
179 202
179 206
179 207
179 210
179 211
179 213
179 215
179 221
179 225
179 227
179 229
180 184
180 185
180 187
180 189
180 203
180 204
180 210
180 212
180 213
180 214
180 216
181 182
181 188
181 202
181 204
181 217
182 189
182 203
183 184
183 185
183 187
183 189
183 191
183 193
183 196
183 199
183 203
183 204
183 205
183 210
183 212
183 213
183 214
183 216
183 218
183 220
183 221
183 224
183 226
183 227
183 230
184 185
184 186
184 187
184 188
184 190
184 192
184 194
184 195
184 197
184 198
184 200
184 201
184 202
184 204
184 206
184 207
184 210
184 211
184 213
184 215
184 216
184 218
184 221
184 224
184 225
184 227
184 229
185 186
185 188
185 191
185 193
185 196
185 199
185 202
185 203
185 205
185 210
185 211
185 212
185 214
185 215
185 220
185 223
185 225
185 226
185 230
186 187
186 189
186 203
186 204
186 210
186 212
186 213
186 214
186 216
186 218
186 221
186 224
186 227
187 188
187 202
187 203
187 210
187 211
187 212
187 214
187 215
187 220
187 223
187 225
187 226
188 189
188 203
188 204
188 210
188 212
188 213
188 214
188 216
189 202
189 204
189 211
189 215
190 191
190 192
190 193
190 194
190 196
190 197
190 199
190 200
190 205
190 206
190 208
190 212
190 219
190 220
190 226
190 230
191 192
191 194
191 195
191 197
191 198
191 200
191 201
191 206
191 207
191 208
191 210
191 211
191 213
191 219
191 221
191 225
191 227
191 229
192 193
192 195
192 196
192 198
192 199
192 201
192 205
192 207
192 209
192 212
192 220
192 226
192 230
193 194
193 195
193 197
193 198
193 200
193 201
193 206
193 207
193 208
193 210
193 211
193 213
193 219
193 221
193 225
193 227
193 229
194 195
194 196
194 198
194 199
194 201
194 205
194 207
194 209
194 212
194 220
194 226
194 230
195 196
195 197
195 199
195 200
195 201
195 205
195 206
195 208
195 212
195 219
195 220
195 226
195 230
196 197
196 198
196 200
196 201
196 206
196 207
196 208
196 210
196 211
196 213
196 219
196 221
196 225
196 227
196 229
197 198
197 199
197 201
197 205
197 207
197 209
197 212
197 220
197 226
197 230
198 199
198 200
198 201
198 205
198 206
198 207
198 208
198 209
198 212
198 219
198 220
198 222
198 226
198 230
199 200
199 201
199 206
199 207
199 208
199 209
199 210
199 211
199 213
199 219
199 221
199 222
199 225
199 227
199 229
200 201
200 205
200 207
200 209
200 212
200 220
200 222
200 226
200 230
201 205
201 206
201 208
201 212
201 219
201 220
201 226
201 230
202 203
202 204
202 210
202 212
202 213
202 214
202 216
202 218
202 221
202 224
202 227
203 204
203 211
203 213
203 215
203 216
203 218
203 221
203 224
203 227
204 210
204 211
204 212
204 214
204 215
204 220
204 223
204 225
204 226
205 206
205 207
205 208
205 209
205 210
205 211
205 213
205 219
205 221
205 222
205 225
205 227
205 229
206 207
206 209
206 212
206 220
206 222
206 226
206 230
207 208
207 212
207 219
207 220
207 226
207 230
208 209
208 222
209 219
210 211
210 212
210 213
210 215
210 216
210 218
210 220
210 221
210 224
210 226
210 227
210 230
211 212
211 213
211 214
211 216
211 218
211 220
211 221
211 223
211 224
211 225
211 226
211 227
211 228
211 229
211 230
212 213
212 214
212 215
212 216
212 218
212 221
212 223
212 224
212 225
212 227
212 228
212 229
213 214
213 215
213 220
213 223
213 225
213 226
213 228
213 229
213 230
214 215
214 216
214 218
214 221
214 224
214 226
214 227
214 230
215 216
215 218
215 221
215 223
215 224
215 225
215 227
215 228
215 229
216 220
216 223
216 225
216 226
216 228
216 229
218 220
218 223
218 225
218 226
220 221
220 224
220 225
220 227
220 229
221 223
221 225
221 226
221 230
223 224
223 226
223 227
223 230
224 225
224 226
224 228
224 229
225 226
225 227
225 230
226 227
226 228
226 229
227 228
227 229
227 230
228 230
229 230
