229:11854
0 2
0 26
0 28
0 41
0 83
0 86
0 88
1 2
1 3
1 5
1 8
1 14
1 17
1 22
1 25
1 26
1 28
1 32
1 35
1 40
1 41
1 52
1 58
1 70
1 78
1 83
1 86
1 88
2 4
2 6
2 7
2 11
2 12
2 13
2 15
2 16
2 21
2 23
2 24
2 26
2 27
2 29
2 30
2 31
2 33
2 34
2 36
2 37
2 38
2 39
2 42
2 48
2 49
2 50
2 51
2 53
2 54
2 55
2 56
2 57
2 66
2 67
2 68
2 69
2 75
2 76
2 77
2 82
2 87
3 4
3 6
3 7
3 11
3 12
3 13
3 15
3 16
3 21
3 23
3 24
3 26
3 27
3 29
3 30
3 31
3 33
3 34
3 36
3 37
3 38
3 39
3 48
3 49
3 50
3 51
3 53
3 54
3 55
3 56
3 57
3 66
3 67
3 68
3 69
3 75
3 76
3 77
4 5
4 7
4 8
4 10
4 12
4 13
4 14
4 16
4 17
4 19
4 20
4 22
4 24
4 25
4 28
4 30
4 31
4 32
4 35
4 37
4 38
4 39
4 40
4 45
4 46
4 47
4 49
4 50
4 51
4 52
4 54
4 55
4 56
4 57
4 58
4 60
4 61
4 62
4 63
4 67
4 68
4 69
4 70
4 72
4 73
4 74
4 78
5 6
5 7
5 9
5 11
5 12
5 13
5 15
5 16
5 18
5 21
5 23
5 24
5 26
5 27
5 29
5 30
5 31
5 33
5 34
5 36
5 37
5 38
5 39
5 44
5 48
5 49
5 50
5 51
5 53
5 54
5 55
5 56
5 57
5 59
5 66
5 67
5 68
5 69
5 71
5 75
5 76
5 77
6 7
6 8
6 10
6 12
6 13
6 14
6 16
6 17
6 19
6 20
6 22
6 24
6 25
6 28
6 30
6 31
6 32
6 35
6 37
6 38
6 39
6 40
6 45
6 46
6 47
6 49
6 50
6 51
6 52
6 54
6 55
6 56
6 57
6 58
6 60
6 61
6 62
6 63
6 67
6 68
6 69
6 70
6 72
6 73
6 74
6 78
6 92
6 106
7 8
7 9
7 11
7 12
7 14
7 15
7 17
7 18
7 19
7 22
7 23
7 25
7 28
7 29
7 32
7 35
7 36
7 37
7 38
7 40
7 44
7 45
7 46
7 48
7 49
7 50
7 52
7 53
7 54
7 55
7 56
7 58
7 59
7 60
7 61
7 62
7 66
7 70
7 71
7 78
7 89
7 90
7 91
7 104
7 105
8 9
8 10
8 11
8 12
8 13
8 15
8 16
8 18
8 20
8 21
8 23
8 24
8 26
8 27
8 29
8 30
8 31
8 33
8 34
8 36
8 37
8 38
8 39
8 44
8 47
8 48
8 49
8 50
8 51
8 53
8 54
8 55
8 56
8 57
8 59
8 63
8 66
8 67
8 68
8 69
8 71
8 75
8 76
8 77
8 92
8 106
9 10
9 12
9 13
9 14
9 16
9 17
9 19
9 20
9 24
9 25
9 30
9 31
9 32
9 37
9 38
9 39
9 40
9 45
9 46
9 47
9 49
9 50
9 51
9 52
9 54
9 55
9 56
9 57
9 58
9 60
9 61
9 62
9 63
9 67
9 68
9 69
9 70
9 72
9 73
9 74
9 92
9 106
10 11
10 12
10 14
10 15
10 18
10 19
10 23
10 29
10 36
10 37
10 38
10 40
10 44
10 45
10 46
10 48
10 49
10 50
10 52
10 53
10 54
10 55
10 56
10 58
10 59
10 60
10 61
10 62
10 66
10 71
10 89
10 90
10 91
10 104
10 105
11 12
11 13
11 14
11 16
11 17
11 19
11 20
11 22
11 24
11 25
11 28
11 30
11 31
11 32
11 34
11 35
11 37
11 38
11 39
11 40
11 45
11 46
11 47
11 49
11 50
11 51
11 52
11 54
11 55
11 56
11 57
11 58
11 60
11 61
11 62
11 63
11 65
11 67
11 68
11 69
11 70
11 72
11 73
11 74
11 77
11 78
11 81
11 91
11 92
11 97
11 105
11 106
11 110
11 113
11 117
11 125
11 131
11 151
11 157
11 182
11 192
11 199
12 13
12 14
12 15
12 17
12 18
12 20
12 22
12 23
12 25
12 28
12 29
12 30
12 32
12 33
12 35
12 36
12 37
12 39
12 40
12 44
12 45
12 47
12 48
12 49
12 51
12 52
12 53
12 54
12 55
12 57
12 58
12 59
12 60
12 61
12 63
12 64
12 66
12 67
12 68
12 70
12 71
12 72
12 73
12 75
12 76
12 78
12 79
12 80
12 89
12 90
12 92
12 95
12 96
12 104
12 106
12 107
12 108
12 109
12 111
12 112
12 114
12 115
12 116
12 121
12 122
12 123
12 124
12 130
12 148
12 149
12 150
12 152
12 153
12 154
12 155
12 156
12 158
12 179
12 180
12 181
12 183
12 190
12 191
12 197
12 198
12 200
13 14
13 15
13 16
13 17
13 18
13 19
13 22
13 23
13 25
13 28
13 29
13 31
13 32
13 34
13 35
13 36
13 37
13 38
13 40
13 44
13 45
13 46
13 48
13 49
13 50
13 52
13 53
13 54
13 55
13 56
13 58
13 59
13 60
13 61
13 62
13 65
13 66
13 69
13 70
13 71
13 74
13 77
13 78
13 81
13 89
13 90
13 91
13 97
13 104
13 105
13 110
13 113
13 117
13 125
13 131
13 151
13 157
13 182
13 192
13 199
14 15
14 16
14 18
14 19
14 20
14 21
14 23
14 24
14 26
14 27
14 29
14 30
14 31
14 33
14 34
14 36
14 37
14 38
14 39
14 44
14 46
14 47
14 48
14 49
14 50
14 51
14 53
14 54
14 55
14 56
14 57
14 59
14 62
14 63
14 65
14 66
14 67
14 68
14 69
14 71
14 74
14 75
14 76
14 77
14 81
14 91
14 92
14 97
14 105
14 106
14 110
14 113
14 117
14 125
14 131
14 151
14 157
14 182
14 192
14 199
15 16
15 17
15 19
15 20
15 22
15 24
15 25
15 28
15 30
15 31
15 32
15 34
15 35
15 37
15 38
15 39
15 40
15 45
15 46
15 47
15 49
15 50
15 51
15 52
15 54
15 55
15 56
15 57
15 58
15 60
15 61
15 62
15 63
15 65
15 67
15 68
15 69
15 70
15 72
15 73
15 74
15 77
15 78
15 81
15 91
15 97
15 105
15 110
15 113
15 117
15 125
15 131
15 151
15 157
15 182
15 192
15 199
16 17
16 18
16 20
16 22
16 23
16 25
16 28
16 29
16 30
16 32
16 33
16 35
16 36
16 37
16 39
16 40
16 44
16 45
16 47
16 48
16 49
16 51
16 52
16 53
16 54
16 55
16 57
16 58
16 59
16 60
16 61
16 63
16 64
16 66
16 67
16 68
16 70
16 71
16 72
16 73
16 75
16 76
16 78
16 79
16 80
16 89
16 90
16 92
16 95
16 96
16 104
16 106
16 107
16 108
16 109
16 111
16 112
16 114
16 115
16 116
16 121
16 122
16 123
16 124
16 130
16 148
16 149
16 150
16 152
16 153
16 154
16 155
16 156
16 158
16 179
16 180
16 181
16 183
16 190
16 191
16 197
16 198
16 200
17 18
17 19
17 21
17 23
17 24
17 26
17 27
17 29
17 30
17 31
17 33
17 34
17 36
17 37
17 38
17 39
17 44
17 46
17 48
17 49
17 50
17 51
17 53
17 54
17 55
17 56
17 57
17 59
17 62
17 65
17 66
17 67
17 68
17 69
17 71
17 74
17 75
17 76
17 77
17 81
17 91
17 97
17 105
17 110
17 113
17 117
17 125
17 131
17 151
17 157
17 182
17 192
17 199
18 19
18 20
18 24
18 25
18 30
18 31
18 32
18 34
18 37
18 38
18 39
18 40
18 45
18 46
18 47
18 49
18 50
18 51
18 52
18 54
18 55
18 56
18 57
18 58
18 60
18 61
18 62
18 63
18 65
18 67
18 68
18 69
18 70
18 72
18 73
18 74
18 77
18 81
18 91
18 92
18 97
18 105
18 106
18 110
18 113
18 117
18 125
18 131
18 151
18 157
18 182
18 192
18 199
19 20
19 23
19 29
19 30
19 32
19 33
19 35
19 36
19 37
19 39
19 40
19 44
19 45
19 47
19 48
19 49
19 51
19 52
19 53
19 54
19 55
19 57
19 58
19 59
19 60
19 61
19 63
19 64
19 66
19 67
19 68
19 70
19 71
19 72
19 73
19 75
19 76
19 78
19 79
19 80
19 89
19 90
19 92
19 95
19 96
19 104
19 106
19 107
19 108
19 109
19 111
19 112
19 114
19 115
19 116
19 121
19 122
19 123
19 124
19 130
19 148
19 149
19 150
19 152
19 153
19 154
19 155
19 156
19 158
19 179
19 180
19 181
19 183
19 190
19 191
19 197
19 198
19 200
20 23
20 29
20 31
20 34
20 36
20 37
20 38
20 40
20 44
20 45
20 46
20 48
20 49
20 50
20 52
20 53
20 54
20 55
20 56
20 58
20 59
20 60
20 61
20 62
20 65
20 66
20 69
20 71
20 74
20 77
20 81
20 89
20 90
20 91
20 97
20 104
20 105
20 110
20 113
20 117
20 125
20 131
20 151
20 157
20 182
20 192
20 199
21 22
21 23
21 25
21 27
21 28
21 29
21 31
21 32
21 34
21 35
21 36
21 38
21 39
21 40
21 42
21 52
21 53
21 55
21 56
21 57
21 58
21 59
21 61
21 62
21 63
21 65
21 66
21 68
21 69
21 70
21 71
21 73
21 74
21 76
21 77
21 78
21 80
21 81
21 84
21 87
21 88
21 90
21 91
21 92
21 94
21 95
21 97
21 99
21 101
21 107
21 109
21 110
21 112
21 113
21 115
21 116
21 117
21 118
21 120
21 121
21 123
21 124
21 125
21 126
21 128
21 129
21 135
21 137
21 138
21 139
21 141
21 142
21 143
21 144
21 146
21 147
21 148
21 150
21 151
21 152
21 153
21 155
21 156
21 157
21 158
21 159
21 161
21 162
21 163
21 164
21 166
21 167
21 168
21 169
21 174
21 176
21 177
21 178
21 180
21 181
21 182
21 183
21 201
21 203
21 204
21 205
21 207
21 208
21 209
22 23
22 24
22 26
22 27
22 29
22 30
22 31
22 33
22 34
22 36
22 37
22 38
22 39
22 41
22 43
22 48
22 49
22 50
22 51
22 53
22 54
22 55
22 56
22 57
22 60
22 64
22 66
22 67
22 68
22 69
22 72
22 75
22 76
22 77
22 79
22 85
22 86
22 89
22 93
22 96
22 100
22 108
22 111
22 114
22 119
22 122
22 127
22 136
22 140
22 145
22 149
22 154
22 160
22 165
22 175
22 179
22 202
22 206
23 24
23 25
23 26
23 28
23 30
23 31
23 32
23 33
23 35
23 37
23 38
23 39
23 40
23 41
23 43
23 45
23 46
23 47
23 49
23 50
23 51
23 52
23 54
23 55
23 56
23 57
23 58
23 60
23 61
23 62
23 63
23 64
23 67
23 68
23 69
23 70
23 72
23 73
23 74
23 75
23 78
23 79
23 85
23 86
23 89
23 93
23 96
23 100
23 108
23 111
23 114
23 119
23 122
23 127
23 136
23 140
23 145
23 149
23 154
23 160
23 165
23 175
23 179
23 202
23 206
24 25
24 27
24 28
24 29
24 31
24 32
24 34
24 35
24 36
24 38
24 39
24 40
24 42
24 44
24 48
24 52
24 53
24 55
24 56
24 57
24 58
24 59
24 61
24 62
24 63
24 65
24 66
24 68
24 69
24 70
24 71
24 73
24 74
24 76
24 77
24 78
24 80
24 81
24 84
24 87
24 88
24 90
24 91
24 92
24 94
24 95
24 97
24 99
24 101
24 107
24 109
24 110
24 112
24 113
24 115
24 116
24 117
24 118
24 120
24 121
24 123
24 124
24 125
24 126
24 128
24 129
24 135
24 137
24 138
24 139
24 141
24 142
24 143
24 144
24 146
24 147
24 148
24 150
24 151
24 152
24 153
24 155
24 156
24 157
24 158
24 159
24 161
24 162
24 163
24 164
24 166
24 167
24 168
24 169
24 174
24 176
24 177
24 178
24 180
24 181
24 182
24 183
24 201
24 203
24 204
24 205
24 207
24 208
24 209
25 26
25 27
25 29
25 30
25 31
25 33
25 34
25 36
25 37
25 38
25 39
25 41
25 43
25 44
25 48
25 49
25 50
25 51
25 53
25 54
25 55
25 56
25 57
25 59
25 60
25 64
25 66
25 67
25 68
25 69
25 71
25 72
25 75
25 76
25 77
25 79
25 85
25 86
25 89
25 93
25 96
25 100
25 108
25 111
25 114
25 119
25 122
25 127
25 136
25 140
25 145
25 149
25 154
25 160
25 165
25 175
25 179
25 202
25 206
26 27
26 28
26 29
26 31
26 32
26 34
26 35
26 36
26 38
26 39
26 40
26 42
26 52
26 53
26 55
26 56
26 57
26 58
26 59
26 61
26 62
26 63
26 65
26 66
26 68
26 69
26 70
26 71
26 73
26 74
26 76
26 77
26 78
26 80
26 81
26 82
26 84
26 87
26 88
26 90
26 91
26 92
26 94
26 95
26 97
26 99
26 101
26 107
26 109
26 110
26 112
26 113
26 115
26 116
26 117
26 118
26 120
26 121
26 123
26 124
26 125
26 126
26 128
26 129
26 135
26 137
26 138
26 139
26 141
26 142
26 143
26 144
26 146
26 147
26 148
26 150
26 151
26 152
26 153
26 155
26 156
26 157
26 158
26 159
26 161
26 162
26 163
26 164
26 166
26 167
26 168
26 169
26 174
26 176
26 177
26 178
26 180
26 181
26 182
26 183
26 201
26 203
26 204
26 205
26 207
26 208
26 209
27 28
27 30
27 32
27 33
27 35
27 37
27 40
27 41
27 43
27 52
27 54
27 58
27 60
27 64
27 67
27 70
27 72
27 75
27 78
27 79
27 83
27 85
27 86
27 88
27 89
27 93
27 96
27 100
27 108
27 111
27 114
27 119
27 122
27 127
27 136
27 140
27 145
27 149
27 154
27 160
27 165
27 175
27 179
27 202
27 206
28 29
28 30
28 31
28 33
28 34
28 36
28 37
28 38
28 39
28 41
28 42
28 43
28 48
28 49
28 50
28 51
28 53
28 54
28 55
28 56
28 57
28 60
28 64
28 66
28 67
28 68
28 69
28 72
28 75
28 76
28 77
28 79
28 82
28 85
28 86
28 87
28 89
28 93
28 96
28 100
28 108
28 111
28 114
28 119
28 122
28 127
28 136
28 140
28 145
28 149
28 154
28 160
28 165
28 175
28 179
28 202
28 206
29 30
29 31
29 32
29 33
29 34
29 35
29 37
29 38
29 39
29 40
29 41
29 43
29 45
29 46
29 47
29 49
29 50
29 51
29 52
29 54
29 55
29 56
29 57
29 58
29 60
29 61
29 62
29 63
29 64
29 65
29 67
29 68
29 69
29 70
29 72
29 73
29 74
29 75
29 77
29 78
29 79
29 81
29 85
29 86
29 89
29 91
29 93
29 96
29 97
29 100
29 105
29 108
29 110
29 111
29 113
29 114
29 117
29 119
29 122
29 125
29 127
29 131
29 136
29 140
29 145
29 149
29 151
29 154
29 157
29 160
29 165
29 175
29 179
29 182
29 192
29 199
29 202
29 206
30 31
30 32
30 34
30 35
30 36
30 38
30 39
30 40
30 42
30 44
30 46
30 48
30 50
30 52
30 53
30 55
30 56
30 57
30 58
30 59
30 61
30 62
30 63
30 65
30 66
30 68
30 69
30 70
30 71
30 73
30 74
30 76
30 77
30 78
30 80
30 81
30 84
30 87
30 88
30 90
30 91
30 92
30 94
30 95
30 97
30 99
30 101
30 105
30 107
30 109
30 110
30 112
30 113
30 115
30 116
30 117
30 118
30 120
30 121
30 123
30 124
30 125
30 126
30 128
30 129
30 131
30 135
30 137
30 138
30 139
30 141
30 142
30 143
30 144
30 146
30 147
30 148
30 150
30 151
30 152
30 153
30 155
30 156
30 157
30 158
30 159
30 161
30 162
30 163
30 164
30 166
30 167
30 168
30 169
30 174
30 176
30 177
30 178
30 180
30 181
30 182
30 183
30 192
30 199
30 201
30 203
30 204
30 205
30 207
30 208
30 209
31 32
31 33
31 35
31 36
31 37
31 39
31 40
31 41
31 43
31 44
31 45
31 47
31 48
31 49
31 51
31 52
31 53
31 54
31 55
31 57
31 58
31 59
31 60
31 61
31 63
31 64
31 66
31 67
31 68
31 70
31 71
31 72
31 73
31 75
31 76
31 78
31 79
31 80
31 85
31 86
31 89
31 90
31 92
31 93
31 95
31 96
31 100
31 104
31 106
31 107
31 108
31 109
31 111
31 112
31 114
31 115
31 116
31 119
31 121
31 122
31 123
31 124
31 127
31 130
31 136
31 140
31 145
31 148
31 149
31 150
31 152
31 153
31 154
31 155
31 156
31 158
31 160
31 165
31 175
31 179
31 180
31 181
31 183
31 190
31 191
31 197
31 198
31 200
31 202
31 206
32 33
32 34
32 36
32 37
32 38
32 39
32 41
32 43
32 44
32 46
32 48
32 49
32 50
32 51
32 53
32 54
32 55
32 56
32 57
32 59
32 60
32 62
32 64
32 65
32 66
32 67
32 68
32 69
32 71
32 72
32 74
32 75
32 76
32 77
32 79
32 81
32 85
32 86
32 89
32 91
32 93
32 96
32 97
32 100
32 105
32 108
32 110
32 111
32 113
32 114
32 117
32 119
32 122
32 125
32 127
32 131
32 136
32 140
32 145
32 149
32 151
32 154
32 157
32 160
32 165
32 175
32 179
32 182
32 192
32 199
32 202
32 206
33 34
33 35
33 36
33 38
33 39
33 40
33 42
33 46
33 50
33 52
33 53
33 55
33 56
33 57
33 58
33 59
33 61
33 62
33 63
33 65
33 66
33 68
33 69
33 70
33 71
33 73
33 74
33 76
33 77
33 78
33 80
33 81
33 84
33 87
33 88
33 90
33 91
33 92
33 94
33 95
33 97
33 99
33 101
33 105
33 107
33 109
33 110
33 112
33 113
33 115
33 116
33 117
33 118
33 120
33 121
33 123
33 124
33 125
33 126
33 128
33 129
33 131
33 135
33 137
33 138
33 139
33 141
33 142
33 143
33 144
33 146
33 147
33 148
33 150
33 151
33 152
33 153
33 155
33 156
33 157
33 158
33 159
33 161
33 162
33 163
33 164
33 166
33 167
33 168
33 169
33 174
33 176
33 177
33 178
33 180
33 181
33 182
33 183
33 192
33 199
33 201
33 203
33 204
33 205
33 207
33 208
33 209
34 35
34 36
34 37
34 39
34 40
34 41
34 43
34 44
34 45
34 47
34 48
34 49
34 51
34 52
34 53
34 54
34 55
34 57
34 58
34 59
34 60
34 61
34 63
34 64
34 66
34 67
34 68
34 70
34 71
34 72
34 73
34 75
34 76
34 78
34 79
34 80
34 85
34 86
34 89
34 90
34 92
34 93
34 95
34 96
34 100
34 104
34 106
34 107
34 108
34 109
34 111
34 112
34 114
34 115
34 116
34 119
34 121
34 122
34 123
34 124
34 127
34 130
34 136
34 140
34 145
34 148
34 149
34 150
34 152
34 153
34 154
34 155
34 156
34 158
34 160
34 165
34 175
34 179
34 180
34 181
34 183
34 190
34 191
34 197
34 198
34 200
34 202
34 206
35 36
35 37
35 38
35 39
35 41
35 43
35 46
35 48
35 49
35 50
35 51
35 53
35 54
35 55
35 56
35 57
35 60
35 62
35 64
35 65
35 66
35 67
35 68
35 69
35 72
35 74
35 75
35 76
35 77
35 79
35 81
35 85
35 86
35 89
35 91
35 93
35 96
35 97
35 100
35 105
35 108
35 110
35 111
35 113
35 114
35 117
35 119
35 122
35 125
35 127
35 131
35 136
35 140
35 145
35 149
35 151
35 154
35 157
35 160
35 165
35 175
35 179
35 182
35 192
35 199
35 202
35 206
36 37
36 38
36 39
36 40
36 41
36 43
36 45
36 46
36 47
36 49
36 50
36 51
36 52
36 54
36 55
36 56
36 57
36 58
36 60
36 61
36 62
36 63
36 64
36 65
36 67
36 68
36 69
36 70
36 72
36 73
36 74
36 75
36 77
36 78
36 79
36 81
36 85
36 86
36 89
36 91
36 92
36 93
36 96
36 97
36 100
36 105
36 106
36 108
36 110
36 111
36 113
36 114
36 117
36 119
36 122
36 125
36 127
36 131
36 136
36 140
36 145
36 149
36 151
36 154
36 157
36 160
36 165
36 175
36 179
36 182
36 192
36 199
36 202
36 206
37 38
37 39
37 40
37 42
37 44
37 46
37 47
37 48
37 50
37 51
37 52
37 53
37 55
37 56
37 57
37 58
37 59
37 61
37 62
37 63
37 65
37 66
37 68
37 69
37 70
37 71
37 73
37 74
37 76
37 77
37 78
37 80
37 81
37 84
37 87
37 88
37 90
37 91
37 92
37 94
37 95
37 97
37 99
37 101
37 105
37 106
37 107
37 109
37 110
37 112
37 113
37 115
37 116
37 117
37 118
37 120
37 121
37 123
37 124
37 125
37 126
37 128
37 129
37 131
37 135
37 137
37 138
37 139
37 141
37 142
37 143
37 144
37 146
37 147
37 148
37 150
37 151
37 152
37 153
37 155
37 156
37 157
37 158
37 159
37 161
37 162
37 163
37 164
37 166
37 167
37 168
37 169
37 174
37 176
37 177
37 178
37 180
37 181
37 182
37 183
37 192
37 199
37 201
37 203
37 204
37 205
37 207
37 208
37 209
38 39
38 40
38 41
38 43
38 44
38 45
38 47
38 48
38 49
38 51
38 52
38 53
38 54
38 55
38 57
38 58
38 59
38 60
38 61
38 63
38 64
38 66
38 67
38 68
38 70
38 71
38 72
38 73
38 75
38 76
38 78
38 79
38 80
38 85
38 86
38 89
38 90
38 92
38 93
38 95
38 96
38 100
38 104
38 106
38 107
38 108
38 109
38 111
38 112
38 114
38 115
38 116
38 119
38 121
38 122
38 123
38 124
38 127
38 130
38 136
38 140
38 145
38 148
38 149
38 150
38 152
38 153
38 154
38 155
38 156
38 158
38 160
38 165
38 175
38 179
38 180
38 181
38 183
38 190
38 191
38 197
38 198
38 200
38 202
38 206
39 40
39 41
39 43
39 44
39 45
39 46
39 48
39 49
39 50
39 52
39 53
39 54
39 55
39 56
39 58
39 59
39 60
39 61
39 62
39 64
39 65
39 66
39 67
39 69
39 70
39 71
39 72
39 74
39 75
39 77
39 78
39 79
39 81
39 85
39 86
39 89
39 90
39 91
39 93
39 96
39 97
39 100
39 104
39 105
39 108
39 110
39 111
39 113
39 114
39 117
39 119
39 122
39 125
39 127
39 131
39 136
39 140
39 145
39 149
39 151
39 154
39 157
39 160
39 165
39 175
39 179
39 182
39 192
39 199
39 202
39 206
40 41
40 43
40 44
40 46
40 47
40 48
40 49
40 50
40 51
40 53
40 54
40 55
40 56
40 57
40 59
40 60
40 62
40 63
40 64
40 65
40 66
40 67
40 68
40 69
40 71
40 72
40 74
40 75
40 76
40 77
40 79
40 81
40 85
40 86
40 89
40 91
40 92
40 93
40 96
40 97
40 100
40 105
40 106
40 108
40 110
40 111
40 113
40 114
40 117
40 119
40 122
40 125
40 127
40 131
40 136
40 140
40 145
40 149
40 151
40 154
40 157
40 160
40 165
40 175
40 179
40 182
40 192
40 199
40 202
40 206
41 42
41 53
41 55
41 56
41 57
41 58
41 59
41 61
41 62
41 63
41 65
41 66
41 68
41 69
41 70
41 71
41 73
41 74
41 76
41 77
41 78
41 80
41 81
41 82
41 84
41 87
41 88
41 90
41 91
41 92
41 94
41 95
41 97
41 99
41 101
41 107
41 109
41 110
41 112
41 113
41 115
41 116
41 117
41 118
41 120
41 121
41 123
41 124
41 125
41 126
41 128
41 129
41 135
41 137
41 138
41 139
41 141
41 142
41 143
41 144
41 146
41 147
41 148
41 150
41 151
41 152
41 153
41 155
41 156
41 157
41 158
41 159
41 161
41 162
41 163
41 164
41 166
41 167
41 168
41 169
41 174
41 176
41 177
41 178
41 180
41 181
41 182
41 183
41 201
41 203
41 204
41 205
41 207
41 208
41 209
42 43
42 54
42 60
42 64
42 67
42 72
42 75
42 79
42 83
42 85
42 86
42 88
42 89
42 93
42 96
42 100
42 108
42 111
42 114
42 119
42 122
42 127
42 136
42 140
42 145
42 149
42 154
42 160
42 165
42 175
42 179
42 202
42 206
43 53
43 55
43 56
43 57
43 58
43 59
43 61
43 62
43 63
43 65
43 66
43 68
43 69
43 70
43 71
43 73
43 74
43 76
43 77
43 78
43 80
43 81
43 84
43 87
43 88
43 90
43 91
43 92
43 94
43 95
43 97
43 99
43 101
43 107
43 109
43 110
43 112
43 113
43 115
43 116
43 117
43 118
43 120
43 121
43 123
43 124
43 125
43 126
43 128
43 129
43 135
43 137
43 138
43 139
43 141
43 142
43 143
43 144
43 146
43 147
43 148
43 150
43 151
43 152
43 153
43 155
43 156
43 157
43 158
43 159
43 161
43 162
43 163
43 164
43 166
43 167
43 168
43 169
43 174
43 176
43 177
43 178
43 180
43 181
43 182
43 183
43 201
43 203
43 204
43 205
43 207
43 208
43 209
44 45
44 46
44 47
44 49
44 50
44 51
44 52
44 54
44 55
44 56
44 57
44 58
44 60
44 61
44 62
44 63
44 65
44 67
44 68
44 69
44 70
44 72
44 73
44 74
44 76
44 77
44 80
44 81
44 90
44 91
44 92
44 97
44 104
44 105
44 106
44 110
44 113
44 115
44 117
44 123
44 125
44 130
44 131
44 151
44 155
44 157
44 176
44 180
44 182
44 184
44 190
44 192
44 197
44 199
44 207
44 210
44 213
44 216
45 46
45 47
45 48
45 50
45 51
45 52
45 53
45 54
45 56
45 57
45 58
45 59
45 60
45 62
45 63
45 65
45 66
45 67
45 69
45 70
45 71
45 72
45 74
45 75
45 77
45 78
45 79
45 81
45 89
45 91
45 92
45 97
45 105
45 106
45 110
45 113
45 114
45 116
45 117
45 121
45 122
45 124
45 125
45 131
45 151
45 153
45 154
45 156
45 157
45 158
45 174
45 175
45 177
45 178
45 179
45 181
45 182
45 183
45 191
45 192
45 198
45 199
45 200
45 206
45 208
45 209
45 211
45 212
45 214
45 215
45 217
45 218
46 47
46 48
46 49
46 51
46 52
46 53
46 54
46 55
46 57
46 58
46 59
46 60
46 61
46 63
46 64
46 66
46 67
46 68
46 70
46 71
46 72
46 73
46 75
46 76
46 78
46 79
46 80
46 89
46 90
46 92
46 95
46 96
46 104
46 106
46 107
46 108
46 109
46 111
46 112
46 114
46 115
46 116
46 121
46 122
46 123
46 124
46 130
46 148
46 149
46 150
46 152
46 153
46 154
46 155
46 156
46 158
46 176
46 179
46 180
46 181
46 183
46 184
46 190
46 191
46 197
46 198
46 200
46 207
46 210
46 213
46 216
47 48
47 49
47 50
47 52
47 53
47 54
47 55
47 56
47 58
47 59
47 60
47 61
47 62
47 65
47 66
47 68
47 69
47 71
47 73
47 74
47 76
47 77
47 80
47 81
47 89
47 90
47 91
47 97
47 104
47 105
47 110
47 113
47 115
47 117
47 123
47 125
47 130
47 131
47 151
47 155
47 157
47 176
47 180
47 182
47 184
47 190
47 192
47 197
47 199
47 207
47 210
47 213
47 216
48 49
48 50
48 51
48 52
48 54
48 55
48 56
48 57
48 58
48 60
48 61
48 62
48 63
48 65
48 67
48 68
48 69
48 70
48 72
48 73
48 74
48 76
48 77
48 78
48 80
48 81
48 90
48 91
48 92
48 97
48 104
48 105
48 106
48 110
48 113
48 115
48 117
48 123
48 125
48 130
48 131
48 151
48 155
48 157
48 176
48 180
48 182
48 184
48 190
48 192
48 197
48 199
48 207
48 210
48 213
48 216
49 50
49 51
49 52
49 53
49 54
49 56
49 57
49 58
49 59
49 60
49 62
49 63
49 65
49 66
49 67
49 69
49 70
49 71
49 72
49 74
49 75
49 77
49 78
49 79
49 81
49 89
49 91
49 92
49 97
49 105
49 106
49 110
49 113
49 114
49 116
49 117
49 121
49 122
49 124
49 125
49 131
49 151
49 153
49 154
49 156
49 157
49 158
49 174
49 175
49 177
49 178
49 179
49 181
49 182
49 183
49 191
49 192
49 198
49 199
49 200
49 206
49 208
49 209
49 211
49 212
49 214
49 215
49 217
49 218
50 51
50 52
50 53
50 54
50 55
50 57
50 58
50 59
50 60
50 61
50 63
50 64
50 66
50 67
50 68
50 70
50 71
50 72
50 73
50 75
50 76
50 78
50 79
50 80
50 89
50 90
50 92
50 95
50 96
50 104
50 106
50 107
50 108
50 109
50 111
50 112
50 114
50 115
50 116
50 121
50 122
50 123
50 124
50 130
50 148
50 149
50 150
50 152
50 153
50 154
50 155
50 156
50 158
50 176
50 179
50 180
50 181
50 183
50 184
50 190
50 191
50 197
50 198
50 200
50 207
50 210
50 213
50 216
51 52
51 53
51 54
51 55
51 56
51 58
51 59
51 60
51 61
51 62
51 65
51 66
51 68
51 69
51 70
51 71
51 73
51 74
51 76
51 77
51 78
51 80
51 81
51 89
51 90
51 91
51 97
51 104
51 105
51 110
51 113
51 115
51 117
51 123
51 125
51 130
51 131
51 151
51 155
51 157
51 176
51 180
51 182
51 184
51 190
51 192
51 197
51 199
51 207
51 210
51 213
51 216
52 53
52 54
52 55
52 56
52 57
52 59
52 61
52 62
52 63
52 65
52 66
52 67
52 68
52 69
52 71
52 73
52 74
52 75
52 76
52 77
52 80
52 81
52 90
52 91
52 92
52 97
52 104
52 105
52 106
52 110
52 113
52 115
52 117
52 123
52 125
52 130
52 131
52 151
52 155
52 157
52 176
52 180
52 182
52 184
52 190
52 192
52 197
52 199
52 207
52 210
52 213
52 216
53 54
53 55
53 56
53 57
53 58
53 60
53 61
53 62
53 63
53 64
53 65
53 67
53 68
53 69
53 70
53 72
53 73
53 74
53 75
53 76
53 77
53 78
53 79
53 80
53 81
53 85
53 86
53 89
53 90
53 91
53 92
53 93
53 96
53 97
53 100
53 104
53 105
53 106
53 108
53 110
53 111
53 113
53 114
53 115
53 117
53 119
53 122
53 123
53 125
53 127
53 130
53 131
53 136
53 140
53 145
53 149
53 151
53 154
53 155
53 157
53 160
53 165
53 175
53 176
53 179
53 180
53 182
53 184
53 190
53 192
53 197
53 199
53 202
53 206
53 207
53 210
53 213
53 216
54 55
54 56
54 57
54 58
54 59
54 61
54 62
54 63
54 65
54 66
54 68
54 69
54 70
54 71
54 73
54 74
54 76
54 77
54 78
54 80
54 81
54 84
54 87
54 88
54 90
54 91
54 92
54 94
54 95
54 97
54 99
54 101
54 104
54 105
54 106
54 107
54 109
54 110
54 112
54 113
54 115
54 116
54 117
54 118
54 120
54 121
54 123
54 124
54 125
54 126
54 128
54 129
54 130
54 131
54 135
54 137
54 138
54 139
54 141
54 142
54 143
54 144
54 146
54 147
54 148
54 150
54 151
54 152
54 153
54 155
54 156
54 157
54 158
54 159
54 161
54 162
54 163
54 164
54 166
54 167
54 168
54 169
54 174
54 176
54 177
54 178
54 180
54 181
54 182
54 183
54 184
54 190
54 192
54 197
54 199
54 201
54 203
54 204
54 205
54 207
54 208
54 209
54 210
54 213
54 216
55 56
55 57
55 58
55 59
55 60
55 62
55 63
55 64
55 65
55 66
55 67
55 69
55 70
55 71
55 72
55 74
55 75
55 77
55 78
55 79
55 81
55 85
55 86
55 89
55 91
55 92
55 93
55 96
55 97
55 100
55 105
55 106
55 108
55 110
55 111
55 113
55 114
55 116
55 117
55 119
55 121
55 122
55 124
55 125
55 127
55 131
55 136
55 140
55 145
55 149
55 151
55 153
55 154
55 156
55 157
55 158
55 160
55 165
55 174
55 175
55 177
55 178
55 179
55 181
55 182
55 183
55 191
55 192
55 198
55 199
55 200
55 202
55 206
55 208
55 209
55 211
55 212
55 214
55 215
55 217
55 218
56 57
56 58
56 59
56 60
56 61
56 63
56 64
56 66
56 67
56 68
56 70
56 71
56 72
56 73
56 75
56 76
56 78
56 79
56 80
56 85
56 86
56 89
56 90
56 92
56 93
56 95
56 96
56 100
56 104
56 106
56 107
56 108
56 109
56 111
56 112
56 114
56 115
56 116
56 119
56 121
56 122
56 123
56 124
56 127
56 130
56 136
56 140
56 145
56 148
56 149
56 150
56 152
56 153
56 154
56 155
56 156
56 158
56 160
56 165
56 175
56 176
56 179
56 180
56 181
56 183
56 184
56 190
56 191
56 197
56 198
56 200
56 202
56 206
56 207
56 210
56 213
56 216
57 58
57 59
57 60
57 61
57 62
57 64
57 65
57 66
57 67
57 68
57 69
57 70
57 71
57 72
57 73
57 74
57 75
57 76
57 77
57 78
57 79
57 80
57 81
57 85
57 86
57 89
57 90
57 91
57 93
57 96
57 97
57 100
57 104
57 105
57 108
57 110
57 111
57 113
57 114
57 115
57 117
57 119
57 122
57 123
57 125
57 127
57 130
57 131
57 136
57 140
57 145
57 149
57 151
57 154
57 155
57 157
57 160
57 165
57 175
57 176
57 179
57 180
57 182
57 184
57 190
57 192
57 197
57 199
57 202
57 206
57 207
57 210
57 213
57 216
58 59
58 60
58 61
58 62
58 63
58 64
58 65
58 66
58 67
58 68
58 69
58 71
58 72
58 73
58 74
58 75
58 76
58 77
58 79
58 80
58 81
58 85
58 86
58 89
58 90
58 91
58 92
58 93
58 96
58 97
58 100
58 104
58 105
58 106
58 108
58 110
58 111
58 113
58 114
58 115
58 117
58 119
58 122
58 123
58 125
58 127
58 130
58 131
58 136
58 140
58 145
58 149
58 151
58 154
58 155
58 157
58 160
58 165
58 175
58 176
58 179
58 180
58 182
58 184
58 190
58 192
58 197
58 199
58 202
58 206
58 207
58 210
58 213
58 216
59 60
59 61
59 62
59 63
59 64
59 65
59 67
59 68
59 69
59 70
59 72
59 73
59 74
59 75
59 76
59 77
59 79
59 80
59 81
59 85
59 86
59 89
59 90
59 91
59 92
59 93
59 96
59 97
59 100
59 104
59 105
59 106
59 108
59 110
59 111
59 113
59 114
59 115
59 117
59 119
59 122
59 123
59 125
59 127
59 130
59 131
59 136
59 140
59 145
59 149
59 151
59 154
59 155
59 157
59 160
59 165
59 175
59 176
59 179
59 180
59 182
59 184
59 190
59 192
59 197
59 199
59 202
59 206
59 207
59 210
59 213
59 216
60 61
60 62
60 63
60 65
60 66
60 68
60 69
60 70
60 71
60 73
60 74
60 76
60 77
60 78
60 80
60 81
60 84
60 87
60 88
60 90
60 91
60 92
60 94
60 95
60 97
60 99
60 101
60 104
60 105
60 106
60 107
60 109
60 110
60 112
60 113
60 115
60 116
60 117
60 118
60 120
60 121
60 123
60 124
60 125
60 126
60 128
60 129
60 130
60 131
60 135
60 137
60 138
60 139
60 141
60 142
60 143
60 144
60 146
60 147
60 148
60 150
60 151
60 152
60 153
60 155
60 156
60 157
60 158
60 159
60 161
60 162
60 163
60 164
60 166
60 167
60 168
60 169
60 174
60 176
60 177
60 178
60 180
60 181
60 182
60 183
60 184
60 190
60 192
60 197
60 199
60 201
60 203
60 204
60 205
60 207
60 208
60 209
60 210
60 213
60 216
61 62
61 63
61 64
61 65
61 66
61 67
61 69
61 70
61 71
61 72
61 74
61 75
61 77
61 78
61 79
61 81
61 85
61 86
61 89
61 91
61 92
61 93
61 96
61 97
61 100
61 105
61 106
61 108
61 110
61 111
61 113
61 114
61 116
61 117
61 119
61 121
61 122
61 124
61 125
61 127
61 131
61 136
61 140
61 145
61 149
61 151
61 153
61 154
61 156
61 157
61 158
61 160
61 165
61 174
61 175
61 177
61 178
61 179
61 181
61 182
61 183
61 191
61 192
61 198
61 199
61 200
61 202
61 206
61 208
61 209
61 211
61 212
61 214
61 215
61 217
61 218
62 63
62 64
62 66
62 67
62 68
62 70
62 71
62 72
62 73
62 75
62 76
62 78
62 79
62 80
62 85
62 86
62 89
62 90
62 92
62 93
62 95
62 96
62 100
62 104
62 106
62 107
62 108
62 109
62 111
62 112
62 114
62 115
62 116
62 119
62 121
62 122
62 123
62 124
62 127
62 130
62 136
62 140
62 145
62 148
62 149
62 150
62 152
62 153
62 154
62 155
62 156
62 158
62 160
62 165
62 175
62 176
62 179
62 180
62 181
62 183
62 184
62 190
62 191
62 197
62 198
62 200
62 202
62 206
62 207
62 210
62 213
62 216
63 64
63 65
63 66
63 67
63 68
63 69
63 71
63 72
63 73
63 74
63 75
63 76
63 77
63 79
63 80
63 81
63 85
63 86
63 89
63 90
63 91
63 93
63 96
63 97
63 100
63 104
63 105
63 108
63 110
63 111
63 113
63 114
63 115
63 117
63 119
63 122
63 123
63 125
63 127
63 130
63 131
63 136
63 140
63 145
63 149
63 151
63 154
63 155
63 157
63 160
63 165
63 175
63 176
63 179
63 180
63 182
63 184
63 190
63 192
63 197
63 199
63 202
63 206
63 207
63 210
63 213
63 216
64 65
64 66
64 68
64 69
64 70
64 71
64 73
64 74
64 76
64 77
64 78
64 80
64 81
64 84
64 87
64 88
64 90
64 91
64 92
64 94
64 95
64 97
64 99
64 101
64 105
64 107
64 109
64 110
64 112
64 113
64 115
64 116
64 117
64 118
64 120
64 121
64 123
64 124
64 125
64 126
64 128
64 129
64 131
64 135
64 137
64 138
64 139
64 141
64 142
64 143
64 144
64 146
64 147
64 148
64 150
64 151
64 152
64 153
64 155
64 156
64 157
64 158
64 159
64 161
64 162
64 163
64 164
64 166
64 167
64 168
64 169
64 174
64 176
64 177
64 178
64 180
64 181
64 182
64 183
64 192
64 199
64 201
64 203
64 204
64 205
64 207
64 208
64 209
65 66
65 67
65 68
65 70
65 71
65 72
65 73
65 75
65 76
65 78
65 79
65 80
65 85
65 86
65 89
65 90
65 92
65 93
65 95
65 96
65 100
65 104
65 106
65 107
65 108
65 109
65 111
65 112
65 114
65 115
65 116
65 119
65 121
65 122
65 123
65 124
65 127
65 130
65 136
65 140
65 145
65 148
65 149
65 150
65 152
65 153
65 154
65 155
65 156
65 158
65 160
65 165
65 175
65 179
65 180
65 181
65 183
65 190
65 191
65 197
65 198
65 200
65 202
65 206
66 67
66 68
66 69
66 70
66 72
66 73
66 74
66 75
66 76
66 77
66 78
66 79
66 80
66 81
66 85
66 86
66 89
66 90
66 91
66 93
66 96
66 97
66 100
66 104
66 105
66 108
66 110
66 111
66 113
66 114
66 115
66 117
66 119
66 122
66 123
66 125
66 127
66 130
66 131
66 136
66 140
66 145
66 149
66 151
66 154
66 155
66 157
66 160
66 165
66 175
66 176
66 179
66 180
66 182
66 184
66 190
66 192
66 197
66 199
66 202
66 206
66 207
66 210
66 213
66 216
67 68
67 69
67 70
67 71
67 73
67 74
67 76
67 77
67 78
67 80
67 81
67 84
67 87
67 88
67 90
67 91
67 92
67 94
67 95
67 97
67 99
67 101
67 104
67 105
67 107
67 109
67 110
67 112
67 113
67 115
67 116
67 117
67 118
67 120
67 121
67 123
67 124
67 125
67 126
67 128
67 129
67 130
67 131
67 135
67 137
67 138
67 139
67 141
67 142
67 143
67 144
67 146
67 147
67 148
67 150
67 151
67 152
67 153
67 155
67 156
67 157
67 158
67 159
67 161
67 162
67 163
67 164
67 166
67 167
67 168
67 169
67 174
67 176
67 177
67 178
67 180
67 181
67 182
67 183
67 184
67 190
67 192
67 197
67 199
67 201
67 203
67 204
67 205
67 207
67 208
67 209
67 210
67 213
67 216
68 69
68 70
68 71
68 72
68 74
68 75
68 77
68 78
68 79
68 81
68 85
68 86
68 89
68 91
68 92
68 93
68 96
68 97
68 100
68 105
68 106
68 108
68 110
68 111
68 113
68 114
68 116
68 117
68 119
68 121
68 122
68 124
68 125
68 127
68 131
68 136
68 140
68 145
68 149
68 151
68 153
68 154
68 156
68 157
68 158
68 160
68 165
68 174
68 175
68 177
68 178
68 179
68 181
68 182
68 183
68 191
68 192
68 198
68 199
68 200
68 202
68 206
68 208
68 209
68 211
68 212
68 214
68 215
68 217
68 218
69 70
69 71
69 72
69 73
69 75
69 76
69 78
69 79
69 80
69 85
69 86
69 89
69 90
69 92
69 93
69 95
69 96
69 100
69 104
69 106
69 107
69 108
69 109
69 111
69 112
69 114
69 115
69 116
69 119
69 121
69 122
69 123
69 124
69 127
69 130
69 136
69 140
69 145
69 148
69 149
69 150
69 152
69 153
69 154
69 155
69 156
69 158
69 160
69 165
69 175
69 176
69 179
69 180
69 181
69 183
69 184
69 190
69 191
69 197
69 198
69 200
69 202
69 206
69 207
69 210
69 213
69 216
70 71
70 72
70 73
70 74
70 75
70 76
70 77
70 79
70 80
70 81
70 85
70 86
70 89
70 90
70 91
70 93
70 96
70 97
70 100
70 104
70 105
70 108
70 110
70 111
70 113
70 114
70 115
70 117
70 119
70 122
70 123
70 125
70 127
70 130
70 131
70 136
70 140
70 145
70 149
70 151
70 154
70 155
70 157
70 160
70 165
70 175
70 176
70 179
70 180
70 182
70 184
70 190
70 192
70 197
70 199
70 202
70 206
70 207
70 210
70 213
70 216
71 72
71 73
71 74
71 75
71 76
71 77
71 79
71 80
71 81
71 85
71 86
71 89
71 90
71 91
71 93
71 96
71 97
71 100
71 104
71 105
71 108
71 110
71 111
71 113
71 114
71 115
71 117
71 119
71 122
71 123
71 125
71 127
71 130
71 131
71 136
71 140
71 145
71 149
71 151
71 154
71 155
71 157
71 160
71 165
71 175
71 176
71 179
71 180
71 182
71 184
71 190
71 192
71 197
71 199
71 202
71 206
71 207
71 210
71 213
71 216
72 73
72 74
72 76
72 77
72 78
72 80
72 81
72 84
72 87
72 88
72 90
72 91
72 92
72 94
72 95
72 97
72 99
72 101
72 104
72 105
72 107
72 109
72 110
72 112
72 113
72 115
72 116
72 117
72 118
72 120
72 121
72 123
72 124
72 125
72 126
72 128
72 129
72 130
72 131
72 135
72 137
72 138
72 139
72 141
72 142
72 143
72 144
72 146
72 147
72 148
72 150
72 151
72 152
72 153
72 155
72 156
72 157
72 158
72 159
72 161
72 162
72 163
72 164
72 166
72 167
72 168
72 169
72 174
72 176
72 177
72 178
72 180
72 181
72 182
72 183
72 184
72 190
72 192
72 197
72 199
72 201
72 203
72 204
72 205
72 207
72 208
72 209
72 210
72 213
72 216
73 74
73 75
73 77
73 78
73 79
73 81
73 85
73 86
73 89
73 91
73 92
73 93
73 96
73 97
73 100
73 105
73 106
73 108
73 110
73 111
73 113
73 114
73 116
73 117
73 119
73 121
73 122
73 124
73 125
73 127
73 131
73 136
73 140
73 145
73 149
73 151
73 153
73 154
73 156
73 157
73 158
73 160
73 165
73 174
73 175
73 177
73 178
73 179
73 181
73 182
73 183
73 191
73 192
73 198
73 199
73 200
73 202
73 206
73 208
73 209
73 211
73 212
73 214
73 215
73 217
73 218
74 75
74 76
74 78
74 79
74 80
74 85
74 86
74 89
74 90
74 92
74 93
74 95
74 96
74 100
74 104
74 106
74 107
74 108
74 109
74 111
74 112
74 114
74 115
74 116
74 119
74 121
74 122
74 123
74 124
74 127
74 130
74 136
74 140
74 145
74 148
74 149
74 150
74 152
74 153
74 154
74 155
74 156
74 158
74 160
74 165
74 175
74 176
74 179
74 180
74 181
74 183
74 184
74 190
74 191
74 197
74 198
74 200
74 202
74 206
74 207
74 210
74 213
74 216
75 76
75 77
75 78
75 80
75 81
75 84
75 87
75 88
75 90
75 91
75 92
75 94
75 95
75 97
75 99
75 101
75 104
75 105
75 107
75 109
75 110
75 112
75 113
75 115
75 116
75 117
75 118
75 120
75 121
75 123
75 124
75 125
75 126
75 128
75 129
75 130
75 131
75 135
75 137
75 138
75 139
75 141
75 142
75 143
75 144
75 146
75 147
75 148
75 150
75 151
75 152
75 153
75 155
75 156
75 157
75 158
75 159
75 161
75 162
75 163
75 164
75 166
75 167
75 168
75 169
75 174
75 176
75 177
75 178
75 180
75 181
75 182
75 183
75 184
75 190
75 192
75 197
75 199
75 201
75 203
75 204
75 205
75 207
75 208
75 209
75 210
75 213
75 216
76 77
76 78
76 79
76 81
76 85
76 86
76 89
76 91
76 92
76 93
76 96
76 97
76 100
76 105
76 106
76 108
76 110
76 111
76 113
76 114
76 116
76 117
76 119
76 121
76 122
76 124
76 125
76 127
76 131
76 136
76 140
76 145
76 149
76 151
76 153
76 154
76 156
76 157
76 158
76 160
76 165
76 174
76 175
76 177
76 178
76 179
76 181
76 182
76 183
76 191
76 192
76 198
76 199
76 200
76 202
76 206
76 208
76 209
76 211
76 212
76 214
76 215
76 217
76 218
77 78
77 79
77 80
77 85
77 86
77 89
77 90
77 92
77 93
77 95
77 96
77 100
77 104
77 106
77 107
77 108
77 109
77 111
77 112
77 114
77 115
77 116
77 119
77 121
77 122
77 123
77 124
77 127
77 130
77 136
77 140
77 145
77 148
77 149
77 150
77 152
77 153
77 154
77 155
77 156
77 158
77 160
77 165
77 175
77 176
77 179
77 180
77 181
77 183
77 184
77 190
77 191
77 197
77 198
77 200
77 202
77 206
77 207
77 210
77 213
77 216
78 79
78 80
78 81
78 85
78 86
78 89
78 90
78 91
78 93
78 96
78 97
78 100
78 104
78 105
78 108
78 110
78 111
78 113
78 114
78 115
78 117
78 119
78 122
78 123
78 125
78 127
78 130
78 131
78 136
78 140
78 145
78 149
78 151
78 154
78 155
78 157
78 160
78 165
78 175
78 176
78 179
78 180
78 182
78 184
78 190
78 192
78 197
78 199
78 202
78 206
78 207
78 210
78 213
78 216
79 80
79 81
79 84
79 87
79 88
79 90
79 91
79 92
79 94
79 95
79 97
79 99
79 101
79 104
79 105
79 107
79 109
79 110
79 112
79 113
79 115
79 116
79 117
79 118
79 120
79 121
79 123
79 124
79 125
79 126
79 128
79 129
79 130
79 131
79 135
79 137
79 138
79 139
79 141
79 142
79 143
79 144
79 146
79 147
79 148
79 150
79 151
79 152
79 153
79 155
79 156
79 157
79 158
79 159
79 161
79 162
79 163
79 164
79 166
79 167
79 168
79 169
79 174
79 176
79 177
79 178
79 180
79 181
79 182
79 183
79 184
79 190
79 192
79 197
79 199
79 201
79 203
79 204
79 205
79 207
79 208
79 209
79 210
79 213
79 216
80 81
80 85
80 86
80 89
80 91
80 92
80 93
80 96
80 97
80 100
80 105
80 106
80 108
80 110
80 111
80 113
80 114
80 116
80 117
80 119
80 121
80 122
80 124
80 125
80 127
80 131
80 136
80 140
80 145
80 149
80 151
80 153
80 154
80 156
80 157
80 158
80 160
80 165
80 174
80 175
80 177
80 178
80 179
80 181
80 182
80 183
80 191
80 192
80 198
80 199
80 200
80 202
80 206
80 208
80 209
80 211
80 212
80 214
80 215
80 217
80 218
81 85
81 86
81 89
81 90
81 92
81 93
81 95
81 96
81 100
81 104
81 106
81 107
81 108
81 109
81 111
81 112
81 114
81 115
81 116
81 119
81 121
81 122
81 123
81 124
81 127
81 130
81 136
81 140
81 145
81 148
81 149
81 150
81 152
81 153
81 154
81 155
81 156
81 158
81 160
81 165
81 175
81 176
81 179
81 180
81 181
81 183
81 184
81 190
81 191
81 197
81 198
81 200
81 202
81 206
81 207
81 210
81 213
81 216
82 83
82 86
82 88
82 94
82 98
82 101
82 103
82 129
82 133
82 137
82 142
82 162
82 167
82 172
82 187
82 194
83 86
83 87
83 93
83 99
83 100
83 102
83 126
83 127
83 128
83 132
83 134
83 135
83 136
83 138
83 139
83 140
83 141
83 143
83 159
83 160
83 161
83 163
83 164
83 165
83 166
83 168
83 169
83 170
83 171
83 173
83 185
83 186
83 188
83 189
83 193
83 195
83 196
84 85
84 86
84 89
84 93
84 96
84 97
84 100
84 101
84 103
84 108
84 109
84 110
84 111
84 114
84 119
84 120
84 122
84 123
84 124
84 125
84 127
84 128
84 129
84 133
84 134
84 136
84 137
84 138
84 140
84 141
84 142
84 143
84 145
84 146
84 147
84 149
84 150
84 151
84 152
84 154
84 155
84 156
84 157
84 158
84 160
84 161
84 162
84 163
84 165
84 166
84 167
84 168
84 169
84 171
84 172
84 173
84 175
84 176
84 177
84 178
84 179
84 186
84 187
84 188
84 189
84 194
84 195
84 196
84 202
84 203
84 204
84 205
84 206
84 216
84 217
84 218
84 220
84 221
84 222
84 224
84 225
85 87
85 88
85 90
85 91
85 92
85 94
85 95
85 97
85 99
85 101
85 102
85 107
85 109
85 110
85 112
85 113
85 115
85 116
85 117
85 118
85 120
85 121
85 123
85 124
85 125
85 126
85 128
85 129
85 132
85 135
85 137
85 138
85 139
85 141
85 142
85 143
85 144
85 146
85 147
85 148
85 150
85 151
85 152
85 153
85 155
85 156
85 157
85 158
85 159
85 161
85 162
85 163
85 164
85 166
85 167
85 168
85 169
85 170
85 174
85 176
85 177
85 178
85 180
85 181
85 182
85 183
85 185
85 193
85 201
85 203
85 204
85 205
85 207
85 208
85 209
85 215
85 219
85 223
86 87
86 88
86 90
86 91
86 92
86 94
86 95
86 97
86 98
86 99
86 101
86 103
86 107
86 109
86 110
86 112
86 113
86 115
86 116
86 117
86 118
86 120
86 121
86 123
86 124
86 125
86 126
86 128
86 129
86 133
86 135
86 137
86 138
86 139
86 141
86 142
86 143
86 144
86 146
86 147
86 148
86 150
86 151
86 152
86 153
86 155
86 156
86 157
86 158
86 159
86 161
86 162
86 163
86 164
86 166
86 167
86 168
86 169
86 172
86 174
86 176
86 177
86 178
86 180
86 181
86 182
86 183
86 187
86 194
86 201
86 203
86 204
86 205
86 207
86 208
86 209
87 88
87 89
87 93
87 94
87 96
87 98
87 100
87 101
87 103
87 108
87 111
87 114
87 119
87 122
87 127
87 129
87 133
87 136
87 137
87 140
87 142
87 145
87 149
87 154
87 160
87 162
87 165
87 167
87 172
87 175
87 179
87 187
87 194
87 202
87 206
88 89
88 93
88 96
88 99
88 100
88 102
88 108
88 111
88 114
88 119
88 122
88 126
88 127
88 128
88 132
88 134
88 135
88 136
88 138
88 139
88 140
88 141
88 143
88 145
88 149
88 154
88 159
88 160
88 161
88 163
88 164
88 165
88 166
88 168
88 169
88 170
88 171
88 173
88 175
88 179
88 185
88 186
88 188
88 189
88 193
88 195
88 196
88 202
88 206
89 90
89 91
89 92
89 94
89 95
89 97
89 99
89 101
89 104
89 105
89 106
89 107
89 109
89 110
89 112
89 113
89 115
89 116
89 117
89 118
89 120
89 121
89 123
89 124
89 125
89 126
89 128
89 129
89 130
89 131
89 135
89 137
89 138
89 139
89 141
89 142
89 143
89 144
89 146
89 147
89 148
89 150
89 151
89 152
89 153
89 155
89 156
89 157
89 158
89 159
89 161
89 162
89 163
89 164
89 166
89 167
89 168
89 169
89 174
89 176
89 177
89 178
89 180
89 181
89 182
89 183
89 184
89 190
89 192
89 197
89 199
89 201
89 203
89 204
89 205
89 207
89 208
89 209
89 210
89 213
89 216
90 91
90 92
90 93
90 96
90 97
90 100
90 105
90 106
90 108
90 110
90 111
90 113
90 114
90 116
90 117
90 119
90 121
90 122
90 124
90 125
90 127
90 131
90 136
90 140
90 145
90 149
90 151
90 153
90 154
90 156
90 157
90 158
90 160
90 165
90 174
90 175
90 177
90 178
90 179
90 181
90 182
90 183
90 191
90 192
90 198
90 199
90 200
90 202
90 206
90 208
90 209
90 211
90 212
90 214
90 215
90 217
90 218
91 92
91 93
91 95
91 96
91 100
91 104
91 106
91 107
91 108
91 109
91 111
91 112
91 114
91 115
91 116
91 119
91 121
91 122
91 123
91 124
91 127
91 130
91 136
91 140
91 145
91 148
91 149
91 150
91 152
91 153
91 154
91 155
91 156
91 158
91 160
91 165
91 175
91 176
91 179
91 180
91 181
91 183
91 184
91 190
91 191
91 197
91 198
91 200
91 202
91 206
91 207
91 210
91 213
91 216
92 93
92 96
92 97
92 100
92 104
92 105
92 108
92 110
92 111
92 113
92 114
92 115
92 117
92 119
92 122
92 123
92 125
92 127
92 130
92 131
92 136
92 140
92 145
92 149
92 151
92 154
92 155
92 157
92 160
92 165
92 175
92 176
92 179
92 180
92 182
92 184
92 190
92 192
92 197
92 199
92 202
92 206
92 207
92 210
92 213
92 216
93 94
93 95
93 97
93 98
93 99
93 101
93 103
93 107
93 109
93 110
93 112
93 113
93 115
93 116
93 117
93 118
93 120
93 121
93 123
93 124
93 125
93 126
93 128
93 129
93 133
93 135
93 137
93 138
93 139
93 141
93 142
93 143
93 144
93 146
93 147
93 148
93 150
93 151
93 152
93 153
93 155
93 156
93 157
93 158
93 159
93 161
93 162
93 163
93 164
93 166
93 167
93 168
93 169
93 172
93 174
93 176
93 177
93 178
93 180
93 181
93 182
93 183
93 187
93 194
93 201
93 203
93 204
93 205
93 207
93 208
93 209
94 96
94 99
94 100
94 102
94 108
94 111
94 114
94 119
94 122
94 126
94 127
94 128
94 132
94 134
94 135
94 136
94 138
94 139
94 140
94 141
94 143
94 145
94 149
94 154
94 159
94 160
94 161
94 163
94 164
94 165
94 166
94 168
94 169
94 170
94 171
94 173
94 175
94 179
94 185
94 186
94 188
94 189
94 193
94 195
94 196
94 202
94 206
95 96
95 97
95 100
95 101
95 103
95 105
95 108
95 109
95 110
95 111
95 113
95 114
95 117
95 119
95 120
95 122
95 123
95 124
95 125
95 127
95 128
95 129
95 131
95 133
95 134
95 136
95 137
95 138
95 140
95 141
95 142
95 143
95 145
95 146
95 147
95 149
95 150
95 151
95 152
95 154
95 155
95 156
95 157
95 158
95 160
95 161
95 162
95 163
95 165
95 166
95 167
95 168
95 169
95 171
95 172
95 173
95 175
95 176
95 177
95 178
95 179
95 182
95 186
95 187
95 188
95 189
95 192
95 194
95 195
95 196
95 199
95 202
95 203
95 204
95 205
95 206
95 216
95 217
95 218
95 220
95 221
95 222
95 224
95 225
96 97
96 99
96 101
96 102
96 105
96 107
96 109
96 110
96 112
96 113
96 115
96 116
96 117
96 118
96 120
96 121
96 123
96 124
96 125
96 126
96 128
96 129
96 131
96 132
96 135
96 137
96 138
96 139
96 141
96 142
96 143
96 144
96 146
96 147
96 148
96 150
96 151
96 152
96 153
96 155
96 156
96 157
96 158
96 159
96 161
96 162
96 163
96 164
96 166
96 167
96 168
96 169
96 170
96 174
96 176
96 177
96 178
96 180
96 181
96 182
96 183
96 185
96 192
96 193
96 199
96 201
96 203
96 204
96 205
96 207
96 208
96 209
96 215
96 219
96 223
97 99
97 100
97 102
97 104
97 106
97 107
97 108
97 109
97 111
97 112
97 114
97 115
97 116
97 118
97 119
97 121
97 122
97 123
97 124
97 126
97 127
97 130
97 132
97 135
97 136
97 139
97 140
97 144
97 145
97 148
97 149
97 150
97 152
97 153
97 154
97 155
97 156
97 158
97 159
97 160
97 164
97 165
97 170
97 174
97 175
97 179
97 180
97 181
97 183
97 185
97 190
97 191
97 193
97 197
97 198
97 200
97 201
97 202
97 206
97 215
97 219
97 223
98 99
98 100
98 102
98 126
98 127
98 128
98 132
98 134
98 135
98 136
98 138
98 139
98 140
98 141
98 143
98 159
98 160
98 161
98 163
98 164
98 165
98 166
98 168
98 169
98 170
98 171
98 173
98 185
98 186
98 188
98 189
98 193
98 195
98 196
99 100
99 101
99 103
99 108
99 109
99 110
99 111
99 114
99 119
99 120
99 122
99 123
99 124
99 125
99 127
99 128
99 129
99 133
99 134
99 136
99 137
99 138
99 140
99 141
99 142
99 143
99 145
99 146
99 147
99 149
99 150
99 151
99 152
99 154
99 155
99 156
99 157
99 158
99 160
99 161
99 162
99 163
99 165
99 166
99 167
99 168
99 169
99 171
99 172
99 173
99 175
99 176
99 177
99 178
99 179
99 186
99 187
99 188
99 189
99 194
99 195
99 196
99 202
99 203
99 204
99 205
99 206
99 216
99 217
99 218
99 220
99 221
99 222
99 224
99 225
100 101
100 102
100 103
100 107
100 109
100 110
100 112
100 113
100 115
100 116
100 117
100 118
100 120
100 121
100 123
100 124
100 125
100 126
100 128
100 129
100 132
100 133
100 135
100 137
100 138
100 139
100 141
100 142
100 143
100 144
100 146
100 147
100 148
100 150
100 151
100 152
100 153
100 155
100 156
100 157
100 158
100 159
100 161
100 162
100 163
100 164
100 166
100 167
100 168
100 169
100 170
100 172
100 174
100 176
100 177
100 178
100 180
100 181
100 182
100 183
100 185
100 187
100 193
100 194
100 201
100 203
100 204
100 205
100 207
100 208
100 209
100 215
100 219
100 223
101 102
101 107
101 108
101 111
101 114
101 118
101 119
101 121
101 122
101 126
101 127
101 128
101 132
101 134
101 135
101 136
101 138
101 139
101 140
101 141
101 143
101 144
101 145
101 148
101 149
101 153
101 154
101 159
101 160
101 161
101 163
101 164
101 165
101 166
101 168
101 169
101 170
101 171
101 173
101 174
101 175
101 179
101 185
101 186
101 188
101 189
101 193
101 195
101 196
101 201
101 202
101 206
101 215
101 219
101 223
102 103
102 108
102 109
102 110
102 119
102 120
102 122
102 123
102 124
102 125
102 127
102 128
102 129
102 133
102 134
102 136
102 137
102 138
102 140
102 141
102 142
102 143
102 145
102 146
102 147
102 149
102 150
102 151
102 152
102 154
102 155
102 156
102 157
102 158
102 160
102 161
102 162
102 163
102 165
102 166
102 167
102 168
102 169
102 171
102 172
102 173
102 175
102 176
102 177
102 178
102 186
102 187
102 188
102 189
102 194
102 195
102 196
102 202
102 203
102 204
102 205
102 216
102 217
102 218
102 220
102 221
102 222
102 224
102 225
103 107
103 118
103 121
103 126
103 127
103 128
103 132
103 134
103 135
103 136
103 138
103 139
103 140
103 141
103 143
103 144
103 148
103 153
103 159
103 160
103 161
103 163
103 164
103 165
103 166
103 168
103 169
103 170
103 171
103 173
103 174
103 185
103 186
103 188
103 189
103 193
103 195
103 196
103 201
103 215
103 219
103 223
104 105
104 106
104 110
104 113
104 114
104 116
104 117
104 121
104 122
104 124
104 125
104 131
104 151
104 153
104 154
104 156
104 157
104 158
104 174
104 175
104 177
104 178
104 179
104 181
104 182
104 183
104 191
104 192
104 198
104 199
104 200
104 206
104 208
104 209
104 211
104 212
104 214
104 215
104 217
104 218
105 106
105 107
105 108
105 109
105 111
105 112
105 114
105 115
105 116
105 121
105 122
105 123
105 124
105 130
105 148
105 149
105 150
105 152
105 153
105 154
105 155
105 156
105 158
105 176
105 179
105 180
105 181
105 183
105 184
105 190
105 191
105 197
105 198
105 200
105 207
105 210
105 213
105 216
106 110
106 113
106 115
106 117
106 123
106 125
106 130
106 131
106 151
106 155
106 157
106 176
106 180
106 182
106 184
106 190
106 192
106 197
106 199
106 207
106 210
106 213
106 216
107 108
107 109
107 110
107 111
107 112
107 113
107 114
107 116
107 117
107 119
107 120
107 122
107 123
107 124
107 125
107 127
107 128
107 129
107 131
107 133
107 134
107 136
107 137
107 138
107 140
107 141
107 142
107 143
107 145
107 146
107 147
107 149
107 150
107 151
107 152
107 154
107 155
107 156
107 157
107 158
107 160
107 161
107 162
107 163
107 165
107 166
107 167
107 168
107 169
107 171
107 172
107 173
107 175
107 176
107 177
107 178
107 179
107 181
107 182
107 186
107 187
107 188
107 189
107 191
107 192
107 194
107 195
107 196
107 198
107 199
107 202
107 203
107 204
107 205
107 206
107 208
107 211
107 214
107 216
107 217
107 218
107 220
107 221
107 222
107 224
107 225
107 226
107 228
108 109
108 110
108 112
108 113
108 115
108 116
108 117
108 118
108 120
108 121
108 123
108 124
108 125
108 126
108 128
108 129
108 131
108 132
108 135
108 137
108 138
108 139
108 141
108 142
108 143
108 144
108 146
108 147
108 148
108 150
108 151
108 152
108 153
108 155
108 156
108 157
108 158
108 159
108 161
108 162
108 163
108 164
108 166
108 167
108 168
108 169
108 170
108 171
108 174
108 176
108 177
108 178
108 180
108 181
108 182
108 183
108 185
108 186
108 191
108 192
108 193
108 198
108 199
108 201
108 203
108 204
108 205
108 207
108 208
108 209
108 211
108 214
108 215
108 217
108 219
108 220
108 223
108 224
108 226
108 228
109 110
109 111
109 113
109 114
109 115
109 117
109 118
109 119
109 121
109 122
109 123
109 125
109 126
109 127
109 129
109 131
109 132
109 135
109 136
109 139
109 140
109 142
109 143
109 144
109 145
109 147
109 148
109 149
109 151
109 152
109 153
109 154
109 155
109 157
109 158
109 159
109 160
109 162
109 163
109 164
109 165
109 167
109 168
109 169
109 170
109 172
109 173
109 174
109 175
109 176
109 178
109 179
109 180
109 182
109 183
109 185
109 187
109 188
109 189
109 190
109 192
109 193
109 197
109 199
109 200
109 201
109 202
109 204
109 205
109 206
109 207
109 209
109 210
109 212
109 213
109 215
109 216
109 218
109 219
109 221
109 222
109 223
109 225
109 227
110 111
110 112
110 114
110 115
110 116
110 118
110 119
110 120
110 121
110 122
110 123
110 124
110 126
110 127
110 128
110 130
110 132
110 135
110 136
110 139
110 140
110 141
110 144
110 145
110 146
110 148
110 149
110 150
110 152
110 153
110 154
110 155
110 156
110 158
110 159
110 160
110 161
110 164
110 165
110 166
110 170
110 171
110 174
110 175
110 177
110 179
110 180
110 181
110 183
110 185
110 186
110 190
110 191
110 193
110 197
110 198
110 200
110 201
110 202
110 203
110 206
110 208
110 211
110 214
110 215
110 217
110 219
110 220
110 223
110 224
110 226
110 228
111 112
111 113
111 115
111 116
111 117
111 118
111 120
111 121
111 123
111 124
111 125
111 126
111 128
111 129
111 131
111 135
111 137
111 138
111 139
111 141
111 142
111 143
111 144
111 146
111 147
111 148
111 150
111 151
111 152
111 153
111 155
111 156
111 157
111 158
111 159
111 161
111 162
111 163
111 164
111 166
111 167
111 168
111 169
111 171
111 174
111 176
111 177
111 178
111 180
111 181
111 182
111 183
111 186
111 191
111 192
111 198
111 199
111 201
111 203
111 204
111 205
111 207
111 208
111 209
111 211
111 214
111 217
111 220
111 224
111 226
111 228
112 113
112 114
112 115
112 117
112 118
112 119
112 121
112 122
112 123
112 125
112 126
112 127
112 129
112 131
112 136
112 139
112 140
112 142
112 143
112 144
112 145
112 147
112 148
112 149
112 151
112 152
112 153
112 154
112 155
112 157
112 158
112 159
112 160
112 162
112 163
112 164
112 165
112 167
112 168
112 169
112 170
112 172
112 173
112 174
112 175
112 176
112 178
112 179
112 180
112 182
112 183
112 185
112 187
112 188
112 189
112 190
112 192
112 197
112 199
112 200
112 201
112 202
112 204
112 205
112 206
112 207
112 209
112 210
112 212
112 213
112 215
112 216
112 218
112 219
112 221
112 222
112 223
112 225
112 227
113 114
113 115
113 116
113 119
113 120
113 121
113 122
113 123
113 124
113 127
113 128
113 130
113 136
113 140
113 141
113 145
113 146
113 148
113 149
113 150
113 152
113 153
113 154
113 155
113 156
113 158
113 160
113 161
113 165
113 166
113 171
113 175
113 177
113 179
113 180
113 181
113 183
113 186
113 190
113 191
113 197
113 198
113 200
113 202
113 203
113 206
113 208
113 211
113 214
113 217
113 220
113 224
113 226
113 228
114 115
114 116
114 117
114 118
114 120
114 121
114 123
114 124
114 125
114 126
114 128
114 129
114 130
114 131
114 135
114 137
114 138
114 139
114 141
114 142
114 143
114 144
114 146
114 147
114 148
114 150
114 151
114 152
114 153
114 155
114 156
114 157
114 158
114 159
114 161
114 162
114 163
114 164
114 166
114 167
114 168
114 169
114 171
114 174
114 176
114 177
114 178
114 180
114 181
114 182
114 183
114 184
114 186
114 190
114 191
114 192
114 197
114 198
114 199
114 201
114 203
114 204
114 205
114 207
114 208
114 209
114 210
114 211
114 213
114 214
114 216
114 217
114 220
114 224
114 226
114 228
115 116
115 117
115 119
115 120
115 121
115 122
115 124
115 125
115 127
115 128
115 131
115 136
115 140
115 141
115 145
115 146
115 149
115 150
115 151
115 153
115 154
115 156
115 157
115 158
115 160
115 161
115 165
115 166
115 171
115 174
115 175
115 177
115 178
115 179
115 181
115 182
115 183
115 186
115 191
115 192
115 198
115 199
115 200
115 202
115 203
115 206
115 208
115 209
115 211
115 212
115 214
115 215
115 217
115 218
115 220
115 224
115 226
115 228
116 117
116 118
116 119
116 121
116 122
116 123
116 125
116 126
116 127
116 129
116 130
116 131
116 136
116 139
116 140
116 142
116 143
116 144
116 145
116 147
116 148
116 149
116 151
116 152
116 153
116 154
116 155
116 157
116 158
116 159
116 160
116 162
116 163
116 164
116 165
116 167
116 168
116 169
116 170
116 172
116 173
116 174
116 175
116 176
116 178
116 179
116 180
116 182
116 183
116 184
116 185
116 187
116 188
116 189
116 190
116 192
116 197
116 199
116 200
116 201
116 202
116 204
116 205
116 206
116 207
116 209
116 210
116 212
116 213
116 215
116 216
116 218
116 219
116 221
116 222
116 223
116 225
116 227
117 119
117 120
117 121
117 122
117 123
117 124
117 127
117 128
117 130
117 136
117 140
117 141
117 145
117 146
117 148
117 149
117 150
117 152
117 153
117 154
117 155
117 156
117 158
117 160
117 161
117 165
117 166
117 171
117 175
117 176
117 177
117 179
117 180
117 181
117 183
117 184
117 186
117 190
117 191
117 197
117 198
117 200
117 202
117 203
117 206
117 207
117 208
117 210
117 211
117 213
117 214
117 216
117 217
117 220
117 224
117 226
117 228
118 119
118 120
118 122
118 123
118 124
118 125
118 127
118 128
118 129
118 133
118 134
118 136
118 137
118 138
118 140
118 141
118 142
118 143
118 145
118 146
118 147
118 149
118 150
118 151
118 152
118 154
118 155
118 156
118 157
118 158
118 160
118 161
118 162
118 163
118 165
118 166
118 167
118 168
118 169
118 171
118 172
118 173
118 175
118 176
118 177
118 178
118 179
118 181
118 186
118 187
118 188
118 189
118 191
118 194
118 195
118 196
118 198
118 202
118 203
118 204
118 205
118 206
118 208
118 211
118 214
118 216
118 217
118 218
118 220
118 221
118 222
118 224
118 225
118 226
118 228
119 120
119 121
119 123
119 124
119 125
119 126
119 128
119 129
119 132
119 135
119 137
119 138
119 139
119 141
119 142
119 143
119 144
119 146
119 147
119 148
119 150
119 151
119 152
119 153
119 155
119 156
119 157
119 158
119 159
119 161
119 162
119 163
119 164
119 166
119 167
119 168
119 169
119 170
119 171
119 174
119 176
119 177
119 178
119 180
119 181
119 182
119 183
119 185
119 186
119 191
119 193
119 198
119 201
119 203
119 204
119 205
119 207
119 208
119 209
119 211
119 214
119 215
119 217
119 219
119 220
119 223
119 224
119 226
119 228
120 121
120 122
120 123
120 125
120 126
120 127
120 129
120 132
120 135
120 136
120 139
120 140
120 142
120 143
120 144
120 145
120 147
120 148
120 149
120 151
120 152
120 153
120 154
120 155
120 157
120 158
120 159
120 160
120 162
120 163
120 164
120 165
120 167
120 168
120 169
120 170
120 172
120 173
120 174
120 175
120 176
120 178
120 179
120 180
120 182
120 183
120 185
120 187
120 188
120 189
120 190
120 192
120 193
120 197
120 199
120 200
120 201
120 202
120 204
120 205
120 206
120 207
120 209
120 210
120 212
120 213
120 215
120 216
120 218
120 219
120 221
120 222
120 223
120 225
120 227
121 122
121 123
121 124
121 125
121 127
121 128
121 129
121 130
121 131
121 133
121 134
121 136
121 137
121 138
121 140
121 141
121 142
121 143
121 145
121 146
121 147
121 149
121 150
121 151
121 152
121 154
121 155
121 156
121 157
121 158
121 160
121 161
121 162
121 163
121 165
121 166
121 167
121 168
121 169
121 171
121 172
121 173
121 175
121 176
121 177
121 178
121 179
121 180
121 181
121 182
121 184
121 186
121 187
121 188
121 189
121 190
121 191
121 192
121 194
121 195
121 196
121 197
121 198
121 199
121 202
121 203
121 204
121 205
121 206
121 207
121 208
121 210
121 211
121 213
121 214
121 216
121 217
121 218
121 220
121 221
121 222
121 224
121 225
121 226
121 228
122 123
122 124
122 125
122 126
122 128
122 129
122 130
122 131
122 132
122 135
122 137
122 138
122 139
122 141
122 142
122 143
122 144
122 146
122 147
122 148
122 150
122 151
122 152
122 153
122 155
122 156
122 157
122 158
122 159
122 161
122 162
122 163
122 164
122 166
122 167
122 168
122 169
122 170
122 171
122 174
122 176
122 177
122 178
122 180
122 181
122 182
122 183
122 184
122 185
122 186
122 190
122 191
122 192
122 193
122 197
122 198
122 199
122 201
122 203
122 204
122 205
122 207
122 208
122 209
122 210
122 211
122 213
122 214
122 215
122 216
122 217
122 219
122 220
122 223
122 224
122 226
122 228
123 124
123 125
123 126
123 127
123 128
123 131
123 132
123 135
123 136
123 139
123 140
123 141
123 144
123 145
123 146
123 148
123 149
123 150
123 151
123 153
123 154
123 156
123 157
123 158
123 159
123 160
123 161
123 164
123 165
123 166
123 170
123 171
123 174
123 175
123 177
123 178
123 179
123 181
123 182
123 183
123 185
123 186
123 191
123 192
123 193
123 198
123 199
123 200
123 201
123 202
123 203
123 206
123 208
123 209
123 211
123 212
123 214
123 215
123 217
123 218
123 219
123 220
123 223
123 224
123 226
123 228
124 125
124 126
124 127
124 129
124 130
124 131
124 132
124 135
124 136
124 139
124 140
124 142
124 143
124 144
124 145
124 147
124 148
124 149
124 151
124 152
124 153
124 154
124 155
124 157
124 158
124 159
124 160
124 162
124 163
124 164
124 165
124 167
124 168
124 169
124 170
124 172
124 173
124 174
124 175
124 176
124 178
124 179
124 180
124 182
124 183
124 184
124 185
124 187
124 188
124 189
124 190
124 192
124 193
124 197
124 199
124 200
124 201
124 202
124 204
124 205
124 206
124 207
124 209
124 210
124 212
124 213
124 215
124 216
124 218
124 219
124 221
124 222
124 223
124 225
124 227
125 126
125 127
125 128
125 130
125 132
125 135
125 136
125 139
125 140
125 141
125 144
125 145
125 146
125 148
125 149
125 150
125 152
125 153
125 154
125 155
125 156
125 158
125 159
125 160
125 161
125 164
125 165
125 166
125 170
125 171
125 174
125 175
125 176
125 177
125 179
125 180
125 181
125 183
125 184
125 185
125 186
125 190
125 191
125 193
125 197
125 198
125 200
125 201
125 202
125 203
125 206
125 207
125 208
125 210
125 211
125 213
125 214
125 215
125 216
125 217
125 219
125 220
125 223
125 224
125 226
125 228
126 127
126 128
126 129
126 133
126 134
126 136
126 137
126 138
126 140
126 141
126 142
126 143
126 145
126 146
126 147
126 149
126 150
126 151
126 152
126 154
126 155
126 156
126 157
126 158
126 160
126 161
126 162
126 163
126 165
126 166
126 167
126 168
126 169
126 171
126 172
126 173
126 175
126 176
126 177
126 178
126 179
126 181
126 186
126 187
126 188
126 189
126 191
126 194
126 195
126 196
126 198
126 202
126 203
126 204
126 205
126 206
126 208
126 211
126 214
126 216
126 217
126 218
126 220
126 221
126 222
126 224
126 225
126 226
126 228
127 128
127 129
127 132
127 133
127 135
127 137
127 138
127 139
127 141
127 142
127 143
127 144
127 146
127 147
127 148
127 150
127 151
127 152
127 153
127 155
127 156
127 157
127 158
127 159
127 161
127 162
127 163
127 164
127 166
127 167
127 168
127 169
127 170
127 171
127 172
127 174
127 176
127 177
127 178
127 180
127 181
127 182
127 183
127 185
127 186
127 187
127 191
127 193
127 194
127 198
127 201
127 203
127 204
127 205
127 207
127 208
127 209
127 211
127 214
127 215
127 217
127 219
127 220
127 223
127 224
127 226
127 228
128 129
128 132
128 133
128 135
128 136
128 137
128 139
128 140
128 142
128 143
128 144
128 145
128 147
128 148
128 149
128 151
128 152
128 153
128 154
128 155
128 157
128 158
128 159
128 160
128 162
128 163
128 164
128 165
128 167
128 168
128 169
128 170
128 172
128 173
128 174
128 175
128 176
128 178
128 179
128 180
128 182
128 183
128 185
128 187
128 188
128 189
128 190
128 192
128 193
128 194
128 197
128 199
128 200
128 201
128 202
128 204
128 205
128 206
128 207
128 209
128 210
128 212
128 213
128 215
128 216
128 218
128 219
128 221
128 222
128 223
128 225
128 227
129 132
129 134
129 135
129 136
129 138
129 139
129 140
129 141
129 143
129 144
129 145
129 146
129 148
129 149
129 150
129 153
129 154
129 156
129 159
129 160
129 161
129 163
129 164
129 165
129 166
129 168
129 169
129 170
129 171
129 173
129 174
129 175
129 177
129 179
129 181
129 185
129 186
129 188
129 189
129 191
129 193
129 195
129 196
129 198
129 201
129 202
129 203
129 206
129 208
129 211
129 214
129 215
129 217
129 219
129 220
129 223
129 224
129 226
129 228
130 131
130 151
130 153
130 154
130 156
130 157
130 158
130 174
130 175
130 177
130 178
130 179
130 181
130 182
130 183
130 191
130 192
130 198
130 199
130 200
130 206
130 208
130 209
130 211
130 212
130 214
130 215
130 217
130 218
131 148
131 149
131 150
131 152
131 153
131 154
131 155
131 156
131 158
131 176
131 179
131 180
131 181
131 183
131 184
131 190
131 191
131 197
131 198
131 200
131 207
131 210
131 213
131 216
132 133
132 134
132 136
132 137
132 138
132 140
132 141
132 142
132 143
132 145
132 146
132 147
132 149
132 150
132 151
132 152
132 154
132 155
132 156
132 157
132 158
132 160
132 161
132 162
132 163
132 165
132 166
132 167
132 168
132 169
132 171
132 172
132 173
132 175
132 176
132 177
132 178
132 186
132 187
132 188
132 189
132 194
132 195
132 196
132 202
132 203
132 204
132 205
132 216
132 217
132 218
132 220
132 221
132 222
132 224
132 225
133 134
133 135
133 136
133 138
133 139
133 140
133 141
133 143
133 144
133 148
133 153
133 159
133 160
133 161
133 163
133 164
133 165
133 166
133 168
133 169
133 170
133 171
133 173
133 174
133 185
133 186
133 188
133 189
133 193
133 195
133 196
133 201
133 204
133 215
133 219
133 221
133 223
134 135
134 136
134 137
134 139
134 140
134 141
134 142
134 144
134 148
134 153
134 159
134 162
134 164
134 165
134 166
134 167
134 169
134 170
134 171
134 172
134 174
134 185
134 186
134 187
134 189
134 193
134 194
134 196
134 201
134 202
134 203
134 205
134 215
134 219
134 220
134 222
134 223
135 136
135 137
135 138
135 140
135 141
135 142
135 143
135 145
135 146
135 147
135 149
135 150
135 151
135 152
135 154
135 155
135 156
135 157
135 158
135 160
135 161
135 162
135 163
135 165
135 166
135 167
135 168
135 169
135 171
135 172
135 173
135 175
135 176
135 177
135 178
135 179
135 186
135 187
135 188
135 189
135 194
135 195
135 196
135 202
135 203
135 204
135 205
135 206
135 216
135 217
135 218
135 220
135 221
135 222
135 224
135 225
136 137
136 138
136 139
136 141
136 142
136 143
136 144
136 146
136 147
136 148
136 150
136 151
136 152
136 153
136 155
136 156
136 157
136 158
136 159
136 161
136 162
136 163
136 164
136 166
136 167
136 168
136 169
136 170
136 172
136 173
136 174
136 176
136 177
136 178
136 180
136 181
136 182
136 183
136 185
136 187
136 188
136 193
136 194
136 195
136 201
136 203
136 204
136 205
136 207
136 208
136 209
136 215
136 219
136 221
136 223
137 138
137 139
137 140
137 141
137 143
137 144
137 145
137 148
137 149
137 153
137 154
137 159
137 160
137 161
137 163
137 164
137 165
137 166
137 168
137 169
137 170
137 171
137 173
137 174
137 175
137 179
137 185
137 186
137 188
137 189
137 193
137 195
137 196
137 201
137 202
137 204
137 206
137 215
137 219
137 221
137 223
138 139
138 140
138 141
138 142
138 144
138 145
138 148
138 149
138 153
138 154
138 159
138 160
138 162
138 164
138 165
138 166
138 167
138 169
138 170
138 171
138 172
138 174
138 175
138 179
138 185
138 186
138 187
138 189
138 193
138 194
138 196
138 201
138 202
138 203
138 205
138 206
138 215
138 219
138 220
138 222
138 223
139 140
139 141
139 142
139 143
139 145
139 146
139 147
139 149
139 150
139 151
139 152
139 154
139 155
139 156
139 157
139 158
139 160
139 161
139 162
139 163
139 165
139 166
139 167
139 168
139 169
139 171
139 172
139 173
139 175
139 176
139 177
139 178
139 179
139 181
139 186
139 187
139 188
139 189
139 191
139 194
139 195
139 196
139 198
139 202
139 203
139 204
139 205
139 206
139 208
139 211
139 214
139 216
139 217
139 218
139 220
139 221
139 222
139 224
139 225
139 226
139 228
140 141
140 142
140 143
140 144
140 146
140 147
140 148
140 150
140 151
140 152
140 153
140 155
140 156
140 157
140 158
140 159
140 161
140 162
140 163
140 164
140 166
140 167
140 168
140 169
140 170
140 171
140 172
140 173
140 174
140 176
140 177
140 178
140 180
140 181
140 182
140 183
140 185
140 186
140 187
140 188
140 191
140 193
140 194
140 195
140 198
140 201
140 203
140 204
140 205
140 207
140 208
140 209
140 211
140 214
140 215
140 217
140 219
140 220
140 221
140 223
140 224
140 226
140 228
141 142
141 143
141 144
141 145
141 147
141 148
141 149
141 151
141 152
141 153
141 154
141 155
141 157
141 158
141 159
141 160
141 162
141 163
141 164
141 165
141 167
141 168
141 169
141 170
141 172
141 173
141 174
141 175
141 176
141 178
141 179
141 180
141 182
141 183
141 185
141 187
141 188
141 189
141 190
141 192
141 193
141 194
141 195
141 197
141 199
141 200
141 201
141 202
141 204
141 205
141 206
141 207
141 209
141 210
141 212
141 213
141 215
141 216
141 218
141 219
141 221
141 222
141 223
141 225
141 227
142 143
142 144
142 145
142 146
142 148
142 149
142 150
142 153
142 154
142 156
142 159
142 160
142 161
142 163
142 164
142 165
142 166
142 168
142 169
142 170
142 171
142 173
142 174
142 175
142 177
142 179
142 181
142 185
142 186
142 188
142 189
142 191
142 193
142 195
142 196
142 198
142 201
142 202
142 203
142 204
142 206
142 208
142 211
142 214
142 215
142 217
142 219
142 220
142 221
142 223
142 224
142 226
142 228
143 144
143 145
143 146
143 148
143 149
143 150
143 153
143 154
143 156
143 159
143 160
143 161
143 162
143 164
143 165
143 166
143 167
143 169
143 170
143 171
143 172
143 174
143 175
143 177
143 179
143 181
143 185
143 186
143 187
143 189
143 191
143 193
143 194
143 196
143 198
143 201
143 202
143 203
143 205
143 206
143 208
143 211
143 214
143 215
143 217
143 219
143 220
143 222
143 223
143 224
143 226
143 228
144 145
144 146
144 147
144 149
144 150
144 151
144 152
144 154
144 155
144 156
144 157
144 158
144 160
144 161
144 162
144 163
144 165
144 166
144 167
144 168
144 169
144 171
144 172
144 173
144 175
144 176
144 177
144 178
144 179
144 181
144 183
144 186
144 187
144 188
144 189
144 191
144 194
144 195
144 196
144 198
144 200
144 202
144 203
144 204
144 205
144 206
144 208
144 209
144 211
144 212
144 214
144 216
144 217
144 218
144 220
144 221
144 222
144 224
144 225
144 226
144 227
144 228
145 146
145 147
145 148
145 150
145 151
145 152
145 153
145 155
145 156
145 157
145 158
145 159
145 161
145 162
145 163
145 164
145 166
145 167
145 168
145 169
145 170
145 171
145 174
145 176
145 177
145 178
145 180
145 181
145 182
145 183
145 185
145 186
145 189
145 191
145 193
145 196
145 198
145 200
145 201
145 203
145 204
145 205
145 207
145 208
145 209
145 211
145 212
145 214
145 215
145 217
145 218
145 219
145 220
145 222
145 223
145 224
145 225
145 226
145 227
145 228
146 147
146 148
146 149
146 151
146 152
146 153
146 154
146 155
146 157
146 158
146 159
146 160
146 162
146 163
146 164
146 165
146 167
146 168
146 169
146 170
146 172
146 173
146 174
146 175
146 176
146 178
146 179
146 180
146 182
146 183
146 185
146 187
146 188
146 189
146 190
146 192
146 193
146 196
146 197
146 199
146 200
146 201
146 202
146 204
146 205
146 206
146 207
146 209
146 210
146 212
146 213
146 215
146 216
146 218
146 219
146 221
146 222
146 223
146 225
146 227
147 148
147 149
147 150
147 151
147 153
147 154
147 155
147 156
147 157
147 159
147 160
147 161
147 162
147 164
147 165
147 166
147 167
147 168
147 170
147 171
147 174
147 175
147 176
147 177
147 179
147 180
147 181
147 182
147 185
147 186
147 187
147 188
147 191
147 193
147 194
147 195
147 197
147 198
147 199
147 201
147 202
147 203
147 204
147 206
147 207
147 208
147 210
147 211
147 214
147 215
147 216
147 217
147 219
147 220
147 221
147 223
147 224
147 226
147 228
148 149
148 150
148 151
148 152
148 154
148 155
148 156
148 157
148 158
148 160
148 161
148 162
148 163
148 165
148 166
148 167
148 168
148 169
148 171
148 172
148 173
148 175
148 176
148 177
148 178
148 179
148 181
148 182
148 183
148 186
148 187
148 188
148 189
148 191
148 192
148 194
148 195
148 196
148 198
148 199
148 200
148 202
148 203
148 204
148 205
148 206
148 208
148 209
148 211
148 212
148 214
148 216
148 217
148 218
148 220
148 221
148 222
148 224
148 225
148 226
148 227
148 228
149 150
149 151
149 152
149 153
149 155
149 156
149 157
149 158
149 159
149 161
149 162
149 163
149 164
149 166
149 167
149 168
149 169
149 170
149 171
149 174
149 176
149 177
149 178
149 180
149 181
149 182
149 183
149 185
149 186
149 189
149 191
149 192
149 193
149 196
149 198
149 199
149 200
149 201
149 203
149 204
149 205
149 207
149 208
149 209
149 211
149 212
149 214
149 215
149 217
149 218
149 219
149 220
149 222
149 223
149 224
149 225
149 226
149 227
149 228
150 151
150 152
150 153
150 154
150 155
150 157
150 158
150 159
150 160
150 162
150 163
150 164
150 165
150 167
150 168
150 169
150 170
150 172
150 173
150 174
150 175
150 176
150 178
150 179
150 180
150 182
150 183
150 185
150 187
150 188
150 189
150 190
150 192
150 193
150 196
150 197
150 199
150 200
150 201
150 202
150 204
150 205
150 206
150 207
150 209
150 210
150 212
150 213
150 215
150 216
150 218
150 219
150 221
150 222
150 223
150 225
150 227
151 152
151 153
151 154
151 155
151 156
151 158
151 159
151 160
151 161
151 163
151 164
151 165
151 166
151 169
151 170
151 171
151 174
151 175
151 177
151 178
151 179
151 180
151 181
151 183
151 185
151 186
151 189
151 190
151 191
151 193
151 196
151 197
151 198
151 200
151 201
151 202
151 203
151 205
151 206
151 208
151 209
151 211
151 212
151 214
151 215
151 217
151 218
151 219
151 220
151 222
151 223
151 224
151 225
151 226
151 227
151 228
152 153
152 154
152 155
152 156
152 157
152 159
152 160
152 161
152 162
152 164
152 165
152 166
152 167
152 168
152 170
152 171
152 174
152 175
152 176
152 177
152 179
152 180
152 181
152 182
152 185
152 186
152 187
152 188
152 191
152 192
152 193
152 194
152 195
152 197
152 198
152 199
152 201
152 202
152 203
152 204
152 206
152 207
152 208
152 210
152 211
152 214
152 215
152 216
152 217
152 219
152 220
152 221
152 223
152 224
152 226
152 228
153 154
153 155
153 156
153 157
153 158
153 160
153 161
153 162
153 163
153 165
153 166
153 167
153 168
153 169
153 171
153 172
153 173
153 175
153 176
153 177
153 178
153 179
153 180
153 181
153 182
153 183
153 184
153 186
153 187
153 188
153 189
153 190
153 191
153 192
153 194
153 195
153 196
153 197
153 198
153 199
153 200
153 202
153 203
153 204
153 205
153 206
153 207
153 208
153 209
153 210
153 211
153 212
153 213
153 214
153 216
153 217
153 218
153 220
153 221
153 222
153 224
153 225
153 226
153 227
153 228
154 155
154 156
154 157
154 158
154 159
154 161
154 162
154 163
154 164
154 166
154 167
154 168
154 169
154 170
154 171
154 174
154 176
154 177
154 178
154 180
154 181
154 182
154 183
154 184
154 185
154 186
154 189
154 190
154 191
154 192
154 193
154 196
154 197
154 198
154 199
154 200
154 201
154 203
154 204
154 205
154 207
154 208
154 209
154 210
154 211
154 212
154 213
154 214
154 215
154 216
154 217
154 218
154 219
154 220
154 222
154 223
154 224
154 225
154 226
154 227
154 228
155 156
155 157
155 158
155 159
155 160
155 161
155 163
155 164
155 165
155 166
155 169
155 170
155 171
155 174
155 175
155 177
155 178
155 179
155 181
155 182
155 183
155 185
155 186
155 189
155 191
155 192
155 193
155 196
155 198
155 199
155 200
155 201
155 202
155 203
155 205
155 206
155 208
155 209
155 211
155 212
155 214
155 215
155 217
155 218
155 219
155 220
155 222
155 223
155 224
155 225
155 226
155 227
155 228
156 157
156 158
156 159
156 160
156 162
156 163
156 164
156 165
156 167
156 168
156 169
156 170
156 172
156 173
156 174
156 175
156 176
156 178
156 179
156 180
156 182
156 183
156 184
156 185
156 187
156 188
156 189
156 190
156 192
156 193
156 196
156 197
156 199
156 200
156 201
156 202
156 204
156 205
156 206
156 207
156 209
156 210
156 212
156 213
156 215
156 216
156 218
156 219
156 221
156 222
156 223
156 225
156 227
157 158
157 159
157 160
157 161
157 163
157 164
157 165
157 166
157 169
157 170
157 171
157 174
157 175
157 176
157 177
157 178
157 179
157 180
157 181
157 183
157 184
157 185
157 186
157 189
157 190
157 191
157 193
157 196
157 197
157 198
157 200
157 201
157 202
157 203
157 205
157 206
157 207
157 208
157 209
157 210
157 211
157 212
157 213
157 214
157 215
157 216
157 217
157 218
157 219
157 220
157 222
157 223
157 224
157 225
157 226
157 227
157 228
158 159
158 160
158 161
158 162
158 164
158 165
158 166
158 167
158 168
158 170
158 171
158 174
158 175
158 176
158 177
158 179
158 180
158 181
158 182
158 184
158 185
158 186
158 187
158 188
158 190
158 191
158 192
158 193
158 194
158 195
158 197
158 198
158 199
158 201
158 202
158 203
158 204
158 206
158 207
158 208
158 210
158 211
158 213
158 214
158 215
158 216
158 217
158 219
158 220
158 221
158 223
158 224
158 226
158 228
159 160
159 161
159 162
159 163
159 165
159 166
159 167
159 168
159 169
159 171
159 172
159 173
159 175
159 176
159 177
159 178
159 179
159 181
159 183
159 186
159 187
159 188
159 189
159 191
159 194
159 195
159 196
159 198
159 200
159 202
159 203
159 204
159 205
159 206
159 208
159 209
159 211
159 212
159 214
159 216
159 217
159 218
159 220
159 221
159 222
159 224
159 225
159 226
159 227
159 228
160 161
160 162
160 163
160 164
160 166
160 167
160 168
160 169
160 170
160 171
160 172
160 174
160 176
160 177
160 178
160 180
160 181
160 182
160 183
160 185
160 186
160 187
160 189
160 191
160 193
160 194
160 196
160 198
160 200
160 201
160 203
160 204
160 205
160 207
160 208
160 209
160 211
160 212
160 214
160 215
160 217
160 218
160 219
160 220
160 222
160 223
160 224
160 225
160 226
160 227
160 228
161 162
161 163
161 164
161 165
161 167
161 168
161 169
161 170
161 172
161 173
161 174
161 175
161 176
161 178
161 179
161 180
161 182
161 183
161 185
161 187
161 188
161 189
161 190
161 192
161 193
161 194
161 196
161 197
161 199
161 200
161 201
161 202
161 204
161 205
161 206
161 207
161 209
161 210
161 212
161 213
161 215
161 216
161 218
161 219
161 221
161 222
161 223
161 225
161 227
162 163
162 164
162 165
162 166
162 168
162 169
162 170
162 171
162 173
162 174
162 175
162 177
162 178
162 179
162 181
162 183
162 185
162 186
162 188
162 189
162 191
162 193
162 195
162 196
162 198
162 200
162 201
162 202
162 203
162 205
162 206
162 208
162 209
162 211
162 212
162 214
162 215
162 217
162 218
162 219
162 220
162 222
162 223
162 224
162 225
162 226
162 227
162 228
163 164
163 165
163 166
163 167
163 168
163 170
163 171
163 172
163 174
163 175
163 176
163 177
163 179
163 180
163 181
163 182
163 185
163 186
163 187
163 188
163 191
163 193
163 194
163 195
163 197
163 198
163 199
163 201
163 202
163 203
163 204
163 206
163 207
163 208
163 210
163 211
163 214
163 215
163 216
163 217
163 219
163 220
163 221
163 223
163 224
163 226
163 228
164 165
164 166
164 167
164 168
164 169
164 171
164 172
164 173
164 175
164 176
164 177
164 178
164 179
164 181
164 183
164 186
164 187
164 188
164 189
164 191
164 194
164 195
164 196
164 198
164 200
164 202
164 203
164 204
164 205
164 206
164 208
164 209
164 211
164 212
164 214
164 216
164 217
164 218
164 220
164 221
164 222
164 224
164 225
164 226
164 227
164 228
165 166
165 167
165 168
165 169
165 170
165 171
165 172
165 173
165 174
165 176
165 177
165 178
165 180
165 181
165 182
165 183
165 185
165 186
165 187
165 188
165 189
165 191
165 193
165 194
165 195
165 196
165 198
165 200
165 201
165 203
165 204
165 205
165 207
165 208
165 209
165 211
165 212
165 214
165 215
165 217
165 218
165 219
165 220
165 221
165 222
165 223
165 224
165 225
165 226
165 227
165 228
166 167
166 168
166 169
166 170
166 172
166 173
166 174
166 175
166 176
166 178
166 179
166 180
166 182
166 183
166 185
166 187
166 188
166 189
166 190
166 192
166 193
166 194
166 195
166 196
166 197
166 199
166 200
166 201
166 202
166 204
166 205
166 206
166 207
166 209
166 210
166 212
166 213
166 215
166 216
166 218
166 219
166 221
166 222
166 223
166 225
166 227
167 168
167 169
167 170
167 171
167 173
167 174
167 175
167 177
167 178
167 179
167 181
167 183
167 185
167 186
167 188
167 189
167 191
167 193
167 195
167 196
167 198
167 200
167 201
167 202
167 203
167 204
167 205
167 206
167 208
167 209
167 211
167 212
167 214
167 215
167 217
167 218
167 219
167 220
167 221
167 222
167 223
167 224
167 225
167 226
167 227
167 228
168 169
168 170
168 171
168 172
168 174
168 175
168 177
168 178
168 179
168 181
168 183
168 185
168 186
168 187
168 189
168 191
168 193
168 194
168 196
168 198
168 200
168 201
168 202
168 203
168 205
168 206
168 208
168 209
168 211
168 212
168 214
168 215
168 217
168 218
168 219
168 220
168 222
168 223
168 224
168 225
168 226
168 227
168 228
169 170
169 171
169 172
169 173
169 174
169 175
169 176
169 177
169 179
169 180
169 181
169 182
169 185
169 186
169 187
169 188
169 191
169 193
169 194
169 195
169 197
169 198
169 199
169 201
169 202
169 203
169 204
169 206
169 207
169 208
169 210
169 211
169 214
169 215
169 216
169 217
169 219
169 220
169 221
169 223
169 224
169 226
169 228
170 171
170 172
170 173
170 175
170 176
170 177
170 178
170 181
170 186
170 187
170 188
170 189
170 191
170 194
170 195
170 196
170 198
170 202
170 203
170 204
170 205
170 208
170 211
170 214
170 216
170 217
170 218
170 220
170 221
170 222
170 224
170 225
170 226
170 228
171 172
171 173
171 174
171 175
171 176
171 178
171 179
171 180
171 182
171 183
171 185
171 187
171 188
171 189
171 190
171 192
171 193
171 194
171 195
171 197
171 199
171 200
171 201
171 202
171 204
171 205
171 206
171 207
171 209
171 210
171 212
171 213
171 215
171 216
171 218
171 219
171 221
171 222
171 223
171 225
171 227
172 173
172 174
172 177
172 181
172 185
172 186
172 188
172 189
172 191
172 193
172 195
172 196
172 198
172 201
172 203
172 204
172 208
172 211
172 214
172 215
172 217
172 219
172 220
172 221
172 223
172 224
172 226
172 228
173 174
173 177
173 181
173 185
173 186
173 187
173 189
173 191
173 193
173 194
173 196
173 198
173 201
173 202
173 203
173 205
173 208
173 211
173 214
173 215
173 217
173 219
173 220
173 222
173 223
173 224
173 226
173 228
174 175
174 176
174 177
174 178
174 179
174 180
174 181
174 183
174 184
174 186
174 187
174 188
174 189
174 190
174 191
174 194
174 195
174 196
174 197
174 198
174 200
174 202
174 203
174 204
174 205
174 206
174 207
174 208
174 209
174 210
174 211
174 212
174 213
174 214
174 216
174 217
174 218
174 220
174 221
174 222
174 224
174 225
174 226
174 227
174 228
175 176
175 177
175 178
175 180
175 181
175 182
175 183
175 184
175 185
175 186
175 189
175 190
175 191
175 193
175 196
175 197
175 198
175 200
175 201
175 203
175 204
175 205
175 207
175 208
175 209
175 210
175 211
175 212
175 213
175 214
175 215
175 216
175 217
175 218
175 219
175 220
175 222
175 223
175 224
175 225
175 226
175 227
175 228
176 177
176 178
176 179
176 181
176 182
176 183
176 185
176 186
176 189
176 191
176 192
176 193
176 196
176 198
176 199
176 200
176 201
176 202
176 203
176 205
176 206
176 208
176 209
176 211
176 212
176 214
176 215
176 217
176 218
176 219
176 220
176 222
176 223
176 224
176 225
176 226
176 227
176 228
177 178
177 179
177 180
177 182
177 183
177 184
177 185
177 187
177 188
177 189
177 190
177 192
177 193
177 196
177 197
177 199
177 200
177 201
177 202
177 204
177 205
177 206
177 207
177 209
177 210
177 212
177 213
177 215
177 216
177 218
177 219
177 221
177 222
177 223
177 225
177 227
178 179
178 180
178 181
178 182
178 184
178 185
178 186
178 187
178 188
178 190
178 191
178 193
178 194
178 195
178 197
178 198
178 199
178 201
178 202
178 203
178 204
178 206
178 207
178 208
178 210
178 211
178 213
178 214
178 215
178 216
178 217
178 219
178 220
178 221
178 223
178 224
178 226
178 228
179 180
179 181
179 182
179 183
179 184
179 186
179 189
179 190
179 191
179 192
179 196
179 197
179 198
179 199
179 200
179 201
179 203
179 204
179 205
179 207
179 208
179 209
179 210
179 211
179 212
179 213
179 214
179 216
179 217
179 218
179 220
179 222
179 224
179 225
179 226
179 227
179 228
180 181
180 182
180 183
180 186
180 189
180 191
180 192
180 196
180 198
180 199
180 200
180 202
180 203
180 205
180 206
180 208
180 209
180 211
180 212
180 214
180 215
180 217
180 218
180 220
180 222
180 224
180 225
180 226
180 227
180 228
181 182
181 183
181 184
181 185
181 187
181 188
181 189
181 190
181 192
181 196
181 197
181 199
181 200
181 201
181 202
181 204
181 205
181 206
181 207
181 209
181 210
181 212
181 213
181 215
181 216
181 218
181 219
181 221
181 222
181 223
181 225
181 227
182 183
182 184
182 186
182 189
182 190
182 191
182 196
182 197
182 198
182 200
182 202
182 203
182 205
182 206
182 207
182 208
182 209
182 210
182 211
182 212
182 213
182 214
182 216
182 217
182 218
182 220
182 222
182 224
182 225
182 226
182 227
182 228
183 184
183 185
183 186
183 187
183 188
183 190
183 191
183 192
183 193
183 194
183 195
183 197
183 198
183 199
183 201
183 202
183 203
183 204
183 206
183 207
183 208
183 210
183 211
183 213
183 214
183 215
183 216
183 217
183 219
183 220
183 221
183 223
183 224
183 226
183 228
184 191
184 192
184 198
184 199
184 200
184 206
184 208
184 209
184 211
184 212
184 214
184 215
184 217
184 218
185 186
185 187
185 188
185 189
185 191
185 194
185 195
185 196
185 198
185 200
185 202
185 203
185 204
185 205
185 208
185 209
185 211
185 212
185 214
185 216
185 217
185 218
185 220
185 221
185 222
185 224
185 225
185 226
185 227
185 228
186 187
186 188
186 189
186 190
186 192
186 193
186 194
186 195
186 196
186 197
186 199
186 200
186 201
186 202
186 204
186 205
186 206
186 207
186 209
186 210
186 212
186 213
186 215
186 216
186 218
186 219
186 221
186 222
186 223
186 225
186 227
187 188
187 189
187 191
187 193
187 195
187 196
187 198
187 200
187 201
187 203
187 204
187 205
187 208
187 209
187 211
187 212
187 214
187 215
187 217
187 218
187 219
187 220
187 221
187 222
187 223
187 224
187 225
187 226
187 227
187 228
188 189
188 191
188 193
188 194
188 196
188 198
188 200
188 201
188 202
188 203
188 205
188 208
188 209
188 211
188 212
188 214
188 215
188 217
188 218
188 219
188 220
188 222
188 223
188 224
188 225
188 226
188 227
188 228
189 191
189 193
189 194
189 195
189 197
189 198
189 199
189 201
189 202
189 203
189 204
189 206
189 207
189 208
189 210
189 211
189 214
189 215
189 216
189 217
189 219
189 220
189 221
189 223
189 224
189 226
189 228
190 191
190 192
190 198
190 199
190 200
190 203
190 206
190 208
190 209
190 211
190 212
190 214
190 215
190 217
190 218
190 220
190 224
190 226
190 228
191 192
191 197
191 199
191 200
191 201
191 202
191 204
191 205
191 206
191 207
191 209
191 210
191 212
191 213
191 215
191 216
191 218
191 219
191 221
191 222
191 223
191 225
191 227
192 197
192 198
192 200
192 203
192 207
192 208
192 210
192 211
192 213
192 214
192 216
192 217
192 220
192 224
192 226
192 228
193 194
193 195
193 196
193 200
193 202
193 203
193 204
193 205
193 209
193 212
193 216
193 217
193 218
193 220
193 221
193 222
193 224
193 225
193 227
194 195
194 196
194 200
194 201
194 204
194 205
194 209
194 212
194 215
194 218
194 219
194 221
194 222
194 223
194 225
194 227
195 196
195 200
195 201
195 202
195 203
195 205
195 209
195 212
195 215
195 218
195 219
195 220
195 222
195 223
195 225
195 227
196 197
196 198
196 199
196 201
196 202
196 203
196 204
196 206
196 207
196 208
196 210
196 211
196 215
196 216
196 217
196 219
196 220
196 221
196 223
196 224
196 226
197 198
197 199
197 200
197 203
197 205
197 206
197 208
197 209
197 211
197 212
197 214
197 215
197 217
197 218
197 220
197 222
197 224
197 225
197 226
197 227
197 228
198 199
198 200
198 201
198 202
198 204
198 205
198 206
198 207
198 209
198 210
198 212
198 213
198 215
198 216
198 218
198 219
198 221
198 222
198 223
198 225
198 227
199 200
199 203
199 205
199 207
199 208
199 209
199 210
199 211
199 212
199 213
199 214
199 216
199 217
199 218
199 220
199 222
199 224
199 225
199 226
199 227
199 228
200 201
200 202
200 203
200 204
200 206
200 207
200 208
200 210
200 211
200 213
200 214
200 215
200 216
200 217
200 219
200 220
200 221
200 223
200 224
200 226
200 228
201 202
201 203
201 204
201 205
201 206
201 208
201 209
201 211
201 212
201 214
201 216
201 217
201 218
201 220
201 221
201 222
201 224
201 225
201 226
201 227
201 228
202 203
202 204
202 205
202 207
202 208
202 209
202 211
202 212
202 214
202 215
202 217
202 218
202 219
202 220
202 221
202 222
202 223
202 224
202 225
202 226
202 227
202 228
203 204
203 205
203 206
203 207
203 209
203 210
203 212
203 213
203 215
203 216
203 218
203 219
203 221
203 222
203 223
203 225
203 227
204 205
204 206
204 208
204 209
204 211
204 212
204 214
204 215
204 217
204 218
204 219
204 220
204 222
204 223
204 224
204 225
204 226
204 227
204 228
205 206
205 207
205 208
205 210
205 211
205 214
205 215
205 216
205 217
205 219
205 220
205 221
205 223
205 224
205 226
205 228
206 207
206 208
206 209
206 210
206 211
206 212
206 213
206 214
206 216
206 217
206 218
206 220
206 222
206 224
206 225
206 226
206 227
206 228
207 208
207 209
207 211
207 212
207 214
207 215
207 217
207 218
207 220
207 222
207 224
207 225
207 226
207 227
207 228
208 209
208 210
208 212
208 213
208 215
208 216
208 218
208 219
208 221
208 222
208 223
208 225
208 227
209 210
209 211
209 213
209 214
209 215
209 216
209 217
209 219
209 220
209 221
209 223
209 224
209 226
209 228
210 211
210 212
210 214
210 215
210 217
210 218
210 220
210 222
210 224
210 225
210 226
210 227
210 228
211 212
211 213
211 215
211 216
211 218
211 219
211 221
211 222
211 223
211 225
211 227
212 213
212 214
212 215
212 216
212 217
212 219
212 220
212 221
212 223
212 224
212 226
212 228
213 214
213 215
213 217
213 218
213 220
213 224
213 226
213 228
214 215
214 216
214 218
214 219
214 221
214 222
214 223
214 225
214 227
215 216
215 217
215 218
215 220
215 221
215 222
215 224
215 225
215 226
215 227
215 228
216 217
216 218
216 219
216 220
216 222
216 223
216 224
216 225
216 226
216 227
216 228
217 218
217 219
217 221
217 222
217 223
217 225
217 227
218 219
218 220
218 221
218 223
218 224
218 226
218 228
219 220
219 221
219 222
219 224
219 225
219 226
219 227
219 228
220 221
220 222
220 223
220 225
220 227
221 222
221 223
221 224
221 225
221 226
221 227
221 228
222 223
222 224
222 226
222 228
223 224
223 225
223 226
223 227
223 228
224 225
224 227
225 226
225 228
226 227
227 228
