337:31068
0 1
0 4
0 6
0 7
0 10
0 11
0 13
0 14
0 15
0 17
0 18
0 20
0 21
0 22
0 23
0 25
0 26
0 27
0 29
0 30
0 31
0 33
0 34
0 41
0 42
0 43
0 44
0 45
0 47
0 48
0 49
0 50
0 52
0 53
0 54
0 65
0 66
0 67
0 68
0 75
0 76
0 77
0 78
0 79
0 97
0 98
0 99
0 100
0 101
0 102
0 110
0 111
0 112
1 2
1 3
1 5
1 6
1 9
1 10
1 12
1 13
1 14
1 16
1 19
1 20
1 21
1 23
1 24
1 28
1 29
1 31
1 32
1 40
1 41
1 42
1 43
1 45
1 46
1 47
1 48
1 50
1 51
1 52
1 53
1 64
1 74
1 96
1 97
1 98
1 99
1 100
1 102
1 109
2 4
2 6
2 7
2 10
2 11
2 13
2 14
2 15
2 17
2 18
2 20
2 21
2 22
2 23
2 25
2 26
2 27
2 29
2 30
2 31
2 33
2 34
2 41
2 42
2 43
2 44
2 45
2 47
2 48
2 49
2 50
2 52
2 53
2 54
2 65
2 66
2 67
2 68
2 75
2 76
2 77
2 78
2 79
2 97
2 98
2 99
2 100
2 101
2 102
2 110
2 111
2 112
3 4
3 6
3 7
3 8
3 10
3 11
3 13
3 14
3 15
3 17
3 18
3 20
3 21
3 22
3 23
3 25
3 26
3 27
3 29
3 30
3 31
3 33
3 34
3 35
3 38
3 41
3 42
3 43
3 44
3 45
3 47
3 48
3 49
3 50
3 52
3 53
3 54
3 56
3 58
3 61
3 65
3 66
3 67
3 68
3 71
3 75
3 76
3 77
3 78
3 79
3 82
3 87
3 93
3 97
3 98
3 99
3 100
3 101
3 102
3 105
3 110
3 111
3 112
3 123
3 127
3 130
3 137
3 141
3 146
3 151
3 160
3 166
3 170
3 178
3 185
3 198
3 208
3 212
3 216
3 226
3 247
3 255
3 280
4 5
4 7
4 9
4 12
4 14
4 15
4 16
4 18
4 19
4 21
4 22
4 23
4 24
4 26
4 27
4 28
4 32
4 34
4 36
4 37
4 39
4 40
4 41
4 43
4 44
4 45
4 46
4 51
4 55
4 57
4 59
4 60
4 62
4 63
4 64
4 65
4 67
4 68
4 70
4 72
4 73
4 74
4 75
4 76
4 78
4 79
4 80
4 81
4 83
4 84
4 85
4 86
4 88
4 89
4 90
4 91
4 92
4 94
4 95
4 96
4 97
4 98
4 100
4 101
4 102
4 103
4 104
4 106
4 107
4 109
4 122
4 124
4 125
4 126
4 128
4 129
4 131
4 135
4 136
4 138
4 139
4 140
4 142
4 143
4 144
4 145
4 147
4 148
4 149
4 150
4 152
4 153
4 156
4 157
4 158
4 159
4 161
4 162
4 163
4 164
4 165
4 167
4 168
4 169
4 171
4 172
4 173
4 174
4 175
4 176
4 177
4 179
4 180
4 181
4 182
4 183
4 184
4 186
4 187
4 195
4 196
4 197
4 199
4 200
4 201
4 205
4 206
4 207
4 209
4 210
4 211
4 213
4 214
4 215
4 217
4 218
4 223
4 224
4 225
4 227
4 228
4 245
4 246
4 248
4 249
4 250
4 251
4 252
4 253
4 254
4 256
4 257
4 277
4 278
4 279
4 281
4 282
5 6
5 7
5 8
5 10
5 11
5 13
5 14
5 15
5 17
5 18
5 20
5 21
5 22
5 23
5 25
5 26
5 27
5 29
5 30
5 31
5 33
5 34
5 35
5 38
5 41
5 42
5 43
5 44
5 45
5 47
5 48
5 49
5 50
5 52
5 53
5 54
5 56
5 58
5 61
5 65
5 66
5 67
5 68
5 71
5 75
5 76
5 77
5 78
5 79
5 82
5 87
5 93
5 97
5 98
5 99
5 100
5 101
5 102
5 105
5 110
5 111
5 112
5 123
5 127
5 130
5 137
5 141
5 146
5 151
5 160
5 166
5 170
5 178
5 185
5 198
5 208
5 212
5 216
5 226
5 247
5 255
5 280
6 7
6 9
6 11
6 12
6 14
6 15
6 16
6 18
6 19
6 21
6 22
6 23
6 24
6 26
6 27
6 28
6 30
6 32
6 34
6 36
6 37
6 39
6 40
6 41
6 43
6 44
6 45
6 46
6 49
6 51
6 54
6 55
6 57
6 59
6 60
6 62
6 63
6 64
6 65
6 67
6 68
6 70
6 72
6 73
6 74
6 75
6 76
6 78
6 79
6 80
6 81
6 83
6 84
6 85
6 86
6 88
6 89
6 90
6 91
6 92
6 94
6 95
6 96
6 97
6 98
6 100
6 101
6 102
6 103
6 104
6 106
6 107
6 109
6 122
6 124
6 125
6 126
6 128
6 129
6 131
6 135
6 136
6 138
6 139
6 140
6 142
6 143
6 144
6 145
6 147
6 148
6 149
6 150
6 152
6 153
6 156
6 157
6 158
6 159
6 161
6 162
6 163
6 164
6 165
6 167
6 168
6 169
6 171
6 172
6 173
6 174
6 175
6 176
6 177
6 179
6 180
6 181
6 182
6 183
6 184
6 186
6 187
6 195
6 196
6 197
6 199
6 200
6 201
6 205
6 206
6 207
6 209
6 210
6 211
6 213
6 214
6 215
6 217
6 218
6 223
6 224
6 225
6 227
6 228
6 245
6 246
6 248
6 249
6 250
6 251
6 252
6 253
6 254
6 256
6 257
6 277
6 278
6 279
6 281
6 282
7 8
7 9
7 10
7 12
7 13
7 14
7 16
7 17
7 19
7 20
7 21
7 23
7 24
7 25
7 28
7 29
7 31
7 32
7 33
7 35
7 38
7 40
7 41
7 42
7 43
7 45
7 46
7 47
7 48
7 50
7 51
7 52
7 53
7 56
7 58
7 61
7 64
7 66
7 71
7 74
7 77
7 82
7 87
7 93
7 96
7 97
7 98
7 99
7 100
7 102
7 105
7 109
7 123
7 127
7 130
7 137
7 141
7 146
7 151
7 160
7 166
7 170
7 178
7 185
7 198
7 208
7 212
7 216
7 226
7 247
7 255
7 280
8 12
8 14
8 15
8 16
8 18
8 19
8 21
8 22
8 23
8 24
8 26
8 27
8 32
8 34
8 36
8 37
8 39
8 40
8 41
8 43
8 44
8 45
8 55
8 57
8 59
8 60
8 62
8 63
8 64
8 65
8 67
8 68
8 70
8 72
8 73
8 74
8 75
8 76
8 78
8 79
8 80
8 81
8 83
8 84
8 85
8 86
8 88
8 89
8 90
8 91
8 92
8 94
8 95
8 96
8 97
8 98
8 100
8 101
8 102
8 103
8 104
8 106
8 107
8 122
8 124
8 125
8 126
8 128
8 129
8 131
8 135
8 136
8 138
8 139
8 140
8 142
8 143
8 144
8 145
8 147
8 148
8 149
8 150
8 152
8 153
8 156
8 157
8 158
8 159
8 161
8 162
8 163
8 164
8 165
8 167
8 168
8 169
8 171
8 172
8 173
8 174
8 175
8 176
8 177
8 179
8 180
8 181
8 182
8 183
8 184
8 186
8 187
8 195
8 196
8 197
8 199
8 200
8 201
8 205
8 206
8 207
8 209
8 210
8 211
8 213
8 214
8 215
8 217
8 218
8 223
8 224
8 225
8 227
8 228
8 245
8 246
8 248
8 249
8 250
8 251
8 252
8 253
8 254
8 256
8 257
8 277
8 278
8 279
8 281
8 282
9 10
9 11
9 13
9 14
9 15
9 17
9 18
9 20
9 21
9 22
9 23
9 25
9 26
9 27
9 29
9 30
9 31
9 33
9 34
9 36
9 41
9 42
9 43
9 44
9 45
9 47
9 48
9 49
9 50
9 52
9 53
9 54
9 62
9 65
9 66
9 67
9 68
9 72
9 75
9 76
9 77
9 78
9 79
9 83
9 88
9 94
9 97
9 98
9 99
9 100
9 101
9 102
9 106
9 110
9 111
9 112
9 116
9 120
9 152
9 161
9 172
9 180
9 200
9 204
9 249
9 261
9 275
10 11
10 12
10 13
10 15
10 16
10 17
10 19
10 20
10 22
10 23
10 24
10 25
10 27
10 28
10 30
10 31
10 32
10 35
10 37
10 40
10 41
10 42
10 44
10 45
10 46
10 47
10 49
10 50
10 51
10 52
10 54
10 60
10 61
10 63
10 64
10 65
10 66
10 68
10 70
10 71
10 73
10 74
10 75
10 76
10 77
10 79
10 80
10 81
10 82
10 84
10 85
10 86
10 87
10 89
10 90
10 91
10 92
10 93
10 95
10 96
10 97
10 98
10 99
10 101
10 102
10 103
10 104
10 105
10 107
10 109
10 110
10 112
10 115
10 117
10 118
10 119
10 121
10 148
10 149
10 150
10 151
10 153
10 156
10 157
10 158
10 159
10 160
10 162
10 167
10 168
10 169
10 170
10 171
10 173
10 174
10 175
10 176
10 177
10 178
10 179
10 181
10 195
10 196
10 197
10 198
10 199
10 201
10 202
10 203
10 245
10 246
10 247
10 248
10 250
10 258
10 259
10 260
10 262
10 271
10 272
10 273
10 274
10 276
11 12
11 13
11 14
11 16
11 18
11 19
11 20
11 21
11 23
11 24
11 26
11 28
11 29
11 31
11 32
11 36
11 40
11 41
11 42
11 43
11 45
11 46
11 47
11 48
11 50
11 51
11 52
11 53
11 62
11 64
11 67
11 72
11 74
11 78
11 83
11 88
11 94
11 96
11 97
11 98
11 99
11 100
11 102
11 106
11 109
11 111
11 116
11 120
11 152
11 161
11 172
11 180
11 200
11 204
11 249
11 261
11 275
12 13
12 14
12 15
12 17
12 18
12 20
12 21
12 22
12 23
12 25
12 26
12 27
12 29
12 30
12 31
12 33
12 34
12 35
12 36
12 38
12 41
12 42
12 43
12 44
12 45
12 47
12 48
12 49
12 50
12 52
12 53
12 54
12 56
12 58
12 61
12 62
12 65
12 66
12 67
12 68
12 71
12 72
12 75
12 76
12 77
12 78
12 79
12 82
12 83
12 87
12 88
12 93
12 94
12 97
12 98
12 99
12 100
12 101
12 102
12 105
12 106
12 110
12 111
12 112
12 116
12 120
12 123
12 127
12 130
12 137
12 141
12 146
12 151
12 152
12 160
12 161
12 166
12 170
12 172
12 178
12 180
12 185
12 198
12 200
12 204
12 208
12 212
12 216
12 226
12 247
12 249
12 255
12 261
12 275
12 280
13 14
13 15
13 16
13 18
13 19
13 21
13 22
13 23
13 24
13 26
13 27
13 28
13 29
13 30
13 32
13 34
13 36
13 37
13 39
13 40
13 41
13 43
13 44
13 45
13 46
13 48
13 49
13 51
13 53
13 54
13 55
13 57
13 59
13 60
13 62
13 63
13 64
13 65
13 67
13 68
13 70
13 72
13 73
13 74
13 75
13 76
13 78
13 79
13 80
13 81
13 83
13 84
13 85
13 86
13 88
13 89
13 90
13 91
13 92
13 94
13 95
13 96
13 97
13 98
13 100
13 101
13 102
13 103
13 104
13 106
13 107
13 109
13 111
13 116
13 120
13 122
13 124
13 125
13 126
13 128
13 129
13 131
13 135
13 136
13 138
13 139
13 140
13 142
13 143
13 144
13 145
13 147
13 148
13 149
13 150
13 152
13 153
13 156
13 157
13 158
13 159
13 161
13 162
13 163
13 164
13 165
13 167
13 168
13 169
13 171
13 172
13 173
13 174
13 175
13 176
13 177
13 179
13 180
13 181
13 182
13 183
13 184
13 186
13 187
13 195
13 196
13 197
13 199
13 200
13 201
13 204
13 205
13 206
13 207
13 209
13 210
13 211
13 213
13 214
13 215
13 217
13 218
13 223
13 224
13 225
13 227
13 228
13 245
13 246
13 248
13 249
13 250
13 251
13 252
13 253
13 254
13 256
13 257
13 261
13 275
13 277
13 278
13 279
13 281
13 282
14 15
14 16
14 17
14 19
14 20
14 22
14 23
14 24
14 25
14 27
14 28
14 30
14 31
14 32
14 33
14 35
14 37
14 38
14 40
14 41
14 42
14 44
14 45
14 46
14 47
14 49
14 50
14 51
14 52
14 54
14 56
14 58
14 60
14 61
14 63
14 64
14 65
14 66
14 68
14 70
14 71
14 73
14 74
14 75
14 76
14 77
14 79
14 80
14 81
14 82
14 84
14 85
14 86
14 87
14 89
14 90
14 91
14 92
14 93
14 95
14 96
14 97
14 98
14 99
14 101
14 102
14 103
14 104
14 105
14 107
14 109
14 110
14 112
14 115
14 117
14 118
14 119
14 121
14 123
14 127
14 130
14 137
14 141
14 146
14 148
14 149
14 150
14 151
14 153
14 156
14 157
14 158
14 159
14 160
14 162
14 166
14 167
14 168
14 169
14 170
14 171
14 173
14 174
14 175
14 176
14 177
14 178
14 179
14 181
14 185
14 195
14 196
14 197
14 198
14 199
14 201
14 202
14 203
14 208
14 212
14 216
14 226
14 245
14 246
14 247
14 248
14 250
14 255
14 258
14 259
14 260
14 262
14 271
14 272
14 273
14 274
14 276
14 280
15 16
15 17
15 18
15 19
15 20
15 21
15 23
15 24
15 25
15 26
15 28
15 29
15 31
15 32
15 33
15 35
15 36
15 38
15 40
15 41
15 42
15 43
15 45
15 46
15 47
15 48
15 50
15 51
15 52
15 53
15 56
15 58
15 61
15 62
15 64
15 66
15 67
15 71
15 72
15 74
15 77
15 78
15 82
15 83
15 87
15 88
15 93
15 94
15 96
15 97
15 98
15 99
15 100
15 102
15 105
15 106
15 109
15 111
15 116
15 120
15 123
15 127
15 130
15 137
15 141
15 146
15 151
15 152
15 160
15 161
15 166
15 170
15 172
15 178
15 180
15 185
15 198
15 200
15 204
15 208
15 212
15 216
15 226
15 247
15 249
15 255
15 261
15 275
15 280
16 17
16 18
16 20
16 21
16 22
16 23
16 25
16 26
16 27
16 29
16 30
16 31
16 33
16 34
16 35
16 36
16 38
16 41
16 42
16 43
16 44
16 45
16 47
16 48
16 49
16 50
16 52
16 53
16 54
16 56
16 58
16 61
16 62
16 65
16 66
16 67
16 68
16 71
16 72
16 75
16 76
16 77
16 78
16 79
16 82
16 83
16 87
16 88
16 93
16 94
16 97
16 98
16 99
16 100
16 101
16 102
16 105
16 106
16 110
16 111
16 112
16 116
16 120
16 123
16 127
16 130
16 137
16 141
16 146
16 151
16 152
16 160
16 161
16 166
16 170
16 172
16 178
16 180
16 185
16 198
16 200
16 204
16 208
16 212
16 216
16 226
16 247
16 249
16 255
16 261
16 275
16 280
17 18
17 19
17 21
17 22
17 23
17 24
17 26
17 27
17 28
17 29
17 32
17 34
17 36
17 37
17 39
17 40
17 41
17 43
17 44
17 45
17 46
17 48
17 51
17 53
17 55
17 57
17 59
17 60
17 62
17 63
17 64
17 65
17 67
17 68
17 70
17 72
17 73
17 74
17 75
17 76
17 78
17 79
17 80
17 81
17 83
17 84
17 85
17 86
17 88
17 89
17 90
17 91
17 92
17 94
17 95
17 96
17 97
17 98
17 100
17 101
17 102
17 103
17 104
17 106
17 107
17 109
17 111
17 116
17 120
17 122
17 124
17 125
17 126
17 128
17 129
17 131
17 135
17 136
17 138
17 139
17 140
17 142
17 143
17 144
17 145
17 147
17 148
17 149
17 150
17 152
17 153
17 156
17 157
17 158
17 159
17 161
17 162
17 163
17 164
17 165
17 167
17 168
17 169
17 171
17 172
17 173
17 174
17 175
17 176
17 177
17 179
17 180
17 181
17 182
17 183
17 184
17 186
17 187
17 195
17 196
17 197
17 199
17 200
17 201
17 204
17 205
17 206
17 207
17 209
17 210
17 211
17 213
17 214
17 215
17 217
17 218
17 223
17 224
17 225
17 227
17 228
17 245
17 246
17 248
17 249
17 250
17 251
17 252
17 253
17 254
17 256
17 257
17 261
17 275
17 277
17 278
17 279
17 281
17 282
18 19
18 20
18 22
18 23
18 24
18 25
18 27
18 28
18 30
18 31
18 32
18 33
18 35
18 37
18 38
18 40
18 41
18 42
18 44
18 45
18 46
18 47
18 49
18 50
18 51
18 52
18 54
18 56
18 58
18 60
18 61
18 63
18 64
18 65
18 66
18 68
18 70
18 71
18 73
18 74
18 75
18 76
18 77
18 79
18 80
18 81
18 82
18 84
18 85
18 86
18 87
18 89
18 90
18 91
18 92
18 93
18 95
18 96
18 97
18 98
18 99
18 101
18 102
18 103
18 104
18 105
18 107
18 109
18 110
18 112
18 115
18 117
18 118
18 119
18 121
18 123
18 127
18 130
18 137
18 141
18 146
18 148
18 149
18 150
18 151
18 153
18 156
18 157
18 158
18 159
18 160
18 162
18 166
18 167
18 168
18 169
18 170
18 171
18 173
18 174
18 175
18 176
18 177
18 178
18 179
18 181
18 185
18 195
18 196
18 197
18 198
18 199
18 201
18 202
18 203
18 208
18 212
18 216
18 226
18 245
18 246
18 247
18 248
18 250
18 255
18 258
18 259
18 260
18 262
18 271
18 272
18 273
18 274
18 276
18 280
19 20
19 21
19 22
19 23
19 25
19 26
19 27
19 29
19 30
19 31
19 33
19 34
19 35
19 36
19 37
19 38
19 39
19 41
19 42
19 43
19 44
19 45
19 47
19 48
19 49
19 50
19 52
19 53
19 54
19 56
19 58
19 59
19 61
19 62
19 63
19 65
19 66
19 67
19 68
19 71
19 72
19 73
19 75
19 76
19 77
19 78
19 79
19 82
19 83
19 84
19 87
19 88
19 89
19 93
19 94
19 95
19 97
19 98
19 99
19 100
19 101
19 102
19 105
19 106
19 107
19 110
19 111
19 112
19 116
19 117
19 120
19 121
19 123
19 127
19 130
19 137
19 138
19 141
19 142
19 146
19 147
19 151
19 152
19 153
19 160
19 161
19 162
19 166
19 170
19 172
19 173
19 178
19 180
19 181
19 185
19 187
19 198
19 200
19 201
19 204
19 208
19 212
19 216
19 226
19 247
19 249
19 250
19 255
19 257
19 261
19 262
19 270
19 275
19 276
19 280
19 282
19 292
19 295
19 300
19 304
20 21
20 22
20 23
20 24
20 26
20 27
20 28
20 29
20 30
20 31
20 32
20 34
20 36
20 37
20 39
20 40
20 41
20 43
20 44
20 45
20 46
20 48
20 49
20 50
20 51
20 53
20 54
20 55
20 57
20 59
20 60
20 62
20 63
20 64
20 65
20 67
20 68
20 70
20 72
20 73
20 74
20 75
20 76
20 78
20 79
20 80
20 81
20 83
20 84
20 85
20 86
20 88
20 89
20 90
20 91
20 92
20 94
20 95
20 96
20 97
20 98
20 100
20 101
20 102
20 103
20 104
20 106
20 107
20 109
20 111
20 112
20 116
20 117
20 120
20 121
20 122
20 124
20 125
20 126
20 128
20 129
20 131
20 135
20 136
20 138
20 139
20 140
20 142
20 143
20 144
20 145
20 147
20 148
20 149
20 150
20 152
20 153
20 156
20 157
20 158
20 159
20 161
20 162
20 163
20 164
20 165
20 167
20 168
20 169
20 171
20 172
20 173
20 174
20 175
20 176
20 177
20 179
20 180
20 181
20 182
20 183
20 184
20 186
20 187
20 195
20 196
20 197
20 199
20 200
20 201
20 204
20 205
20 206
20 207
20 209
20 210
20 211
20 213
20 214
20 215
20 217
20 218
20 223
20 224
20 225
20 227
20 228
20 245
20 246
20 248
20 249
20 250
20 251
20 252
20 253
20 254
20 256
20 257
20 261
20 262
20 270
20 275
20 276
20 277
20 278
20 279
20 281
20 282
20 292
20 295
20 300
20 304
21 22
21 23
21 24
21 25
21 27
21 28
21 30
21 31
21 32
21 33
21 34
21 35
21 37
21 38
21 39
21 40
21 41
21 42
21 44
21 45
21 46
21 47
21 49
21 50
21 51
21 52
21 54
21 56
21 58
21 59
21 60
21 61
21 63
21 64
21 65
21 66
21 68
21 70
21 71
21 73
21 74
21 75
21 76
21 77
21 79
21 80
21 81
21 82
21 84
21 85
21 86
21 87
21 89
21 90
21 91
21 92
21 93
21 95
21 96
21 97
21 98
21 99
21 101
21 102
21 103
21 104
21 105
21 107
21 109
21 110
21 112
21 115
21 117
21 118
21 119
21 121
21 123
21 127
21 130
21 137
21 138
21 141
21 142
21 146
21 147
21 148
21 149
21 150
21 151
21 153
21 156
21 157
21 158
21 159
21 160
21 162
21 166
21 167
21 168
21 169
21 170
21 171
21 173
21 174
21 175
21 176
21 177
21 178
21 179
21 181
21 185
21 187
21 195
21 196
21 197
21 198
21 199
21 201
21 202
21 203
21 208
21 212
21 216
21 226
21 245
21 246
21 247
21 248
21 250
21 255
21 257
21 258
21 259
21 260
21 262
21 270
21 271
21 272
21 273
21 274
21 276
21 280
21 282
21 292
21 295
21 300
21 304
22 23
22 24
22 25
22 26
22 27
22 28
22 29
22 31
22 32
22 33
22 34
22 35
22 36
22 37
22 38
22 39
22 40
22 41
22 42
22 43
22 45
22 46
22 47
22 48
22 50
22 51
22 52
22 53
22 56
22 58
22 59
22 61
22 62
22 63
22 64
22 66
22 67
22 68
22 71
22 72
22 73
22 74
22 77
22 78
22 79
22 82
22 83
22 84
22 87
22 88
22 89
22 93
22 94
22 95
22 96
22 97
22 98
22 99
22 100
22 102
22 105
22 106
22 107
22 109
22 111
22 112
22 116
22 117
22 120
22 121
22 123
22 127
22 130
22 137
22 138
22 141
22 142
22 146
22 147
22 151
22 152
22 153
22 160
22 161
22 162
22 166
22 170
22 172
22 173
22 178
22 180
22 181
22 185
22 187
22 198
22 200
22 201
22 204
22 208
22 212
22 216
22 226
22 247
22 249
22 250
22 255
22 257
22 261
22 262
22 270
22 275
22 276
22 280
22 282
22 292
22 295
22 300
22 304
23 24
23 25
23 26
23 28
23 29
23 30
23 32
23 33
23 35
23 36
23 38
23 40
23 41
23 42
23 43
23 44
23 46
23 47
23 48
23 49
23 51
23 53
23 54
23 56
23 57
23 58
23 60
23 61
23 62
23 64
23 65
23 66
23 67
23 70
23 71
23 72
23 74
23 75
23 76
23 77
23 78
23 80
23 81
23 82
23 83
23 85
23 86
23 87
23 88
23 90
23 91
23 92
23 93
23 94
23 96
23 97
23 98
23 99
23 100
23 101
23 103
23 104
23 105
23 106
23 109
23 110
23 111
23 115
23 116
23 118
23 119
23 120
23 123
23 127
23 130
23 135
23 136
23 137
23 139
23 140
23 141
23 143
23 144
23 145
23 146
23 148
23 149
23 150
23 151
23 152
23 156
23 157
23 158
23 159
23 160
23 161
23 166
23 167
23 168
23 169
23 170
23 171
23 172
23 174
23 175
23 176
23 177
23 178
23 179
23 180
23 182
23 183
23 184
23 185
23 186
23 195
23 196
23 197
23 198
23 199
23 200
23 204
23 208
23 212
23 216
23 226
23 245
23 246
23 247
23 248
23 249
23 251
23 252
23 253
23 254
23 255
23 256
23 258
23 259
23 260
23 261
23 266
23 267
23 268
23 269
23 271
23 272
23 273
23 274
23 275
23 277
23 278
23 279
23 280
23 281
23 287
23 288
23 289
23 290
23 291
23 293
23 294
23 296
23 297
23 298
23 299
23 301
23 302
23 303
24 25
24 26
24 27
24 29
24 30
24 31
24 33
24 34
24 35
24 36
24 37
24 38
24 39
24 41
24 42
24 43
24 44
24 45
24 47
24 48
24 49
24 50
24 52
24 53
24 54
24 56
24 58
24 59
24 61
24 62
24 63
24 65
24 66
24 67
24 68
24 71
24 72
24 73
24 75
24 76
24 77
24 78
24 79
24 82
24 83
24 84
24 87
24 88
24 89
24 93
24 94
24 95
24 97
24 98
24 99
24 100
24 101
24 102
24 105
24 106
24 107
24 110
24 111
24 112
24 116
24 117
24 120
24 121
24 123
24 127
24 130
24 137
24 138
24 141
24 142
24 146
24 147
24 151
24 152
24 153
24 160
24 161
24 162
24 166
24 170
24 172
24 173
24 178
24 180
24 181
24 185
24 187
24 198
24 200
24 201
24 204
24 208
24 212
24 216
24 226
24 247
24 249
24 250
24 255
24 257
24 261
24 262
24 270
24 275
24 276
24 280
24 282
24 292
24 295
24 300
24 304
25 26
25 27
25 28
25 29
25 31
25 32
25 34
25 36
25 37
25 39
25 40
25 41
25 43
25 44
25 45
25 46
25 48
25 50
25 51
25 53
25 55
25 57
25 59
25 60
25 62
25 63
25 64
25 65
25 67
25 68
25 70
25 72
25 73
25 74
25 75
25 76
25 78
25 79
25 80
25 81
25 83
25 84
25 85
25 86
25 88
25 89
25 90
25 91
25 92
25 94
25 95
25 96
25 97
25 98
25 100
25 101
25 102
25 103
25 104
25 106
25 107
25 109
25 111
25 112
25 116
25 117
25 120
25 121
25 122
25 124
25 125
25 126
25 128
25 129
25 131
25 135
25 136
25 138
25 139
25 140
25 142
25 143
25 144
25 145
25 147
25 148
25 149
25 150
25 152
25 153
25 156
25 157
25 158
25 159
25 161
25 162
25 163
25 164
25 165
25 167
25 168
25 169
25 171
25 172
25 173
25 174
25 175
25 176
25 177
25 179
25 180
25 181
25 182
25 183
25 184
25 186
25 187
25 195
25 196
25 197
25 199
25 200
25 201
25 204
25 205
25 206
25 207
25 209
25 210
25 211
25 213
25 214
25 215
25 217
25 218
25 223
25 224
25 225
25 227
25 228
25 245
25 246
25 248
25 249
25 250
25 251
25 252
25 253
25 254
25 256
25 257
25 261
25 262
25 270
25 275
25 276
25 277
25 278
25 279
25 281
25 282
25 292
25 295
25 300
25 304
26 27
26 28
26 30
26 31
26 32
26 33
26 34
26 35
26 37
26 38
26 39
26 40
26 41
26 42
26 44
26 45
26 46
26 47
26 49
26 50
26 51
26 52
26 54
26 56
26 58
26 59
26 60
26 61
26 63
26 64
26 65
26 66
26 68
26 70
26 71
26 73
26 74
26 75
26 76
26 77
26 79
26 80
26 81
26 82
26 84
26 85
26 86
26 87
26 89
26 90
26 91
26 92
26 93
26 95
26 96
26 97
26 98
26 99
26 101
26 102
26 103
26 104
26 105
26 107
26 109
26 110
26 112
26 115
26 117
26 118
26 119
26 121
26 123
26 127
26 130
26 137
26 138
26 141
26 142
26 146
26 147
26 148
26 149
26 150
26 151
26 153
26 156
26 157
26 158
26 159
26 160
26 162
26 166
26 167
26 168
26 169
26 170
26 171
26 173
26 174
26 175
26 176
26 177
26 178
26 179
26 181
26 185
26 187
26 195
26 196
26 197
26 198
26 199
26 201
26 202
26 203
26 208
26 212
26 216
26 226
26 245
26 246
26 247
26 248
26 250
26 255
26 257
26 258
26 259
26 260
26 262
26 270
26 271
26 272
26 273
26 274
26 276
26 280
26 282
26 292
26 295
26 300
26 304
27 28
27 29
27 30
27 32
27 33
27 35
27 36
27 38
27 40
27 41
27 42
27 43
27 44
27 46
27 47
27 48
27 49
27 51
27 53
27 56
27 57
27 58
27 60
27 61
27 62
27 64
27 65
27 66
27 67
27 70
27 71
27 72
27 74
27 75
27 76
27 77
27 78
27 80
27 81
27 82
27 83
27 85
27 86
27 87
27 88
27 90
27 91
27 92
27 93
27 94
27 96
27 97
27 98
27 99
27 100
27 101
27 103
27 104
27 105
27 106
27 109
27 110
27 111
27 115
27 116
27 118
27 119
27 120
27 123
27 127
27 130
27 135
27 136
27 137
27 139
27 140
27 141
27 143
27 144
27 145
27 146
27 148
27 149
27 150
27 151
27 152
27 156
27 157
27 158
27 159
27 160
27 161
27 166
27 167
27 168
27 169
27 170
27 171
27 172
27 174
27 175
27 176
27 177
27 178
27 179
27 180
27 182
27 183
27 184
27 185
27 186
27 195
27 196
27 197
27 198
27 199
27 200
27 204
27 208
27 212
27 216
27 226
27 245
27 246
27 247
27 248
27 249
27 251
27 252
27 253
27 254
27 255
27 256
27 258
27 259
27 260
27 261
27 266
27 267
27 268
27 269
27 271
27 272
27 273
27 274
27 275
27 277
27 278
27 279
27 280
27 281
27 287
27 288
27 289
27 290
27 291
27 293
27 294
27 296
27 297
27 298
27 299
27 301
27 302
27 303
28 29
28 30
28 31
28 33
28 34
28 36
28 37
28 39
28 41
28 42
28 43
28 44
28 45
28 47
28 48
28 49
28 50
28 52
28 53
28 54
28 59
28 62
28 63
28 65
28 66
28 67
28 68
28 72
28 73
28 75
28 76
28 77
28 78
28 79
28 83
28 84
28 88
28 89
28 94
28 95
28 97
28 98
28 99
28 100
28 101
28 102
28 106
28 107
28 110
28 111
28 112
28 116
28 117
28 120
28 121
28 138
28 142
28 147
28 152
28 153
28 161
28 162
28 172
28 173
28 180
28 181
28 187
28 200
28 201
28 204
28 249
28 250
28 257
28 261
28 262
28 270
28 275
28 276
28 282
28 292
28 295
28 300
28 304
29 30
29 31
29 32
29 34
29 35
29 37
29 39
29 40
29 41
29 42
29 44
29 45
29 46
29 47
29 49
29 50
29 51
29 52
29 54
29 59
29 60
29 61
29 63
29 64
29 65
29 66
29 68
29 70
29 71
29 73
29 74
29 75
29 76
29 77
29 79
29 80
29 81
29 82
29 84
29 85
29 86
29 87
29 89
29 90
29 91
29 92
29 93
29 95
29 96
29 97
29 98
29 99
29 101
29 102
29 103
29 104
29 105
29 107
29 109
29 110
29 112
29 115
29 117
29 118
29 119
29 121
29 138
29 142
29 147
29 148
29 149
29 150
29 151
29 153
29 156
29 157
29 158
29 159
29 160
29 162
29 167
29 168
29 169
29 170
29 171
29 173
29 174
29 175
29 176
29 177
29 178
29 179
29 181
29 187
29 195
29 196
29 197
29 198
29 199
29 201
29 202
29 203
29 245
29 246
29 247
29 248
29 250
29 257
29 258
29 259
29 260
29 262
29 270
29 271
29 272
29 273
29 274
29 276
29 282
29 292
29 295
29 300
29 304
30 31
30 32
30 34
30 36
30 37
30 39
30 40
30 41
30 42
30 43
30 45
30 46
30 47
30 48
30 50
30 51
30 52
30 53
30 59
30 62
30 63
30 64
30 67
30 68
30 72
30 73
30 74
30 78
30 79
30 83
30 84
30 88
30 89
30 94
30 95
30 96
30 97
30 98
30 99
30 100
30 102
30 106
30 107
30 109
30 111
30 112
30 116
30 117
30 120
30 121
30 138
30 142
30 147
30 152
30 153
30 161
30 162
30 172
30 173
30 180
30 181
30 187
30 200
30 201
30 204
30 249
30 250
30 257
30 261
30 262
30 270
30 275
30 276
30 282
30 292
30 295
30 300
30 304
31 32
31 33
31 35
31 36
31 38
31 40
31 41
31 42
31 43
31 44
31 46
31 47
31 48
31 49
31 51
31 53
31 54
31 57
31 58
31 60
31 61
31 62
31 64
31 65
31 66
31 67
31 70
31 71
31 72
31 74
31 75
31 76
31 77
31 78
31 80
31 81
31 82
31 83
31 85
31 86
31 87
31 88
31 90
31 91
31 92
31 93
31 94
31 96
31 97
31 98
31 99
31 100
31 101
31 103
31 104
31 105
31 106
31 109
31 110
31 111
31 115
31 116
31 118
31 119
31 120
31 135
31 136
31 137
31 139
31 140
31 141
31 143
31 144
31 145
31 146
31 148
31 149
31 150
31 151
31 152
31 156
31 157
31 158
31 159
31 160
31 161
31 167
31 168
31 169
31 170
31 171
31 172
31 174
31 175
31 176
31 177
31 178
31 179
31 180
31 182
31 183
31 184
31 185
31 186
31 195
31 196
31 197
31 198
31 199
31 200
31 204
31 245
31 246
31 247
31 248
31 249
31 251
31 252
31 253
31 254
31 255
31 256
31 258
31 259
31 260
31 261
31 266
31 267
31 268
31 269
31 271
31 272
31 273
31 274
31 275
31 277
31 278
31 279
31 280
31 281
31 287
31 288
31 289
31 290
31 291
31 293
31 294
31 296
31 297
31 298
31 299
31 301
31 302
31 303
32 33
32 34
32 35
32 37
32 38
32 39
32 41
32 42
32 43
32 44
32 45
32 47
32 48
32 49
32 50
32 52
32 53
32 54
32 56
32 58
32 59
32 61
32 63
32 65
32 66
32 67
32 68
32 71
32 73
32 75
32 76
32 77
32 78
32 79
32 82
32 84
32 87
32 89
32 93
32 95
32 97
32 98
32 99
32 100
32 101
32 102
32 105
32 107
32 110
32 111
32 112
32 117
32 121
32 123
32 127
32 130
32 137
32 138
32 141
32 142
32 146
32 147
32 151
32 153
32 160
32 162
32 166
32 170
32 173
32 178
32 181
32 185
32 187
32 198
32 201
32 208
32 212
32 216
32 226
32 247
32 250
32 255
32 257
32 262
32 270
32 276
32 280
32 282
32 292
32 295
32 300
32 304
33 34
33 36
33 37
33 39
33 40
33 41
33 43
33 44
33 45
33 46
33 50
33 51
33 55
33 57
33 59
33 60
33 62
33 63
33 64
33 65
33 67
33 68
33 70
33 72
33 73
33 74
33 75
33 76
33 78
33 79
33 80
33 81
33 83
33 84
33 85
33 86
33 88
33 89
33 90
33 91
33 92
33 94
33 95
33 96
33 97
33 98
33 100
33 101
33 102
33 103
33 104
33 106
33 107
33 109
33 112
33 117
33 121
33 122
33 124
33 125
33 126
33 128
33 129
33 131
33 135
33 136
33 138
33 139
33 140
33 142
33 143
33 144
33 145
33 147
33 148
33 149
33 150
33 152
33 153
33 156
33 157
33 158
33 159
33 161
33 162
33 163
33 164
33 165
33 167
33 168
33 169
33 171
33 172
33 173
33 174
33 175
33 176
33 177
33 179
33 180
33 181
33 182
33 183
33 184
33 186
33 187
33 195
33 196
33 197
33 199
33 200
33 201
33 205
33 206
33 207
33 209
33 210
33 211
33 213
33 214
33 215
33 217
33 218
33 223
33 224
33 225
33 227
33 228
33 245
33 246
33 248
33 249
33 250
33 251
33 252
33 253
33 254
33 256
33 257
33 262
33 270
33 276
33 277
33 278
33 279
33 281
33 282
33 292
33 295
33 300
33 304
34 35
34 36
34 38
34 40
34 41
34 42
34 43
34 44
34 46
34 47
34 48
34 49
34 51
34 56
34 57
34 58
34 60
34 61
34 62
34 64
34 65
34 66
34 67
34 70
34 71
34 72
34 74
34 75
34 76
34 77
34 78
34 80
34 81
34 82
34 83
34 85
34 86
34 87
34 88
34 90
34 91
34 92
34 93
34 94
34 96
34 97
34 98
34 99
34 100
34 101
34 103
34 104
34 105
34 106
34 109
34 110
34 111
34 115
34 116
34 118
34 119
34 120
34 123
34 127
34 130
34 135
34 136
34 137
34 139
34 140
34 141
34 143
34 144
34 145
34 146
34 148
34 149
34 150
34 151
34 152
34 156
34 157
34 158
34 159
34 160
34 161
34 166
34 167
34 168
34 169
34 170
34 171
34 172
34 174
34 175
34 176
34 177
34 178
34 179
34 180
34 182
34 183
34 184
34 185
34 186
34 195
34 196
34 197
34 198
34 199
34 200
34 208
34 212
34 216
34 226
34 245
34 246
34 247
34 248
34 249
34 251
34 252
34 253
34 254
34 255
34 256
34 258
34 259
34 260
34 261
34 266
34 267
34 268
34 269
34 271
34 272
34 273
34 274
34 275
34 277
34 278
34 279
34 280
34 281
34 287
34 288
34 289
34 290
34 291
34 293
34 294
34 296
34 297
34 298
34 299
34 301
34 302
34 303
35 36
35 37
35 39
35 40
35 41
35 43
35 44
35 45
35 48
35 50
35 53
35 55
35 57
35 59
35 60
35 62
35 63
35 64
35 65
35 67
35 68
35 70
35 72
35 73
35 74
35 75
35 76
35 78
35 79
35 80
35 81
35 83
35 84
35 85
35 86
35 88
35 89
35 90
35 91
35 92
35 94
35 95
35 96
35 97
35 98
35 100
35 101
35 102
35 103
35 104
35 106
35 107
35 111
35 112
35 116
35 117
35 120
35 121
35 122
35 124
35 125
35 126
35 128
35 129
35 131
35 135
35 136
35 138
35 139
35 140
35 142
35 143
35 144
35 145
35 147
35 148
35 149
35 150
35 152
35 153
35 156
35 157
35 158
35 159
35 161
35 162
35 163
35 164
35 165
35 167
35 168
35 169
35 171
35 172
35 173
35 174
35 175
35 176
35 177
35 179
35 180
35 181
35 182
35 183
35 184
35 186
35 187
35 195
35 196
35 197
35 199
35 200
35 201
35 204
35 205
35 206
35 207
35 209
35 210
35 211
35 213
35 214
35 215
35 217
35 218
35 223
35 224
35 225
35 227
35 228
35 245
35 246
35 248
35 249
35 250
35 251
35 252
35 253
35 254
35 256
35 257
35 261
35 262
35 270
35 275
35 276
35 277
35 278
35 279
35 281
35 282
35 292
35 295
35 300
35 304
36 37
36 38
36 39
36 40
36 41
36 42
36 44
36 45
36 46
36 47
36 49
36 50
36 51
36 52
36 54
36 56
36 58
36 59
36 60
36 61
36 63
36 64
36 65
36 66
36 68
36 70
36 71
36 73
36 74
36 75
36 76
36 77
36 79
36 80
36 81
36 82
36 84
36 85
36 86
36 87
36 89
36 90
36 91
36 92
36 93
36 95
36 96
36 97
36 98
36 99
36 101
36 102
36 103
36 104
36 105
36 107
36 109
36 110
36 112
36 115
36 117
36 118
36 119
36 121
36 123
36 127
36 130
36 137
36 138
36 141
36 142
36 146
36 147
36 148
36 149
36 150
36 151
36 153
36 156
36 157
36 158
36 159
36 160
36 162
36 166
36 167
36 168
36 169
36 170
36 171
36 173
36 174
36 175
36 176
36 177
36 178
36 179
36 181
36 185
36 187
36 195
36 196
36 197
36 198
36 199
36 201
36 202
36 203
36 208
36 212
36 216
36 226
36 245
36 246
36 247
36 248
36 250
36 255
36 257
36 258
36 259
36 260
36 262
36 270
36 271
36 272
36 273
36 274
36 276
36 280
36 282
36 292
36 295
36 300
36 304
37 38
37 40
37 41
37 42
37 43
37 44
37 46
37 47
37 48
37 49
37 53
37 56
37 57
37 58
37 60
37 61
37 62
37 64
37 65
37 66
37 67
37 70
37 71
37 72
37 74
37 75
37 76
37 77
37 78
37 80
37 81
37 82
37 83
37 85
37 86
37 87
37 88
37 90
37 91
37 92
37 93
37 94
37 96
37 97
37 98
37 99
37 100
37 101
37 103
37 104
37 105
37 106
37 109
37 110
37 111
37 115
37 116
37 118
37 119
37 120
37 123
37 127
37 130
37 135
37 136
37 137
37 139
37 140
37 141
37 143
37 144
37 145
37 146
37 148
37 149
37 150
37 151
37 152
37 156
37 157
37 158
37 159
37 160
37 161
37 166
37 167
37 168
37 169
37 170
37 171
37 172
37 174
37 175
37 176
37 177
37 178
37 179
37 180
37 182
37 183
37 184
37 185
37 186
37 195
37 196
37 197
37 198
37 199
37 200
37 204
37 208
37 212
37 216
37 226
37 245
37 246
37 247
37 248
37 249
37 251
37 252
37 253
37 254
37 255
37 256
37 258
37 259
37 260
37 261
37 266
37 267
37 268
37 269
37 271
37 272
37 273
37 274
37 275
37 277
37 278
37 279
37 280
37 281
37 287
37 288
37 289
37 290
37 291
37 293
37 294
37 296
37 297
37 298
37 299
37 301
37 302
37 303
38 39
38 40
38 41
38 43
38 44
38 45
38 50
38 55
38 57
38 59
38 60
38 62
38 63
38 64
38 65
38 67
38 68
38 70
38 72
38 73
38 74
38 75
38 76
38 78
38 79
38 80
38 81
38 83
38 84
38 85
38 86
38 88
38 89
38 90
38 91
38 92
38 94
38 95
38 96
38 97
38 98
38 100
38 101
38 102
38 103
38 104
38 106
38 107
38 112
38 117
38 121
38 122
38 124
38 125
38 126
38 128
38 129
38 131
38 135
38 136
38 138
38 139
38 140
38 142
38 143
38 144
38 145
38 147
38 148
38 149
38 150
38 152
38 153
38 156
38 157
38 158
38 159
38 161
38 162
38 163
38 164
38 165
38 167
38 168
38 169
38 171
38 172
38 173
38 174
38 175
38 176
38 177
38 179
38 180
38 181
38 182
38 183
38 184
38 186
38 187
38 195
38 196
38 197
38 199
38 200
38 201
38 205
38 206
38 207
38 209
38 210
38 211
38 213
38 214
38 215
38 217
38 218
38 223
38 224
38 225
38 227
38 228
38 245
38 246
38 248
38 249
38 250
38 251
38 252
38 253
38 254
38 256
38 257
38 262
38 270
38 276
38 277
38 278
38 279
38 281
38 282
38 292
38 295
38 300
38 304
39 40
39 41
39 42
39 43
39 44
39 46
39 47
39 48
39 49
39 56
39 57
39 58
39 60
39 61
39 62
39 64
39 65
39 66
39 67
39 70
39 71
39 72
39 74
39 75
39 76
39 77
39 78
39 80
39 81
39 82
39 83
39 85
39 86
39 87
39 88
39 90
39 91
39 92
39 93
39 94
39 96
39 97
39 98
39 99
39 100
39 101
39 103
39 104
39 105
39 106
39 109
39 110
39 111
39 115
39 116
39 118
39 119
39 120
39 123
39 127
39 130
39 135
39 136
39 137
39 139
39 140
39 141
39 143
39 144
39 145
39 146
39 148
39 149
39 150
39 151
39 152
39 156
39 157
39 158
39 159
39 160
39 161
39 166
39 167
39 168
39 169
39 170
39 171
39 172
39 174
39 175
39 176
39 177
39 178
39 179
39 180
39 182
39 183
39 184
39 185
39 186
39 195
39 196
39 197
39 198
39 199
39 200
39 208
39 212
39 216
39 226
39 245
39 246
39 247
39 248
39 249
39 251
39 252
39 253
39 254
39 255
39 256
39 258
39 259
39 260
39 261
39 266
39 267
39 268
39 269
39 271
39 272
39 273
39 274
39 275
39 277
39 278
39 279
39 280
39 281
39 287
39 288
39 289
39 290
39 291
39 293
39 294
39 296
39 297
39 298
39 299
39 301
39 302
39 303
40 41
40 42
40 43
40 44
40 45
40 47
40 48
40 49
40 50
40 52
40 53
40 54
40 56
40 58
40 59
40 61
40 62
40 63
40 65
40 66
40 67
40 68
40 70
40 71
40 72
40 73
40 75
40 76
40 77
40 78
40 79
40 81
40 82
40 83
40 84
40 86
40 87
40 88
40 89
40 92
40 93
40 94
40 95
40 97
40 98
40 99
40 100
40 101
40 102
40 105
40 106
40 107
40 110
40 111
40 112
40 115
40 116
40 117
40 119
40 120
40 121
40 123
40 127
40 130
40 137
40 138
40 141
40 142
40 146
40 147
40 151
40 152
40 153
40 159
40 160
40 161
40 162
40 166
40 170
40 172
40 173
40 177
40 178
40 180
40 181
40 185
40 187
40 197
40 198
40 200
40 201
40 203
40 204
40 208
40 212
40 216
40 226
40 240
40 246
40 247
40 249
40 250
40 254
40 255
40 257
40 259
40 261
40 262
40 270
40 273
40 275
40 276
40 279
40 280
40 282
40 290
40 292
40 294
40 295
40 298
40 300
40 302
40 304
40 308
40 311
40 315
40 321
41 42
41 43
41 44
41 45
41 46
41 48
41 49
41 50
41 51
41 53
41 54
41 56
41 58
41 59
41 61
41 62
41 63
41 64
41 66
41 67
41 68
41 71
41 72
41 73
41 74
41 75
41 77
41 78
41 79
41 80
41 82
41 83
41 84
41 85
41 87
41 88
41 89
41 90
41 91
41 93
41 94
41 95
41 96
41 97
41 99
41 100
41 101
41 102
41 105
41 106
41 107
41 109
41 111
41 112
41 116
41 117
41 118
41 120
41 121
41 123
41 127
41 130
41 137
41 138
41 141
41 142
41 146
41 147
41 151
41 152
41 153
41 156
41 157
41 158
41 160
41 161
41 162
41 166
41 170
41 172
41 173
41 174
41 175
41 176
41 178
41 179
41 180
41 181
41 185
41 187
41 195
41 196
41 198
41 199
41 200
41 201
41 202
41 204
41 208
41 212
41 216
41 226
41 239
41 245
41 247
41 248
41 249
41 250
41 251
41 252
41 253
41 255
41 256
41 257
41 258
41 260
41 261
41 262
41 270
41 271
41 272
41 274
41 275
41 276
41 277
41 278
41 280
41 281
41 282
41 287
41 288
41 289
41 291
41 292
41 293
41 295
41 296
41 297
41 299
41 300
41 301
41 303
41 304
41 305
41 306
41 307
41 309
41 310
41 312
41 313
41 314
41 316
42 43
42 44
42 45
42 46
42 47
42 48
42 49
42 50
42 51
42 52
42 53
42 54
42 55
42 57
42 59
42 60
42 62
42 63
42 64
42 65
42 67
42 68
42 70
42 72
42 73
42 74
42 75
42 76
42 78
42 79
42 80
42 81
42 83
42 84
42 85
42 86
42 88
42 89
42 90
42 91
42 92
42 94
42 95
42 96
42 97
42 98
42 100
42 101
42 102
42 103
42 104
42 106
42 107
42 109
42 110
42 111
42 112
42 115
42 116
42 117
42 119
42 120
42 121
42 122
42 124
42 125
42 126
42 128
42 129
42 131
42 135
42 136
42 138
42 139
42 140
42 142
42 143
42 144
42 145
42 147
42 148
42 149
42 150
42 152
42 153
42 156
42 157
42 158
42 159
42 161
42 162
42 163
42 164
42 165
42 167
42 168
42 169
42 171
42 172
42 173
42 174
42 175
42 176
42 177
42 179
42 180
42 181
42 182
42 183
42 184
42 186
42 187
42 195
42 196
42 197
42 199
42 200
42 201
42 203
42 204
42 205
42 206
42 207
42 209
42 210
42 211
42 213
42 214
42 215
42 217
42 218
42 223
42 224
42 225
42 227
42 228
42 240
42 245
42 246
42 248
42 249
42 250
42 251
42 252
42 253
42 254
42 256
42 257
42 259
42 261
42 262
42 270
42 273
42 275
42 276
42 277
42 278
42 279
42 281
42 282
42 290
42 292
42 294
42 295
42 298
42 300
42 302
42 304
42 308
42 311
42 315
42 321
43 44
43 45
43 46
43 47
43 49
43 50
43 51
43 52
43 54
43 56
43 58
43 59
43 60
43 61
43 63
43 64
43 65
43 66
43 68
43 70
43 71
43 73
43 74
43 75
43 76
43 77
43 79
43 80
43 81
43 82
43 84
43 85
43 86
43 87
43 89
43 90
43 91
43 92
43 93
43 95
43 96
43 97
43 98
43 99
43 101
43 102
43 103
43 104
43 105
43 107
43 109
43 110
43 112
43 115
43 117
43 118
43 119
43 121
43 123
43 127
43 130
43 137
43 138
43 141
43 142
43 146
43 147
43 148
43 149
43 150
43 151
43 153
43 156
43 157
43 158
43 159
43 160
43 162
43 166
43 167
43 168
43 169
43 170
43 171
43 173
43 174
43 175
43 176
43 177
43 178
43 179
43 181
43 185
43 187
43 195
43 196
43 197
43 198
43 199
43 201
43 202
43 203
43 208
43 212
43 216
43 226
43 240
43 245
43 246
43 247
43 248
43 250
43 254
43 255
43 257
43 258
43 259
43 260
43 262
43 270
43 271
43 272
43 273
43 274
43 276
43 279
43 280
43 282
43 290
43 292
43 294
43 295
43 298
43 300
43 302
43 304
43 308
43 311
43 315
43 321
44 45
44 46
44 47
44 48
44 50
44 51
44 52
44 53
44 56
44 58
44 59
44 61
44 62
44 63
44 64
44 65
44 66
44 67
44 68
44 70
44 71
44 72
44 73
44 74
44 76
44 77
44 78
44 79
44 81
44 82
44 83
44 84
44 86
44 87
44 88
44 89
44 92
44 93
44 94
44 95
44 96
44 97
44 98
44 99
44 100
44 102
44 105
44 106
44 107
44 109
44 110
44 111
44 112
44 115
44 116
44 117
44 119
44 120
44 121
44 123
44 127
44 130
44 137
44 138
44 141
44 142
44 146
44 147
44 151
44 152
44 153
44 159
44 160
44 161
44 162
44 166
44 170
44 172
44 173
44 177
44 178
44 180
44 181
44 185
44 187
44 197
44 198
44 200
44 201
44 203
44 204
44 208
44 212
44 216
44 226
44 240
44 246
44 247
44 249
44 250
44 254
44 255
44 257
44 259
44 261
44 262
44 270
44 273
44 275
44 276
44 279
44 280
44 282
44 290
44 292
44 294
44 295
44 298
44 300
44 302
44 304
44 308
44 311
44 315
44 321
45 46
45 47
45 48
45 49
45 51
45 52
45 53
45 54
45 56
45 57
45 58
45 60
45 61
45 62
45 64
45 65
45 66
45 67
45 70
45 71
45 72
45 74
45 75
45 76
45 77
45 78
45 80
45 81
45 82
45 83
45 85
45 86
45 87
45 88
45 90
45 91
45 92
45 93
45 94
45 96
45 97
45 98
45 99
45 100
45 101
45 103
45 104
45 105
45 106
45 109
45 110
45 111
45 115
45 116
45 118
45 119
45 120
45 123
45 127
45 130
45 135
45 136
45 137
45 139
45 140
45 141
45 143
45 144
45 145
45 146
45 148
45 149
45 150
45 151
45 152
45 156
45 157
45 158
45 159
45 160
45 161
45 166
45 167
45 168
45 169
45 170
45 171
45 172
45 174
45 175
45 176
45 177
45 178
45 179
45 180
45 182
45 183
45 184
45 185
45 186
45 195
45 196
45 197
45 198
45 199
45 200
45 203
45 204
45 208
45 212
45 216
45 226
45 240
45 245
45 246
45 247
45 248
45 249
45 251
45 252
45 253
45 254
45 255
45 256
45 258
45 259
45 260
45 261
45 266
45 267
45 268
45 269
45 271
45 272
45 273
45 274
45 275
45 277
45 278
45 279
45 280
45 281
45 287
45 288
45 289
45 290
45 291
45 293
45 294
45 296
45 297
45 298
45 299
45 301
45 302
45 303
45 308
45 311
45 315
45 321
46 47
46 48
46 49
46 50
46 52
46 53
46 54
46 59
46 62
46 63
46 65
46 66
46 67
46 68
46 70
46 72
46 73
46 75
46 76
46 77
46 78
46 79
46 81
46 83
46 84
46 86
46 88
46 89
46 92
46 94
46 95
46 97
46 98
46 99
46 100
46 101
46 102
46 106
46 107
46 110
46 111
46 112
46 115
46 116
46 117
46 119
46 120
46 121
46 138
46 142
46 147
46 152
46 153
46 159
46 161
46 162
46 172
46 173
46 177
46 180
46 181
46 187
46 197
46 200
46 201
46 203
46 204
46 240
46 246
46 249
46 250
46 254
46 257
46 259
46 261
46 262
46 270
46 273
46 275
46 276
46 279
46 282
46 290
46 292
46 294
46 295
46 298
46 300
46 302
46 304
46 308
46 311
46 315
46 321
47 48
47 49
47 50
47 51
47 53
47 54
47 59
47 62
47 63
47 64
47 66
47 67
47 68
47 71
47 72
47 73
47 74
47 75
47 77
47 78
47 79
47 80
47 82
47 83
47 84
47 85
47 87
47 88
47 89
47 90
47 91
47 93
47 94
47 95
47 96
47 97
47 99
47 100
47 101
47 102
47 106
47 107
47 109
47 111
47 112
47 116
47 117
47 118
47 120
47 121
47 138
47 142
47 147
47 152
47 153
47 156
47 157
47 158
47 160
47 161
47 162
47 172
47 173
47 174
47 175
47 176
47 178
47 179
47 180
47 181
47 187
47 195
47 196
47 198
47 199
47 200
47 201
47 202
47 204
47 239
47 245
47 247
47 248
47 249
47 250
47 251
47 252
47 253
47 255
47 256
47 257
47 258
47 260
47 261
47 262
47 270
47 271
47 272
47 274
47 275
47 276
47 277
47 278
47 280
47 281
47 282
47 287
47 288
47 289
47 291
47 292
47 293
47 295
47 296
47 297
47 299
47 300
47 301
47 303
47 304
47 305
47 306
47 307
47 309
47 310
47 312
47 313
47 314
47 316
48 49
48 50
48 51
48 52
48 54
48 59
48 60
48 61
48 63
48 64
48 65
48 66
48 68
48 70
48 71
48 73
48 74
48 75
48 76
48 77
48 79
48 80
48 81
48 82
48 84
48 85
48 86
48 87
48 89
48 90
48 91
48 92
48 93
48 95
48 96
48 97
48 98
48 99
48 101
48 102
48 103
48 104
48 105
48 107
48 109
48 110
48 112
48 115
48 117
48 118
48 119
48 121
48 138
48 142
48 147
48 148
48 149
48 150
48 151
48 153
48 156
48 157
48 158
48 159
48 160
48 162
48 167
48 168
48 169
48 170
48 171
48 173
48 174
48 175
48 176
48 177
48 178
48 179
48 181
48 187
48 195
48 196
48 197
48 198
48 199
48 201
48 202
48 203
48 240
48 245
48 246
48 247
48 248
48 250
48 254
48 257
48 258
48 259
48 260
48 262
48 270
48 271
48 272
48 273
48 274
48 276
48 279
48 282
48 290
48 292
48 294
48 295
48 298
48 300
48 302
48 304
48 308
48 311
48 315
48 321
49 50
49 51
49 52
49 53
49 59
49 62
49 63
49 64
49 65
49 67
49 68
49 70
49 72
49 73
49 74
49 76
49 78
49 79
49 81
49 83
49 84
49 86
49 88
49 89
49 92
49 94
49 95
49 96
49 97
49 98
49 99
49 100
49 102
49 106
49 107
49 109
49 110
49 111
49 112
49 115
49 116
49 117
49 119
49 120
49 121
49 138
49 142
49 147
49 152
49 153
49 159
49 161
49 162
49 172
49 173
49 177
49 180
49 181
49 187
49 197
49 200
49 201
49 203
49 204
49 240
49 246
49 249
49 250
49 254
49 257
49 259
49 261
49 262
49 270
49 273
49 275
49 276
49 279
49 282
49 290
49 292
49 294
49 295
49 298
49 300
49 302
49 304
49 308
49 311
49 315
49 321
50 51
50 52
50 53
50 54
50 57
50 58
50 60
50 61
50 62
50 64
50 65
50 66
50 67
50 70
50 71
50 72
50 74
50 75
50 76
50 77
50 78
50 80
50 81
50 82
50 83
50 85
50 86
50 87
50 88
50 90
50 91
50 92
50 93
50 94
50 96
50 97
50 98
50 99
50 100
50 101
50 103
50 104
50 105
50 106
50 109
50 110
50 111
50 115
50 116
50 118
50 119
50 120
50 135
50 136
50 137
50 139
50 140
50 141
50 143
50 144
50 145
50 146
50 148
50 149
50 150
50 151
50 152
50 156
50 157
50 158
50 159
50 160
50 161
50 167
50 168
50 169
50 170
50 171
50 172
50 174
50 175
50 176
50 177
50 178
50 179
50 180
50 182
50 183
50 184
50 185
50 186
50 195
50 196
50 197
50 198
50 199
50 200
50 203
50 204
50 240
50 245
50 246
50 247
50 248
50 249
50 251
50 252
50 253
50 254
50 255
50 256
50 258
50 259
50 260
50 261
50 266
50 267
50 268
50 269
50 271
50 272
50 273
50 274
50 275
50 277
50 278
50 279
50 280
50 281
50 287
50 288
50 289
50 290
50 291
50 293
50 294
50 296
50 297
50 298
50 299
50 301
50 302
50 303
50 308
50 311
50 315
50 321
51 52
51 53
51 54
51 62
51 65
51 66
51 67
51 68
51 70
51 72
51 75
51 76
51 77
51 78
51 79
51 81
51 83
51 86
51 88
51 92
51 94
51 97
51 98
51 99
51 100
51 101
51 102
51 106
51 110
51 111
51 112
51 115
51 116
51 119
51 120
51 152
51 159
51 161
51 172
51 177
51 180
51 197
51 200
51 203
51 204
51 240
51 246
51 249
51 254
51 259
51 261
51 273
51 275
51 279
51 290
51 294
51 298
51 302
51 308
51 311
51 315
51 321
52 53
52 54
52 62
52 64
52 66
52 67
52 68
52 71
52 72
52 73
52 74
52 75
52 77
52 78
52 79
52 80
52 82
52 83
52 84
52 85
52 87
52 88
52 89
52 90
52 91
52 93
52 94
52 95
52 96
52 97
52 99
52 100
52 101
52 102
52 106
52 109
52 111
52 112
52 116
52 117
52 118
52 120
52 121
52 152
52 156
52 157
52 158
52 160
52 161
52 162
52 172
52 174
52 175
52 176
52 178
52 179
52 180
52 181
52 195
52 196
52 198
52 199
52 200
52 201
52 202
52 204
52 239
52 245
52 247
52 248
52 249
52 250
52 251
52 252
52 253
52 255
52 256
52 257
52 258
52 260
52 261
52 262
52 271
52 272
52 274
52 275
52 276
52 277
52 278
52 280
52 281
52 282
52 287
52 288
52 289
52 291
52 292
52 293
52 295
52 296
52 297
52 299
52 300
52 301
52 303
52 304
52 305
52 306
52 307
52 309
52 310
52 312
52 313
52 314
52 316
53 54
53 60
53 61
53 63
53 64
53 65
53 66
53 68
53 70
53 71
53 73
53 74
53 75
53 76
53 77
53 79
53 80
53 81
53 82
53 84
53 85
53 86
53 87
53 89
53 90
53 91
53 92
53 93
53 95
53 96
53 97
53 98
53 99
53 101
53 102
53 103
53 104
53 105
53 107
53 109
53 110
53 112
53 115
53 117
53 118
53 119
53 121
53 148
53 149
53 150
53 151
53 153
53 156
53 157
53 158
53 159
53 160
53 162
53 167
53 168
53 169
53 170
53 171
53 173
53 174
53 175
53 176
53 177
53 178
53 179
53 181
53 195
53 196
53 197
53 198
53 199
53 201
53 202
53 203
53 240
53 245
53 246
53 247
53 248
53 250
53 254
53 258
53 259
53 260
53 262
53 271
53 272
53 273
53 274
53 276
53 279
53 290
53 294
53 298
53 302
53 308
53 311
53 315
53 321
54 62
54 64
54 65
54 67
54 70
54 72
54 74
54 76
54 78
54 81
54 83
54 86
54 88
54 92
54 94
54 96
54 97
54 98
54 99
54 100
54 102
54 106
54 109
54 110
54 111
54 115
54 116
54 119
54 120
54 152
54 159
54 161
54 172
54 177
54 180
54 197
54 200
54 203
54 204
54 240
54 246
54 249
54 254
54 259
54 261
54 273
54 275
54 279
54 290
54 294
54 298
54 302
54 308
54 311
54 315
54 321
55 56
55 58
55 59
55 61
55 62
55 63
55 66
55 71
55 77
55 82
55 86
55 87
55 88
55 89
55 90
55 92
55 93
55 94
55 95
55 99
55 103
55 105
55 106
55 107
55 114
55 123
55 124
55 125
55 127
55 128
55 130
55 131
55 132
55 134
55 135
55 137
55 138
55 139
55 141
55 142
55 143
55 144
55 146
55 147
55 148
55 149
55 151
55 152
55 153
55 156
55 157
55 159
55 160
55 161
55 162
55 163
55 164
55 166
55 167
55 168
55 170
55 171
55 172
55 173
55 174
55 175
55 177
55 178
55 179
55 180
55 181
55 182
55 183
55 185
55 186
55 187
55 188
55 189
55 191
55 195
55 197
55 198
55 199
55 200
55 201
55 205
55 206
55 208
55 209
55 210
55 212
55 213
55 214
55 216
55 217
55 218
55 219
55 221
55 222
55 223
55 224
55 226
55 227
55 228
55 229
55 230
55 232
55 233
55 234
55 235
55 237
55 238
55 241
55 242
55 244
55 247
55 251
55 252
55 254
55 255
55 256
55 257
55 263
55 265
55 266
55 267
55 269
55 270
55 271
55 273
55 274
55 275
55 276
55 277
55 279
55 280
55 281
55 282
55 283
55 284
55 286
55 287
55 288
55 290
55 291
55 292
55 296
55 298
55 299
55 300
55 305
55 306
55 308
55 309
55 313
55 315
55 316
55 322
55 324
56 57
56 59
56 60
56 62
56 63
56 64
56 65
56 67
56 68
56 69
56 70
56 72
56 73
56 74
56 75
56 76
56 78
56 79
56 80
56 81
56 83
56 84
56 85
56 86
56 88
56 89
56 90
56 91
56 92
56 94
56 95
56 96
56 97
56 98
56 100
56 101
56 102
56 103
56 104
56 106
56 107
56 113
56 122
56 124
56 125
56 126
56 128
56 129
56 131
56 133
56 135
56 136
56 138
56 139
56 140
56 142
56 143
56 144
56 145
56 147
56 148
56 149
56 150
56 152
56 153
56 156
56 157
56 158
56 159
56 161
56 162
56 163
56 164
56 165
56 167
56 168
56 169
56 171
56 172
56 173
56 174
56 175
56 176
56 177
56 179
56 180
56 181
56 182
56 183
56 184
56 186
56 187
56 190
56 195
56 196
56 197
56 199
56 200
56 201
56 205
56 206
56 207
56 209
56 210
56 211
56 213
56 214
56 215
56 217
56 218
56 220
56 223
56 224
56 225
56 227
56 228
56 231
56 236
56 243
56 245
56 246
56 248
56 249
56 250
56 251
56 252
56 253
56 254
56 256
56 257
56 264
56 268
56 272
56 277
56 278
56 279
56 281
56 282
56 285
56 289
56 297
56 307
56 314
56 323
57 58
57 59
57 61
57 62
57 63
57 66
57 68
57 71
57 73
57 77
57 79
57 82
57 84
57 86
57 87
57 88
57 89
57 90
57 92
57 93
57 94
57 95
57 99
57 102
57 103
57 105
57 106
57 107
57 112
57 114
57 117
57 121
57 123
57 124
57 125
57 127
57 128
57 130
57 131
57 132
57 134
57 135
57 137
57 138
57 139
57 141
57 142
57 143
57 144
57 146
57 147
57 148
57 149
57 151
57 152
57 153
57 156
57 157
57 159
57 160
57 161
57 162
57 163
57 164
57 166
57 167
57 168
57 170
57 171
57 172
57 173
57 174
57 175
57 177
57 178
57 179
57 180
57 181
57 182
57 183
57 185
57 186
57 187
57 188
57 189
57 191
57 195
57 197
57 198
57 199
57 200
57 201
57 205
57 206
57 208
57 209
57 210
57 212
57 213
57 214
57 216
57 217
57 218
57 219
57 221
57 222
57 223
57 224
57 226
57 227
57 228
57 229
57 230
57 232
57 233
57 234
57 235
57 237
57 238
57 241
57 242
57 244
57 247
57 250
57 251
57 252
57 254
57 255
57 256
57 257
57 262
57 263
57 265
57 266
57 267
57 269
57 270
57 271
57 273
57 274
57 275
57 276
57 277
57 279
57 280
57 281
57 282
57 283
57 284
57 286
57 287
57 288
57 290
57 291
57 292
57 295
57 296
57 298
57 299
57 300
57 304
57 305
57 306
57 308
57 309
57 313
57 315
57 316
57 322
57 324
58 59
58 60
58 62
58 63
58 64
58 65
58 67
58 68
58 69
58 70
58 72
58 73
58 74
58 75
58 76
58 78
58 79
58 80
58 81
58 83
58 84
58 85
58 86
58 88
58 89
58 90
58 91
58 92
58 94
58 95
58 96
58 97
58 98
58 100
58 101
58 102
58 103
58 104
58 106
58 107
58 112
58 113
58 117
58 121
58 122
58 124
58 125
58 126
58 128
58 129
58 131
58 133
58 135
58 136
58 138
58 139
58 140
58 142
58 143
58 144
58 145
58 147
58 148
58 149
58 150
58 152
58 153
58 156
58 157
58 158
58 159
58 161
58 162
58 163
58 164
58 165
58 167
58 168
58 169
58 171
58 172
58 173
58 174
58 175
58 176
58 177
58 179
58 180
58 181
58 182
58 183
58 184
58 186
58 187
58 190
58 195
58 196
58 197
58 199
58 200
58 201
58 205
58 206
58 207
58 209
58 210
58 211
58 213
58 214
58 215
58 217
58 218
58 220
58 223
58 224
58 225
58 227
58 228
58 231
58 236
58 243
58 245
58 246
58 248
58 249
58 250
58 251
58 252
58 253
58 254
58 256
58 257
58 262
58 264
58 268
58 270
58 272
58 276
58 277
58 278
58 279
58 281
58 282
58 285
58 289
58 292
58 295
58 297
58 300
58 304
58 307
58 314
58 323
59 60
59 61
59 62
59 64
59 65
59 66
59 67
59 69
59 70
59 71
59 72
59 74
59 75
59 76
59 77
59 78
59 80
59 81
59 82
59 83
59 85
59 86
59 87
59 88
59 90
59 91
59 92
59 93
59 94
59 96
59 97
59 98
59 99
59 100
59 101
59 103
59 104
59 105
59 106
59 109
59 110
59 111
59 113
59 115
59 116
59 118
59 119
59 120
59 122
59 123
59 126
59 127
59 129
59 130
59 133
59 135
59 136
59 137
59 139
59 140
59 141
59 143
59 144
59 145
59 146
59 148
59 149
59 150
59 151
59 152
59 156
59 157
59 158
59 159
59 160
59 161
59 165
59 166
59 167
59 168
59 169
59 170
59 171
59 172
59 174
59 175
59 176
59 177
59 178
59 179
59 180
59 182
59 183
59 184
59 185
59 186
59 190
59 195
59 196
59 197
59 198
59 199
59 200
59 207
59 208
59 211
59 212
59 215
59 216
59 220
59 225
59 226
59 231
59 236
59 243
59 245
59 246
59 247
59 248
59 249
59 251
59 252
59 253
59 254
59 255
59 256
59 258
59 259
59 260
59 261
59 264
59 266
59 267
59 268
59 269
59 271
59 272
59 273
59 274
59 275
59 277
59 278
59 279
59 280
59 281
59 285
59 287
59 288
59 289
59 290
59 291
59 293
59 294
59 296
59 297
59 298
59 299
59 301
59 302
59 303
59 307
59 314
59 323
60 61
60 62
60 63
60 66
60 67
60 68
60 71
60 72
60 73
60 77
60 78
60 79
60 82
60 83
60 84
60 86
60 87
60 88
60 89
60 90
60 92
60 93
60 94
60 95
60 99
60 100
60 102
60 103
60 105
60 106
60 107
60 111
60 112
60 114
60 116
60 117
60 120
60 121
60 123
60 124
60 125
60 127
60 128
60 130
60 131
60 132
60 134
60 135
60 137
60 138
60 139
60 141
60 142
60 143
60 144
60 146
60 147
60 148
60 149
60 151
60 152
60 153
60 156
60 157
60 159
60 160
60 161
60 162
60 163
60 164
60 166
60 167
60 168
60 170
60 171
60 172
60 173
60 174
60 175
60 177
60 178
60 179
60 180
60 181
60 182
60 183
60 185
60 186
60 187
60 188
60 189
60 191
60 195
60 197
60 198
60 199
60 200
60 201
60 204
60 205
60 206
60 208
60 209
60 210
60 212
60 213
60 214
60 216
60 217
60 218
60 219
60 221
60 222
60 223
60 224
60 226
60 227
60 228
60 229
60 230
60 232
60 233
60 234
60 235
60 237
60 238
60 241
60 242
60 244
60 247
60 249
60 250
60 251
60 252
60 254
60 255
60 256
60 257
60 261
60 262
60 263
60 265
60 266
60 267
60 269
60 270
60 271
60 273
60 274
60 275
60 276
60 277
60 279
60 280
60 281
60 282
60 283
60 284
60 286
60 287
60 288
60 290
60 291
60 292
60 295
60 296
60 298
60 299
60 300
60 304
60 305
60 306
60 308
60 309
60 313
60 315
60 316
60 322
60 324
61 62
61 63
61 64
61 65
61 67
61 68
61 69
61 70
61 72
61 73
61 74
61 75
61 76
61 78
61 79
61 80
61 81
61 83
61 84
61 85
61 86
61 88
61 89
61 90
61 91
61 92
61 94
61 95
61 96
61 97
61 98
61 100
61 101
61 102
61 103
61 104
61 106
61 107
61 111
61 112
61 113
61 116
61 117
61 120
61 121
61 122
61 124
61 125
61 126
61 128
61 129
61 131
61 133
61 135
61 136
61 138
61 139
61 140
61 142
61 143
61 144
61 145
61 147
61 148
61 149
61 150
61 152
61 153
61 156
61 157
61 158
61 159
61 161
61 162
61 163
61 164
61 165
61 167
61 168
61 169
61 171
61 172
61 173
61 174
61 175
61 176
61 177
61 179
61 180
61 181
61 182
61 183
61 184
61 186
61 187
61 190
61 195
61 196
61 197
61 199
61 200
61 201
61 204
61 205
61 206
61 207
61 209
61 210
61 211
61 213
61 214
61 215
61 217
61 218
61 220
61 223
61 224
61 225
61 227
61 228
61 231
61 236
61 243
61 245
61 246
61 248
61 249
61 250
61 251
61 252
61 253
61 254
61 256
61 257
61 261
61 262
61 264
61 268
61 270
61 272
61 275
61 276
61 277
61 278
61 279
61 281
61 282
61 285
61 289
61 292
61 295
61 297
61 300
61 304
61 307
61 314
61 323
62 63
62 64
62 65
62 66
62 68
62 69
62 70
62 71
62 73
62 74
62 75
62 76
62 77
62 79
62 80
62 81
62 82
62 84
62 85
62 86
62 87
62 89
62 90
62 91
62 92
62 93
62 95
62 96
62 97
62 98
62 99
62 101
62 102
62 103
62 104
62 105
62 107
62 109
62 110
62 112
62 113
62 115
62 117
62 118
62 119
62 121
62 122
62 123
62 126
62 127
62 129
62 130
62 133
62 136
62 137
62 138
62 140
62 141
62 142
62 145
62 146
62 147
62 148
62 149
62 150
62 151
62 153
62 156
62 157
62 158
62 159
62 160
62 162
62 165
62 166
62 167
62 168
62 169
62 170
62 171
62 173
62 174
62 175
62 176
62 177
62 178
62 179
62 181
62 184
62 185
62 187
62 190
62 195
62 196
62 197
62 198
62 199
62 201
62 202
62 203
62 207
62 208
62 211
62 212
62 215
62 216
62 220
62 225
62 226
62 231
62 236
62 243
62 245
62 246
62 247
62 248
62 250
62 253
62 255
62 257
62 258
62 259
62 260
62 262
62 264
62 268
62 270
62 271
62 272
62 273
62 274
62 276
62 278
62 280
62 282
62 285
62 289
62 292
62 295
62 297
62 300
62 304
62 307
62 314
62 323
63 64
63 65
63 66
63 67
63 69
63 70
63 71
63 72
63 74
63 75
63 76
63 77
63 78
63 80
63 81
63 82
63 83
63 85
63 86
63 87
63 88
63 90
63 91
63 92
63 93
63 94
63 96
63 97
63 98
63 99
63 100
63 101
63 103
63 104
63 105
63 106
63 109
63 110
63 111
63 113
63 115
63 116
63 118
63 119
63 120
63 122
63 123
63 126
63 127
63 129
63 130
63 133
63 135
63 136
63 137
63 139
63 140
63 141
63 143
63 144
63 145
63 146
63 148
63 149
63 150
63 151
63 152
63 156
63 157
63 158
63 159
63 160
63 161
63 165
63 166
63 167
63 168
63 169
63 170
63 171
63 172
63 174
63 175
63 176
63 177
63 178
63 179
63 180
63 182
63 183
63 184
63 185
63 186
63 190
63 195
63 196
63 197
63 198
63 199
63 200
63 204
63 207
63 208
63 211
63 212
63 215
63 216
63 220
63 225
63 226
63 231
63 236
63 243
63 245
63 246
63 247
63 248
63 249
63 251
63 252
63 253
63 254
63 255
63 256
63 258
63 259
63 260
63 261
63 264
63 266
63 267
63 268
63 269
63 271
63 272
63 273
63 274
63 275
63 277
63 278
63 279
63 280
63 281
63 285
63 287
63 288
63 289
63 290
63 291
63 293
63 294
63 296
63 297
63 298
63 299
63 301
63 302
63 303
63 307
63 314
63 323
64 65
64 66
64 67
64 68
64 70
64 71
64 72
64 73
64 75
64 76
64 77
64 78
64 79
64 81
64 82
64 83
64 84
64 86
64 87
64 88
64 89
64 92
64 93
64 94
64 95
64 97
64 98
64 99
64 100
64 101
64 102
64 105
64 106
64 107
64 110
64 111
64 112
64 115
64 116
64 117
64 119
64 120
64 121
64 123
64 127
64 130
64 137
64 138
64 141
64 142
64 146
64 147
64 151
64 152
64 153
64 159
64 160
64 161
64 162
64 166
64 170
64 172
64 173
64 177
64 178
64 180
64 181
64 185
64 187
64 197
64 198
64 200
64 201
64 203
64 204
64 208
64 212
64 216
64 226
64 240
64 246
64 247
64 249
64 250
64 254
64 255
64 257
64 259
64 261
64 262
64 270
64 273
64 275
64 276
64 279
64 280
64 282
64 290
64 292
64 294
64 295
64 298
64 300
64 302
64 304
64 308
64 311
64 315
64 321
65 66
65 67
65 68
65 71
65 72
65 73
65 74
65 75
65 77
65 78
65 79
65 80
65 82
65 83
65 84
65 85
65 87
65 88
65 89
65 90
65 91
65 93
65 94
65 95
65 96
65 97
65 99
65 100
65 101
65 102
65 105
65 106
65 107
65 109
65 111
65 112
65 116
65 117
65 118
65 120
65 121
65 123
65 127
65 130
65 137
65 138
65 141
65 142
65 146
65 147
65 151
65 152
65 153
65 156
65 157
65 158
65 160
65 161
65 162
65 166
65 170
65 172
65 173
65 174
65 175
65 176
65 178
65 179
65 180
65 181
65 185
65 187
65 195
65 196
65 198
65 199
65 200
65 201
65 202
65 204
65 208
65 212
65 216
65 226
65 239
65 245
65 247
65 248
65 249
65 250
65 251
65 252
65 253
65 255
65 256
65 257
65 258
65 260
65 261
65 262
65 270
65 271
65 272
65 274
65 275
65 276
65 277
65 278
65 280
65 281
65 282
65 287
65 288
65 289
65 291
65 292
65 293
65 295
65 296
65 297
65 299
65 300
65 301
65 303
65 304
65 305
65 306
65 307
65 309
65 310
65 312
65 313
65 314
65 316
66 67
66 68
66 70
66 72
66 73
66 74
66 75
66 76
66 78
66 79
66 80
66 81
66 83
66 84
66 85
66 86
66 88
66 89
66 90
66 91
66 92
66 94
66 95
66 96
66 97
66 98
66 100
66 101
66 102
66 103
66 104
66 106
66 107
66 109
66 110
66 111
66 112
66 115
66 116
66 117
66 119
66 120
66 121
66 122
66 124
66 125
66 126
66 128
66 129
66 131
66 135
66 136
66 138
66 139
66 140
66 142
66 143
66 144
66 145
66 147
66 148
66 149
66 150
66 152
66 153
66 156
66 157
66 158
66 159
66 161
66 162
66 163
66 164
66 165
66 167
66 168
66 169
66 171
66 172
66 173
66 174
66 175
66 176
66 177
66 179
66 180
66 181
66 182
66 183
66 184
66 186
66 187
66 195
66 196
66 197
66 199
66 200
66 201
66 203
66 204
66 205
66 206
66 207
66 209
66 210
66 211
66 213
66 214
66 215
66 217
66 218
66 223
66 224
66 225
66 227
66 228
66 240
66 245
66 246
66 248
66 249
66 250
66 251
66 252
66 253
66 254
66 256
66 257
66 259
66 261
66 262
66 270
66 273
66 275
66 276
66 277
66 278
66 279
66 281
66 282
66 290
66 292
66 294
66 295
66 298
66 300
66 302
66 304
66 308
66 311
66 315
66 321
67 68
67 70
67 71
67 73
67 74
67 75
67 76
67 77
67 79
67 80
67 81
67 82
67 84
67 85
67 86
67 87
67 89
67 90
67 91
67 92
67 93
67 95
67 96
67 97
67 98
67 99
67 101
67 102
67 103
67 104
67 105
67 107
67 109
67 110
67 112
67 115
67 117
67 118
67 119
67 121
67 123
67 127
67 130
67 137
67 138
67 141
67 142
67 146
67 147
67 148
67 149
67 150
67 151
67 153
67 156
67 157
67 158
67 159
67 160
67 162
67 166
67 167
67 168
67 169
67 170
67 171
67 173
67 174
67 175
67 176
67 177
67 178
67 179
67 181
67 185
67 187
67 195
67 196
67 197
67 198
67 199
67 201
67 202
67 203
67 208
67 212
67 216
67 226
67 240
67 245
67 246
67 247
67 248
67 250
67 254
67 255
67 257
67 258
67 259
67 260
67 262
67 270
67 271
67 272
67 273
67 274
67 276
67 279
67 280
67 282
67 290
67 292
67 294
67 295
67 298
67 300
67 302
67 304
67 308
67 311
67 315
67 321
68 70
68 71
68 72
68 74
68 75
68 76
68 77
68 78
68 80
68 81
68 82
68 83
68 85
68 86
68 87
68 88
68 90
68 91
68 92
68 93
68 94
68 96
68 97
68 98
68 99
68 100
68 101
68 103
68 104
68 105
68 106
68 109
68 110
68 111
68 115
68 116
68 118
68 119
68 120
68 123
68 127
68 130
68 135
68 136
68 137
68 139
68 140
68 141
68 143
68 144
68 145
68 146
68 148
68 149
68 150
68 151
68 152
68 156
68 157
68 158
68 159
68 160
68 161
68 166
68 167
68 168
68 169
68 170
68 171
68 172
68 174
68 175
68 176
68 177
68 178
68 179
68 180
68 182
68 183
68 184
68 185
68 186
68 195
68 196
68 197
68 198
68 199
68 200
68 203
68 204
68 208
68 212
68 216
68 226
68 240
68 245
68 246
68 247
68 248
68 249
68 251
68 252
68 253
68 254
68 255
68 256
68 258
68 259
68 260
68 261
68 266
68 267
68 268
68 269
68 271
68 272
68 273
68 274
68 275
68 277
68 278
68 279
68 280
68 281
68 287
68 288
68 289
68 290
68 291
68 293
68 294
68 296
68 297
68 298
68 299
68 301
68 302
68 303
68 308
68 311
68 315
68 321
69 86
69 87
69 88
69 89
69 90
69 92
69 93
69 94
69 95
69 103
69 105
69 106
69 107
69 114
69 123
69 124
69 125
69 127
69 128
69 130
69 131
69 132
69 134
69 135
69 137
69 138
69 139
69 141
69 142
69 143
69 144
69 146
69 147
69 148
69 149
69 151
69 152
69 153
69 156
69 157
69 159
69 160
69 161
69 162
69 163
69 164
69 166
69 167
69 168
69 170
69 171
69 172
69 173
69 174
69 175
69 177
69 178
69 179
69 180
69 181
69 182
69 183
69 185
69 186
69 187
69 188
69 189
69 191
69 195
69 197
69 198
69 199
69 200
69 201
69 205
69 206
69 208
69 209
69 210
69 212
69 213
69 214
69 216
69 217
69 218
69 219
69 221
69 222
69 223
69 224
69 226
69 227
69 228
69 229
69 230
69 232
69 233
69 234
69 235
69 237
69 238
69 241
69 242
69 244
69 251
69 252
69 254
69 255
69 256
69 257
69 263
69 265
69 266
69 267
69 269
69 270
69 271
69 273
69 274
69 275
69 276
69 277
69 279
69 280
69 281
69 282
69 283
69 284
69 286
69 287
69 288
69 290
69 291
69 292
69 296
69 298
69 299
69 300
69 305
69 306
69 308
69 309
69 313
69 315
69 316
69 322
69 324
70 71
70 72
70 73
70 74
70 75
70 77
70 78
70 79
70 80
70 82
70 83
70 84
70 85
70 87
70 88
70 89
70 90
70 91
70 93
70 94
70 95
70 96
70 97
70 99
70 100
70 101
70 102
70 105
70 106
70 107
70 109
70 111
70 112
70 116
70 117
70 118
70 120
70 121
70 123
70 127
70 130
70 137
70 138
70 141
70 142
70 146
70 147
70 151
70 152
70 153
70 156
70 157
70 158
70 160
70 161
70 162
70 166
70 170
70 172
70 173
70 174
70 175
70 176
70 178
70 179
70 180
70 181
70 185
70 187
70 195
70 196
70 198
70 199
70 200
70 201
70 202
70 204
70 208
70 212
70 216
70 226
70 239
70 245
70 247
70 248
70 249
70 250
70 251
70 252
70 253
70 255
70 256
70 257
70 258
70 260
70 261
70 262
70 270
70 271
70 272
70 274
70 275
70 276
70 277
70 278
70 280
70 281
70 282
70 287
70 288
70 289
70 291
70 292
70 293
70 295
70 296
70 297
70 299
70 300
70 301
70 303
70 304
70 305
70 306
70 307
70 309
70 310
70 312
70 313
70 314
70 316
71 72
71 73
71 74
71 75
71 76
71 78
71 79
71 80
71 81
71 83
71 84
71 85
71 86
71 88
71 89
71 90
71 91
71 92
71 94
71 95
71 96
71 97
71 98
71 100
71 101
71 102
71 103
71 104
71 106
71 107
71 110
71 111
71 112
71 115
71 116
71 117
71 119
71 120
71 121
71 122
71 124
71 125
71 126
71 128
71 129
71 131
71 135
71 136
71 138
71 139
71 140
71 142
71 143
71 144
71 145
71 147
71 148
71 149
71 150
71 152
71 153
71 156
71 157
71 158
71 159
71 161
71 162
71 163
71 164
71 165
71 167
71 168
71 169
71 171
71 172
71 173
71 174
71 175
71 176
71 177
71 179
71 180
71 181
71 182
71 183
71 184
71 186
71 187
71 195
71 196
71 197
71 199
71 200
71 201
71 203
71 204
71 205
71 206
71 207
71 209
71 210
71 211
71 213
71 214
71 215
71 217
71 218
71 223
71 224
71 225
71 227
71 228
71 240
71 245
71 246
71 248
71 249
71 250
71 251
71 252
71 253
71 254
71 256
71 257
71 259
71 261
71 262
71 270
71 273
71 275
71 276
71 277
71 278
71 279
71 281
71 282
71 290
71 292
71 294
71 295
71 298
71 300
71 302
71 304
71 308
71 311
71 315
71 321
72 73
72 74
72 75
72 76
72 77
72 79
72 80
72 81
72 82
72 84
72 85
72 86
72 87
72 89
72 90
72 91
72 92
72 93
72 95
72 96
72 97
72 98
72 99
72 101
72 102
72 103
72 104
72 105
72 107
72 109
72 110
72 112
72 115
72 117
72 118
72 119
72 121
72 123
72 127
72 130
72 137
72 138
72 141
72 142
72 146
72 147
72 148
72 149
72 150
72 151
72 153
72 156
72 157
72 158
72 159
72 160
72 162
72 166
72 167
72 168
72 169
72 170
72 171
72 173
72 174
72 175
72 176
72 177
72 178
72 179
72 181
72 185
72 187
72 195
72 196
72 197
72 198
72 199
72 201
72 202
72 203
72 208
72 212
72 216
72 226
72 240
72 245
72 246
72 247
72 248
72 250
72 254
72 255
72 257
72 258
72 259
72 260
72 262
72 270
72 271
72 272
72 273
72 274
72 276
72 279
72 280
72 282
72 290
72 292
72 294
72 295
72 298
72 300
72 302
72 304
72 308
72 311
72 315
72 321
73 74
73 75
73 76
73 77
73 78
73 80
73 81
73 82
73 83
73 85
73 86
73 87
73 88
73 90
73 91
73 92
73 93
73 94
73 96
73 97
73 98
73 99
73 100
73 101
73 103
73 104
73 105
73 106
73 109
73 110
73 111
73 115
73 116
73 118
73 119
73 120
73 123
73 127
73 130
73 135
73 136
73 137
73 139
73 140
73 141
73 143
73 144
73 145
73 146
73 148
73 149
73 150
73 151
73 152
73 156
73 157
73 158
73 159
73 160
73 161
73 166
73 167
73 168
73 169
73 170
73 171
73 172
73 174
73 175
73 176
73 177
73 178
73 179
73 180
73 182
73 183
73 184
73 185
73 186
73 195
73 196
73 197
73 198
73 199
73 200
73 203
73 204
73 208
73 212
73 216
73 226
73 240
73 245
73 246
73 247
73 248
73 249
73 251
73 252
73 253
73 254
73 255
73 256
73 258
73 259
73 260
73 261
73 266
73 267
73 268
73 269
73 271
73 272
73 273
73 274
73 275
73 277
73 278
73 279
73 280
73 281
73 287
73 288
73 289
73 290
73 291
73 293
73 294
73 296
73 297
73 298
73 299
73 301
73 302
73 303
73 308
73 311
73 315
73 321
74 75
74 76
74 77
74 78
74 79
74 80
74 81
74 82
74 83
74 84
74 86
74 87
74 88
74 89
74 90
74 92
74 93
74 94
74 95
74 97
74 98
74 99
74 100
74 101
74 102
74 103
74 105
74 106
74 107
74 110
74 111
74 112
74 115
74 116
74 117
74 118
74 119
74 120
74 121
74 123
74 127
74 130
74 137
74 138
74 139
74 141
74 142
74 144
74 146
74 147
74 149
74 151
74 152
74 153
74 157
74 159
74 160
74 161
74 162
74 164
74 166
74 168
74 170
74 172
74 173
74 175
74 177
74 178
74 180
74 181
74 183
74 185
74 187
74 195
74 197
74 198
74 200
74 201
74 202
74 203
74 204
74 206
74 208
74 212
74 216
74 224
74 226
74 230
74 239
74 240
74 242
74 245
74 246
74 247
74 249
74 250
74 252
74 254
74 255
74 257
74 258
74 259
74 261
74 262
74 267
74 270
74 271
74 273
74 275
74 276
74 277
74 279
74 280
74 282
74 288
74 290
74 292
74 293
74 294
74 295
74 296
74 298
74 300
74 301
74 302
74 304
74 306
74 308
74 310
74 311
74 313
74 315
74 321
74 322
74 325
74 328
74 330
75 76
75 77
75 78
75 79
75 81
75 82
75 83
75 84
75 86
75 87
75 88
75 89
75 91
75 92
75 93
75 94
75 95
75 96
75 98
75 99
75 100
75 101
75 102
75 104
75 105
75 106
75 107
75 109
75 110
75 111
75 112
75 115
75 116
75 117
75 119
75 120
75 121
75 123
75 127
75 130
75 137
75 138
75 140
75 141
75 142
75 143
75 145
75 146
75 147
75 148
75 150
75 151
75 152
75 153
75 156
75 158
75 159
75 160
75 161
75 162
75 163
75 165
75 166
75 167
75 169
75 170
75 171
75 172
75 173
75 174
75 176
75 177
75 178
75 179
75 180
75 181
75 182
75 184
75 185
75 186
75 187
75 196
75 197
75 198
75 199
75 200
75 201
75 203
75 204
75 205
75 207
75 208
75 209
75 212
75 216
75 223
75 225
75 226
75 227
75 228
75 229
75 231
75 232
75 233
75 240
75 241
75 243
75 244
75 246
75 247
75 248
75 249
75 250
75 251
75 253
75 254
75 255
75 256
75 257
75 259
75 260
75 261
75 262
75 266
75 268
75 269
75 270
75 272
75 273
75 274
75 275
75 276
75 278
75 279
75 280
75 281
75 282
75 287
75 289
75 290
75 291
75 292
75 294
75 295
75 297
75 298
75 299
75 300
75 302
75 303
75 304
75 305
75 307
75 308
75 309
75 311
75 312
75 314
75 315
75 316
75 321
75 323
75 324
75 326
75 327
75 329
76 77
76 78
76 79
76 80
76 82
76 83
76 84
76 85
76 87
76 88
76 89
76 90
76 91
76 93
76 94
76 95
76 96
76 97
76 99
76 100
76 101
76 102
76 103
76 105
76 106
76 107
76 109
76 111
76 112
76 116
76 117
76 118
76 120
76 121
76 123
76 127
76 130
76 137
76 138
76 139
76 141
76 142
76 144
76 146
76 147
76 149
76 151
76 152
76 153
76 156
76 157
76 158
76 160
76 161
76 162
76 164
76 166
76 168
76 170
76 172
76 173
76 174
76 175
76 176
76 178
76 179
76 180
76 181
76 183
76 185
76 187
76 195
76 196
76 198
76 199
76 200
76 201
76 202
76 204
76 206
76 208
76 212
76 216
76 224
76 226
76 230
76 239
76 242
76 245
76 247
76 248
76 249
76 250
76 251
76 252
76 253
76 255
76 256
76 257
76 258
76 260
76 261
76 262
76 267
76 270
76 271
76 272
76 274
76 275
76 276
76 277
76 278
76 280
76 281
76 282
76 287
76 288
76 289
76 291
76 292
76 293
76 295
76 296
76 297
76 299
76 300
76 301
76 303
76 304
76 305
76 306
76 307
76 309
76 310
76 312
76 313
76 314
76 316
76 322
76 325
76 328
76 330
77 78
77 79
77 80
77 81
77 83
77 84
77 85
77 86
77 88
77 89
77 90
77 91
77 92
77 94
77 95
77 96
77 97
77 98
77 100
77 101
77 102
77 103
77 104
77 106
77 107
77 109
77 110
77 111
77 112
77 115
77 116
77 117
77 118
77 119
77 120
77 121
77 122
77 124
77 125
77 126
77 128
77 129
77 131
77 135
77 136
77 138
77 139
77 140
77 142
77 143
77 144
77 145
77 147
77 148
77 149
77 150
77 152
77 153
77 156
77 157
77 158
77 159
77 161
77 162
77 163
77 164
77 165
77 167
77 168
77 169
77 171
77 172
77 173
77 174
77 175
77 176
77 177
77 179
77 180
77 181
77 182
77 183
77 184
77 186
77 187
77 195
77 196
77 197
77 199
77 200
77 201
77 202
77 203
77 204
77 205
77 206
77 207
77 209
77 210
77 211
77 213
77 214
77 215
77 217
77 218
77 223
77 224
77 225
77 227
77 228
77 230
77 239
77 240
77 242
77 245
77 246
77 248
77 249
77 250
77 251
77 252
77 253
77 254
77 256
77 257
77 258
77 259
77 261
77 262
77 267
77 270
77 271
77 273
77 275
77 276
77 277
77 278
77 279
77 281
77 282
77 288
77 290
77 292
77 293
77 294
77 295
77 296
77 298
77 300
77 301
77 302
77 304
77 306
77 308
77 310
77 311
77 313
77 315
77 321
77 322
77 325
77 328
77 330
78 79
78 80
78 81
78 82
78 84
78 85
78 86
78 87
78 89
78 90
78 91
78 92
78 93
78 95
78 96
78 97
78 98
78 99
78 101
78 102
78 103
78 104
78 105
78 107
78 109
78 110
78 112
78 115
78 117
78 118
78 119
78 121
78 123
78 127
78 130
78 137
78 138
78 139
78 141
78 142
78 144
78 146
78 147
78 148
78 149
78 150
78 151
78 153
78 156
78 157
78 158
78 159
78 160
78 162
78 164
78 166
78 167
78 168
78 169
78 170
78 171
78 173
78 174
78 175
78 176
78 177
78 178
78 179
78 181
78 183
78 185
78 187
78 195
78 196
78 197
78 198
78 199
78 201
78 202
78 203
78 206
78 208
78 212
78 216
78 224
78 226
78 230
78 239
78 240
78 242
78 245
78 246
78 247
78 248
78 250
78 252
78 254
78 255
78 257
78 258
78 259
78 260
78 262
78 267
78 270
78 271
78 272
78 273
78 274
78 276
78 277
78 279
78 280
78 282
78 288
78 290
78 292
78 293
78 294
78 295
78 296
78 298
78 300
78 301
78 302
78 304
78 306
78 308
78 310
78 311
78 313
78 315
78 321
78 322
78 325
78 328
78 330
79 80
79 81
79 82
79 83
79 85
79 86
79 87
79 88
79 90
79 91
79 92
79 93
79 94
79 96
79 97
79 98
79 99
79 100
79 101
79 103
79 104
79 105
79 106
79 109
79 110
79 111
79 115
79 116
79 118
79 119
79 120
79 123
79 127
79 130
79 135
79 136
79 137
79 139
79 140
79 141
79 143
79 144
79 145
79 146
79 148
79 149
79 150
79 151
79 152
79 156
79 157
79 158
79 159
79 160
79 161
79 164
79 166
79 167
79 168
79 169
79 170
79 171
79 172
79 174
79 175
79 176
79 177
79 178
79 179
79 180
79 182
79 183
79 184
79 185
79 186
79 195
79 196
79 197
79 198
79 199
79 200
79 202
79 203
79 204
79 206
79 208
79 212
79 216
79 224
79 226
79 230
79 239
79 240
79 242
79 245
79 246
79 247
79 248
79 249
79 251
79 252
79 253
79 254
79 255
79 256
79 258
79 259
79 260
79 261
79 266
79 267
79 268
79 269
79 271
79 272
79 273
79 274
79 275
79 277
79 278
79 279
79 280
79 281
79 287
79 288
79 289
79 290
79 291
79 293
79 294
79 296
79 297
79 298
79 299
79 301
79 302
79 303
79 306
79 308
79 310
79 311
79 313
79 315
79 321
79 322
79 325
79 328
79 330
80 81
80 82
80 83
80 84
80 86
80 87
80 88
80 89
80 91
80 92
80 93
80 94
80 95
80 96
80 98
80 99
80 100
80 101
80 102
80 104
80 105
80 106
80 107
80 110
80 111
80 112
80 115
80 116
80 117
80 119
80 120
80 121
80 123
80 127
80 130
80 137
80 138
80 140
80 141
80 142
80 143
80 145
80 146
80 147
80 148
80 150
80 151
80 152
80 153
80 156
80 158
80 159
80 160
80 161
80 162
80 163
80 165
80 166
80 167
80 169
80 170
80 171
80 172
80 173
80 174
80 176
80 177
80 178
80 179
80 180
80 181
80 182
80 184
80 185
80 186
80 187
80 196
80 197
80 198
80 199
80 200
80 201
80 203
80 204
80 205
80 207
80 208
80 209
80 212
80 216
80 223
80 225
80 226
80 227
80 228
80 229
80 231
80 232
80 233
80 240
80 241
80 243
80 244
80 246
80 247
80 248
80 249
80 250
80 251
80 253
80 254
80 255
80 256
80 257
80 259
80 260
80 261
80 262
80 266
80 268
80 269
80 270
80 272
80 273
80 274
80 275
80 276
80 278
80 279
80 280
80 281
80 282
80 287
80 289
80 290
80 291
80 292
80 294
80 295
80 297
80 298
80 299
80 300
80 302
80 303
80 304
80 305
80 307
80 308
80 309
80 311
80 312
80 314
80 315
80 316
80 321
80 323
80 324
80 326
80 327
80 329
81 82
81 83
81 84
81 85
81 87
81 88
81 89
81 90
81 91
81 93
81 94
81 95
81 96
81 97
81 99
81 100
81 101
81 102
81 103
81 105
81 106
81 107
81 109
81 111
81 112
81 116
81 117
81 118
81 120
81 121
81 123
81 127
81 130
81 137
81 138
81 139
81 141
81 142
81 144
81 146
81 147
81 149
81 151
81 152
81 153
81 156
81 157
81 158
81 160
81 161
81 162
81 164
81 166
81 168
81 170
81 172
81 173
81 174
81 175
81 176
81 178
81 179
81 180
81 181
81 183
81 185
81 187
81 195
81 196
81 198
81 199
81 200
81 201
81 202
81 204
81 206
81 208
81 212
81 216
81 224
81 226
81 230
81 239
81 242
81 245
81 247
81 248
81 249
81 250
81 251
81 252
81 253
81 255
81 256
81 257
81 258
81 260
81 261
81 262
81 267
81 270
81 271
81 272
81 274
81 275
81 276
81 277
81 278
81 280
81 281
81 282
81 287
81 288
81 289
81 291
81 292
81 293
81 295
81 296
81 297
81 299
81 300
81 301
81 303
81 304
81 305
81 306
81 307
81 309
81 310
81 312
81 313
81 314
81 316
81 322
81 325
81 328
81 330
82 83
82 84
82 85
82 86
82 88
82 89
82 90
82 91
82 92
82 94
82 95
82 96
82 97
82 98
82 100
82 101
82 102
82 103
82 104
82 106
82 107
82 110
82 111
82 112
82 115
82 116
82 117
82 118
82 119
82 120
82 121
82 122
82 124
82 125
82 126
82 128
82 129
82 131
82 135
82 136
82 138
82 139
82 140
82 142
82 143
82 144
82 145
82 147
82 148
82 149
82 150
82 152
82 153
82 156
82 157
82 158
82 159
82 161
82 162
82 163
82 164
82 165
82 167
82 168
82 169
82 171
82 172
82 173
82 174
82 175
82 176
82 177
82 179
82 180
82 181
82 182
82 183
82 184
82 186
82 187
82 195
82 196
82 197
82 199
82 200
82 201
82 202
82 203
82 204
82 205
82 206
82 207
82 209
82 210
82 211
82 213
82 214
82 215
82 217
82 218
82 223
82 224
82 225
82 227
82 228
82 230
82 239
82 240
82 242
82 245
82 246
82 248
82 249
82 250
82 251
82 252
82 253
82 254
82 256
82 257
82 258
82 259
82 261
82 262
82 267
82 270
82 271
82 273
82 275
82 276
82 277
82 278
82 279
82 281
82 282
82 288
82 290
82 292
82 293
82 294
82 295
82 296
82 298
82 300
82 301
82 302
82 304
82 306
82 308
82 310
82 311
82 313
82 315
82 321
82 322
82 325
82 328
82 330
83 84
83 85
83 86
83 87
83 89
83 90
83 91
83 92
83 93
83 95
83 96
83 97
83 98
83 99
83 101
83 102
83 103
83 104
83 105
83 107
83 109
83 110
83 112
83 115
83 117
83 118
83 119
83 121
83 123
83 127
83 130
83 137
83 138
83 139
83 141
83 142
83 144
83 146
83 147
83 148
83 149
83 150
83 151
83 153
83 156
83 157
83 158
83 159
83 160
83 162
83 164
83 166
83 167
83 168
83 169
83 170
83 171
83 173
83 174
83 175
83 176
83 177
83 178
83 179
83 181
83 183
83 185
83 187
83 195
83 196
83 197
83 198
83 199
83 201
83 202
83 203
83 206
83 208
83 212
83 216
83 224
83 226
83 230
83 239
83 240
83 242
83 245
83 246
83 247
83 248
83 250
83 252
83 254
83 255
83 257
83 258
83 259
83 260
83 262
83 267
83 270
83 271
83 272
83 273
83 274
83 276
83 277
83 279
83 280
83 282
83 288
83 290
83 292
83 293
83 294
83 295
83 296
83 298
83 300
83 301
83 302
83 304
83 306
83 308
83 310
83 311
83 313
83 315
83 321
83 322
83 325
83 328
83 330
84 85
84 86
84 87
84 88
84 90
84 91
84 92
84 93
84 94
84 96
84 97
84 98
84 99
84 100
84 101
84 103
84 104
84 105
84 106
84 109
84 110
84 111
84 115
84 116
84 118
84 119
84 120
84 123
84 127
84 130
84 135
84 136
84 137
84 139
84 140
84 141
84 143
84 144
84 145
84 146
84 148
84 149
84 150
84 151
84 152
84 156
84 157
84 158
84 159
84 160
84 161
84 164
84 166
84 167
84 168
84 169
84 170
84 171
84 172
84 174
84 175
84 176
84 177
84 178
84 179
84 180
84 182
84 183
84 184
84 185
84 186
84 195
84 196
84 197
84 198
84 199
84 200
84 202
84 203
84 204
84 206
84 208
84 212
84 216
84 224
84 226
84 230
84 239
84 240
84 242
84 245
84 246
84 247
84 248
84 249
84 251
84 252
84 253
84 254
84 255
84 256
84 258
84 259
84 260
84 261
84 266
84 267
84 268
84 269
84 271
84 272
84 273
84 274
84 275
84 277
84 278
84 279
84 280
84 281
84 287
84 288
84 289
84 290
84 291
84 293
84 294
84 296
84 297
84 298
84 299
84 301
84 302
84 303
84 306
84 308
84 310
84 311
84 313
84 315
84 321
84 322
84 325
84 328
84 330
85 86
85 87
85 88
85 89
85 90
85 92
85 93
85 94
85 95
85 98
85 99
85 100
85 102
85 103
85 105
85 106
85 107
85 110
85 111
85 112
85 114
85 115
85 116
85 117
85 119
85 120
85 121
85 123
85 124
85 125
85 127
85 128
85 130
85 131
85 132
85 134
85 135
85 137
85 138
85 139
85 141
85 142
85 143
85 144
85 146
85 147
85 148
85 149
85 151
85 152
85 153
85 156
85 157
85 159
85 160
85 161
85 162
85 163
85 164
85 166
85 167
85 168
85 170
85 171
85 172
85 173
85 174
85 175
85 177
85 178
85 179
85 180
85 181
85 182
85 183
85 185
85 186
85 187
85 188
85 189
85 191
85 195
85 197
85 198
85 199
85 200
85 201
85 203
85 204
85 205
85 206
85 208
85 209
85 210
85 212
85 213
85 214
85 216
85 217
85 218
85 219
85 221
85 222
85 223
85 224
85 226
85 227
85 228
85 229
85 230
85 232
85 233
85 234
85 235
85 237
85 238
85 240
85 241
85 242
85 244
85 246
85 247
85 249
85 250
85 251
85 252
85 254
85 255
85 256
85 257
85 259
85 261
85 262
85 263
85 265
85 266
85 267
85 269
85 270
85 271
85 273
85 274
85 275
85 276
85 277
85 279
85 280
85 281
85 282
85 283
85 284
85 286
85 287
85 288
85 290
85 291
85 292
85 294
85 295
85 296
85 298
85 299
85 300
85 302
85 304
85 305
85 306
85 308
85 309
85 311
85 313
85 315
85 316
85 321
85 322
85 324
86 87
86 88
86 89
86 90
86 91
86 93
86 94
86 95
86 96
86 97
86 99
86 100
86 101
86 102
86 104
86 105
86 106
86 107
86 109
86 111
86 112
86 113
86 116
86 117
86 118
86 120
86 121
86 122
86 123
86 126
86 127
86 129
86 130
86 133
86 136
86 137
86 138
86 140
86 141
86 142
86 145
86 146
86 147
86 150
86 151
86 152
86 153
86 156
86 157
86 158
86 160
86 161
86 162
86 165
86 166
86 169
86 170
86 172
86 173
86 174
86 175
86 176
86 178
86 179
86 180
86 181
86 184
86 185
86 187
86 190
86 195
86 196
86 198
86 199
86 200
86 201
86 202
86 204
86 207
86 208
86 211
86 212
86 215
86 216
86 220
86 225
86 226
86 231
86 236
86 239
86 243
86 245
86 247
86 248
86 249
86 250
86 251
86 252
86 253
86 255
86 256
86 257
86 258
86 260
86 261
86 262
86 264
86 268
86 270
86 271
86 272
86 274
86 275
86 276
86 277
86 278
86 280
86 281
86 282
86 285
86 287
86 288
86 289
86 291
86 292
86 293
86 295
86 296
86 297
86 299
86 300
86 301
86 303
86 304
86 305
86 306
86 307
86 309
86 310
86 312
86 313
86 314
86 316
86 323
87 88
87 89
87 90
87 91
87 92
87 94
87 95
87 96
87 97
87 98
87 100
87 101
87 102
87 103
87 104
87 106
87 107
87 110
87 111
87 112
87 113
87 115
87 116
87 117
87 119
87 120
87 121
87 122
87 124
87 125
87 126
87 128
87 129
87 131
87 133
87 135
87 136
87 138
87 139
87 140
87 142
87 143
87 144
87 145
87 147
87 148
87 149
87 150
87 152
87 153
87 156
87 157
87 158
87 159
87 161
87 162
87 163
87 164
87 165
87 167
87 168
87 169
87 171
87 172
87 173
87 174
87 175
87 176
87 177
87 179
87 180
87 181
87 182
87 183
87 184
87 186
87 187
87 190
87 195
87 196
87 197
87 199
87 200
87 201
87 203
87 204
87 205
87 206
87 207
87 209
87 210
87 211
87 213
87 214
87 215
87 217
87 218
87 220
87 223
87 224
87 225
87 227
87 228
87 231
87 236
87 240
87 243
87 245
87 246
87 248
87 249
87 250
87 251
87 252
87 253
87 254
87 256
87 257
87 259
87 261
87 262
87 264
87 268
87 270
87 272
87 273
87 275
87 276
87 277
87 278
87 279
87 281
87 282
87 285
87 289
87 290
87 292
87 294
87 295
87 297
87 298
87 300
87 302
87 304
87 307
87 308
87 311
87 314
87 315
87 321
87 323
88 89
88 90
88 91
88 92
88 93
88 95
88 96
88 97
88 98
88 99
88 101
88 102
88 103
88 104
88 105
88 107
88 109
88 110
88 112
88 113
88 115
88 117
88 118
88 119
88 121
88 122
88 123
88 126
88 127
88 129
88 130
88 133
88 136
88 137
88 138
88 140
88 141
88 142
88 145
88 146
88 147
88 148
88 149
88 150
88 151
88 153
88 156
88 157
88 158
88 159
88 160
88 162
88 165
88 166
88 167
88 168
88 169
88 170
88 171
88 173
88 174
88 175
88 176
88 177
88 178
88 179
88 181
88 184
88 185
88 187
88 190
88 195
88 196
88 197
88 198
88 199
88 201
88 202
88 203
88 207
88 208
88 211
88 212
88 215
88 216
88 220
88 225
88 226
88 231
88 236
88 240
88 243
88 245
88 246
88 247
88 248
88 250
88 253
88 254
88 255
88 257
88 258
88 259
88 260
88 262
88 264
88 268
88 270
88 271
88 272
88 273
88 274
88 276
88 278
88 279
88 280
88 282
88 285
88 289
88 290
88 292
88 294
88 295
88 297
88 298
88 300
88 302
88 304
88 307
88 308
88 311
88 314
88 315
88 321
88 323
89 90
89 91
89 92
89 93
89 94
89 96
89 97
89 98
89 99
89 100
89 101
89 103
89 104
89 105
89 106
89 109
89 110
89 111
89 113
89 115
89 116
89 118
89 119
89 120
89 122
89 123
89 126
89 127
89 129
89 130
89 133
89 135
89 136
89 137
89 139
89 140
89 141
89 143
89 144
89 145
89 146
89 148
89 149
89 150
89 151
89 152
89 156
89 157
89 158
89 159
89 160
89 161
89 165
89 166
89 167
89 168
89 169
89 170
89 171
89 172
89 174
89 175
89 176
89 177
89 178
89 179
89 180
89 182
89 183
89 184
89 185
89 186
89 190
89 195
89 196
89 197
89 198
89 199
89 200
89 203
89 204
89 207
89 208
89 211
89 212
89 215
89 216
89 220
89 225
89 226
89 231
89 236
89 240
89 243
89 245
89 246
89 247
89 248
89 249
89 251
89 252
89 253
89 254
89 255
89 256
89 258
89 259
89 260
89 261
89 264
89 266
89 267
89 268
89 269
89 271
89 272
89 273
89 274
89 275
89 277
89 278
89 279
89 280
89 281
89 285
89 287
89 288
89 289
89 290
89 291
89 293
89 294
89 296
89 297
89 298
89 299
89 301
89 302
89 303
89 307
89 308
89 311
89 314
89 315
89 321
89 323
90 91
90 92
90 93
90 94
90 95
90 96
90 98
90 99
90 100
90 101
90 102
90 104
90 105
90 106
90 107
90 110
90 111
90 112
90 113
90 115
90 116
90 117
90 119
90 120
90 121
90 122
90 123
90 126
90 127
90 129
90 130
90 133
90 136
90 137
90 138
90 140
90 141
90 142
90 143
90 145
90 146
90 147
90 148
90 150
90 151
90 152
90 153
90 156
90 158
90 159
90 160
90 161
90 162
90 163
90 165
90 166
90 167
90 169
90 170
90 171
90 172
90 173
90 174
90 176
90 177
90 178
90 179
90 180
90 181
90 182
90 184
90 185
90 186
90 187
90 190
90 196
90 197
90 198
90 199
90 200
90 201
90 203
90 204
90 205
90 207
90 208
90 209
90 211
90 212
90 215
90 216
90 220
90 223
90 225
90 226
90 227
90 228
90 229
90 231
90 232
90 233
90 236
90 240
90 241
90 243
90 244
90 246
90 247
90 248
90 249
90 250
90 251
90 253
90 254
90 255
90 256
90 257
90 259
90 260
90 261
90 262
90 264
90 266
90 268
90 269
90 270
90 272
90 273
90 274
90 275
90 276
90 278
90 279
90 280
90 281
90 282
90 285
90 287
90 289
90 290
90 291
90 292
90 294
90 295
90 297
90 298
90 299
90 300
90 302
90 303
90 304
90 305
90 307
90 308
90 309
90 311
90 312
90 314
90 315
90 316
90 321
90 323
90 324
90 326
90 327
90 329
91 92
91 93
91 94
91 95
91 97
91 98
91 99
91 100
91 102
91 103
91 105
91 106
91 107
91 110
91 111
91 112
91 114
91 115
91 116
91 117
91 118
91 119
91 120
91 121
91 123
91 124
91 125
91 127
91 128
91 130
91 131
91 132
91 134
91 135
91 137
91 138
91 139
91 141
91 142
91 143
91 144
91 146
91 147
91 148
91 149
91 151
91 152
91 153
91 156
91 157
91 159
91 160
91 161
91 162
91 163
91 164
91 166
91 167
91 168
91 170
91 171
91 172
91 173
91 174
91 175
91 177
91 178
91 179
91 180
91 181
91 182
91 183
91 185
91 186
91 187
91 188
91 189
91 191
91 195
91 197
91 198
91 199
91 200
91 201
91 202
91 203
91 204
91 205
91 206
91 208
91 209
91 210
91 212
91 213
91 214
91 216
91 217
91 218
91 219
91 221
91 222
91 223
91 224
91 226
91 227
91 228
91 229
91 230
91 232
91 233
91 234
91 235
91 237
91 238
91 239
91 240
91 241
91 242
91 244
91 245
91 246
91 247
91 249
91 250
91 251
91 252
91 254
91 255
91 256
91 257
91 258
91 259
91 261
91 262
91 263
91 265
91 266
91 267
91 269
91 270
91 271
91 273
91 274
91 275
91 276
91 277
91 279
91 280
91 281
91 282
91 283
91 284
91 286
91 287
91 288
91 290
91 291
91 292
91 293
91 294
91 295
91 296
91 298
91 299
91 300
91 301
91 302
91 304
91 305
91 306
91 308
91 309
91 310
91 311
91 313
91 315
91 316
91 321
91 322
91 324
91 325
91 328
91 330
92 93
92 94
92 95
92 96
92 97
92 99
92 100
92 101
92 102
92 103
92 104
92 105
92 106
92 107
92 109
92 111
92 112
92 113
92 116
92 117
92 118
92 120
92 121
92 122
92 123
92 126
92 127
92 129
92 130
92 133
92 136
92 137
92 138
92 139
92 140
92 141
92 142
92 144
92 145
92 146
92 147
92 149
92 150
92 151
92 152
92 153
92 156
92 157
92 158
92 160
92 161
92 162
92 164
92 165
92 166
92 168
92 169
92 170
92 172
92 173
92 174
92 175
92 176
92 178
92 179
92 180
92 181
92 183
92 184
92 185
92 187
92 190
92 195
92 196
92 198
92 199
92 200
92 201
92 202
92 204
92 206
92 207
92 208
92 211
92 212
92 215
92 216
92 220
92 224
92 225
92 226
92 230
92 231
92 236
92 239
92 242
92 243
92 245
92 247
92 248
92 249
92 250
92 251
92 252
92 253
92 255
92 256
92 257
92 258
92 260
92 261
92 262
92 264
92 267
92 268
92 270
92 271
92 272
92 274
92 275
92 276
92 277
92 278
92 280
92 281
92 282
92 285
92 287
92 288
92 289
92 291
92 292
92 293
92 295
92 296
92 297
92 299
92 300
92 301
92 303
92 304
92 305
92 306
92 307
92 309
92 310
92 312
92 313
92 314
92 316
92 322
92 323
92 325
92 328
92 330
93 94
93 95
93 96
93 97
93 98
93 100
93 101
93 102
93 103
93 104
93 106
93 107
93 110
93 111
93 112
93 113
93 115
93 116
93 117
93 118
93 119
93 120
93 121
93 122
93 124
93 125
93 126
93 128
93 129
93 131
93 133
93 135
93 136
93 138
93 139
93 140
93 142
93 143
93 144
93 145
93 147
93 148
93 149
93 150
93 152
93 153
93 156
93 157
93 158
93 159
93 161
93 162
93 163
93 164
93 165
93 167
93 168
93 169
93 171
93 172
93 173
93 174
93 175
93 176
93 177
93 179
93 180
93 181
93 182
93 183
93 184
93 186
93 187
93 190
93 195
93 196
93 197
93 199
93 200
93 201
93 202
93 203
93 204
93 205
93 206
93 207
93 209
93 210
93 211
93 213
93 214
93 215
93 217
93 218
93 220
93 223
93 224
93 225
93 227
93 228
93 230
93 231
93 236
93 239
93 240
93 242
93 243
93 245
93 246
93 248
93 249
93 250
93 251
93 252
93 253
93 254
93 256
93 257
93 258
93 259
93 261
93 262
93 264
93 267
93 268
93 270
93 271
93 272
93 273
93 275
93 276
93 277
93 278
93 279
93 281
93 282
93 285
93 288
93 289
93 290
93 292
93 293
93 294
93 295
93 296
93 297
93 298
93 300
93 301
93 302
93 304
93 306
93 307
93 308
93 310
93 311
93 313
93 314
93 315
93 321
93 322
93 323
93 325
93 328
93 330
94 95
94 96
94 97
94 98
94 99
94 101
94 102
94 103
94 104
94 105
94 107
94 109
94 110
94 112
94 113
94 115
94 117
94 118
94 119
94 121
94 122
94 123
94 126
94 127
94 129
94 130
94 133
94 136
94 137
94 138
94 139
94 140
94 141
94 142
94 144
94 145
94 146
94 147
94 148
94 149
94 150
94 151
94 153
94 156
94 157
94 158
94 159
94 160
94 162
94 164
94 165
94 166
94 167
94 168
94 169
94 170
94 171
94 173
94 174
94 175
94 176
94 177
94 178
94 179
94 181
94 183
94 184
94 185
94 187
94 190
94 195
94 196
94 197
94 198
94 199
94 201
94 202
94 203
94 206
94 207
94 208
94 211
94 212
94 215
94 216
94 220
94 224
94 225
94 226
94 230
94 231
94 236
94 239
94 240
94 242
94 243
94 245
94 246
94 247
94 248
94 250
94 252
94 253
94 254
94 255
94 257
94 258
94 259
94 260
94 262
94 264
94 267
94 268
94 270
94 271
94 272
94 273
94 274
94 276
94 277
94 278
94 279
94 280
94 282
94 285
94 288
94 289
94 290
94 292
94 293
94 294
94 295
94 296
94 297
94 298
94 300
94 301
94 302
94 304
94 306
94 307
94 308
94 310
94 311
94 313
94 314
94 315
94 321
94 322
94 323
94 325
94 328
94 330
95 96
95 97
95 98
95 99
95 100
95 101
95 103
95 104
95 105
95 106
95 109
95 110
95 111
95 113
95 115
95 116
95 118
95 119
95 120
95 122
95 123
95 126
95 127
95 129
95 130
95 133
95 135
95 136
95 137
95 139
95 140
95 141
95 143
95 144
95 145
95 146
95 148
95 149
95 150
95 151
95 152
95 156
95 157
95 158
95 159
95 160
95 161
95 164
95 165
95 166
95 167
95 168
95 169
95 170
95 171
95 172
95 174
95 175
95 176
95 177
95 178
95 179
95 180
95 182
95 183
95 184
95 185
95 186
95 190
95 195
95 196
95 197
95 198
95 199
95 200
95 202
95 203
95 204
95 206
95 207
95 208
95 211
95 212
95 215
95 216
95 220
95 224
95 225
95 226
95 230
95 231
95 236
95 239
95 240
95 242
95 243
95 245
95 246
95 247
95 248
95 249
95 251
95 252
95 253
95 254
95 255
95 256
95 258
95 259
95 260
95 261
95 264
95 266
95 267
95 268
95 269
95 271
95 272
95 273
95 274
95 275
95 277
95 278
95 279
95 280
95 281
95 285
95 287
95 288
95 289
95 290
95 291
95 293
95 294
95 296
95 297
95 298
95 299
95 301
95 302
95 303
95 306
95 307
95 308
95 310
95 311
95 313
95 314
95 315
95 321
95 322
95 323
95 325
95 328
95 330
96 97
96 98
96 99
96 100
96 101
96 102
96 103
96 105
96 106
96 107
96 110
96 111
96 112
96 115
96 116
96 117
96 118
96 119
96 120
96 121
96 123
96 127
96 130
96 137
96 138
96 139
96 141
96 142
96 144
96 146
96 147
96 149
96 151
96 152
96 153
96 157
96 159
96 160
96 161
96 162
96 164
96 166
96 168
96 170
96 172
96 173
96 175
96 177
96 178
96 180
96 181
96 183
96 185
96 187
96 195
96 197
96 198
96 200
96 201
96 202
96 203
96 204
96 206
96 208
96 212
96 216
96 224
96 226
96 230
96 239
96 240
96 242
96 245
96 246
96 247
96 249
96 250
96 252
96 254
96 255
96 257
96 258
96 259
96 261
96 262
96 267
96 270
96 271
96 273
96 275
96 276
96 277
96 279
96 280
96 282
96 288
96 290
96 292
96 293
96 294
96 295
96 296
96 298
96 300
96 301
96 302
96 304
96 306
96 308
96 310
96 311
96 313
96 315
96 321
96 322
96 325
96 328
96 330
97 98
97 99
97 100
97 101
97 102
97 104
97 105
97 106
97 107
97 109
97 110
97 111
97 112
97 115
97 116
97 117
97 119
97 120
97 121
97 123
97 127
97 130
97 137
97 138
97 140
97 141
97 142
97 143
97 145
97 146
97 147
97 148
97 150
97 151
97 152
97 153
97 156
97 158
97 159
97 160
97 161
97 162
97 163
97 165
97 166
97 167
97 169
97 170
97 171
97 172
97 173
97 174
97 176
97 177
97 178
97 179
97 180
97 181
97 182
97 184
97 185
97 186
97 187
97 196
97 197
97 198
97 199
97 200
97 201
97 203
97 204
97 205
97 207
97 208
97 209
97 212
97 216
97 223
97 225
97 226
97 227
97 228
97 229
97 231
97 232
97 233
97 240
97 241
97 243
97 244
97 246
97 247
97 248
97 249
97 250
97 251
97 253
97 254
97 255
97 256
97 257
97 259
97 260
97 261
97 262
97 266
97 268
97 269
97 270
97 272
97 273
97 274
97 275
97 276
97 278
97 279
97 280
97 281
97 282
97 287
97 289
97 290
97 291
97 292
97 294
97 295
97 297
97 298
97 299
97 300
97 302
97 303
97 304
97 305
97 307
97 308
97 309
97 311
97 312
97 314
97 315
97 316
97 321
97 323
97 324
97 326
97 327
97 329
98 99
98 100
98 101
98 102
98 103
98 105
98 106
98 107
98 109
98 111
98 112
98 116
98 117
98 118
98 120
98 121
98 123
98 127
98 130
98 137
98 138
98 139
98 141
98 142
98 144
98 146
98 147
98 149
98 151
98 152
98 153
98 156
98 157
98 158
98 160
98 161
98 162
98 164
98 166
98 168
98 170
98 172
98 173
98 174
98 175
98 176
98 178
98 179
98 180
98 181
98 183
98 185
98 187
98 195
98 196
98 198
98 199
98 200
98 201
98 202
98 204
98 206
98 208
98 212
98 216
98 224
98 226
98 230
98 239
98 242
98 245
98 247
98 248
98 249
98 250
98 251
98 252
98 253
98 255
98 256
98 257
98 258
98 260
98 261
98 262
98 267
98 270
98 271
98 272
98 274
98 275
98 276
98 277
98 278
98 280
98 281
98 282
98 287
98 288
98 289
98 291
98 292
98 293
98 295
98 296
98 297
98 299
98 300
98 301
98 303
98 304
98 305
98 306
98 307
98 309
98 310
98 312
98 313
98 314
98 316
98 322
98 325
98 328
98 330
99 100
99 101
99 102
99 103
99 104
99 106
99 107
99 109
99 110
99 111
99 112
99 115
99 116
99 117
99 118
99 119
99 120
99 121
99 122
99 124
99 125
99 126
99 128
99 129
99 131
99 135
99 136
99 138
99 139
99 140
99 142
99 143
99 144
99 145
99 147
99 148
99 149
99 150
99 152
99 153
99 156
99 157
99 158
99 159
99 161
99 162
99 163
99 164
99 165
99 167
99 168
99 169
99 171
99 172
99 173
99 174
99 175
99 176
99 177
99 179
99 180
99 181
99 182
99 183
99 184
99 186
99 187
99 195
99 196
99 197
99 199
99 200
99 201
99 202
99 203
99 204
99 205
99 206
99 207
99 209
99 210
99 211
99 213
99 214
99 215
99 217
99 218
99 223
99 224
99 225
99 227
99 228
99 230
99 239
99 240
99 242
99 245
99 246
99 248
99 249
99 250
99 251
99 252
99 253
99 254
99 256
99 257
99 258
99 259
99 261
99 262
99 267
99 270
99 271
99 273
99 275
99 276
99 277
99 278
99 279
99 281
99 282
99 288
99 290
99 292
99 293
99 294
99 295
99 296
99 298
99 300
99 301
99 302
99 304
99 306
99 308
99 310
99 311
99 313
99 315
99 321
99 322
99 325
99 328
99 330
100 101
100 102
100 103
100 104
100 105
100 107
100 109
100 110
100 112
100 115
100 117
100 118
100 119
100 121
100 123
100 127
100 130
100 137
100 138
100 139
100 141
100 142
100 144
100 146
100 147
100 148
100 149
100 150
100 151
100 153
100 156
100 157
100 158
100 159
100 160
100 162
100 164
100 166
100 167
100 168
100 169
100 170
100 171
100 173
100 174
100 175
100 176
100 177
100 178
100 179
100 181
100 183
100 185
100 187
100 195
100 196
100 197
100 198
100 199
100 201
100 202
100 203
100 206
100 208
100 212
100 216
100 224
100 226
100 230
100 239
100 240
100 242
100 245
100 246
100 247
100 248
100 250
100 252
100 254
100 255
100 257
100 258
100 259
100 260
100 262
100 267
100 270
100 271
100 272
100 273
100 274
100 276
100 277
100 279
100 280
100 282
100 288
100 290
100 292
100 293
100 294
100 295
100 296
100 298
100 300
100 301
100 302
100 304
100 306
100 308
100 310
100 311
100 313
100 315
100 321
100 322
100 325
100 328
100 330
101 102
101 103
101 105
101 106
101 107
101 109
101 110
101 111
101 112
101 115
101 116
101 117
101 118
101 119
101 120
101 121
101 123
101 127
101 130
101 137
101 138
101 139
101 141
101 142
101 144
101 146
101 147
101 149
101 151
101 152
101 153
101 157
101 159
101 160
101 161
101 162
101 164
101 166
101 168
101 170
101 172
101 173
101 175
101 177
101 178
101 180
101 181
101 183
101 185
101 187
101 195
101 197
101 198
101 200
101 201
101 202
101 203
101 204
101 206
101 208
101 212
101 216
101 224
101 226
101 230
101 239
101 240
101 242
101 245
101 246
101 247
101 249
101 250
101 252
101 254
101 255
101 257
101 258
101 259
101 261
101 262
101 267
101 270
101 271
101 273
101 275
101 276
101 277
101 279
101 280
101 282
101 288
101 290
101 292
101 293
101 294
101 295
101 296
101 298
101 300
101 301
101 302
101 304
101 306
101 308
101 310
101 311
101 313
101 315
101 321
101 322
101 325
101 328
101 330
102 103
102 104
102 105
102 106
102 109
102 110
102 111
102 115
102 116
102 118
102 119
102 120
102 123
102 127
102 130
102 135
102 136
102 137
102 139
102 140
102 141
102 143
102 144
102 145
102 146
102 148
102 149
102 150
102 151
102 152
102 156
102 157
102 158
102 159
102 160
102 161
102 164
102 166
102 167
102 168
102 169
102 170
102 171
102 172
102 174
102 175
102 176
102 177
102 178
102 179
102 180
102 182
102 183
102 184
102 185
102 186
102 195
102 196
102 197
102 198
102 199
102 200
102 202
102 203
102 204
102 206
102 208
102 212
102 216
102 224
102 226
102 230
102 239
102 240
102 242
102 245
102 246
102 247
102 248
102 249
102 251
102 252
102 253
102 254
102 255
102 256
102 258
102 259
102 260
102 261
102 266
102 267
102 268
102 269
102 271
102 272
102 273
102 274
102 275
102 277
102 278
102 279
102 280
102 281
102 287
102 288
102 289
102 290
102 291
102 293
102 294
102 296
102 297
102 298
102 299
102 301
102 302
102 303
102 306
102 308
102 310
102 311
102 313
102 315
102 321
102 322
102 325
102 328
102 330
103 104
103 105
103 106
103 107
103 111
103 112
103 113
103 116
103 117
103 119
103 120
103 121
103 122
103 123
103 126
103 127
103 129
103 130
103 133
103 136
103 137
103 138
103 140
103 141
103 142
103 143
103 145
103 146
103 147
103 148
103 150
103 151
103 152
103 153
103 156
103 158
103 159
103 160
103 161
103 162
103 163
103 165
103 166
103 167
103 169
103 170
103 171
103 172
103 173
103 174
103 176
103 177
103 178
103 179
103 180
103 181
103 182
103 184
103 185
103 186
103 187
103 190
103 196
103 197
103 198
103 199
103 200
103 201
103 203
103 204
103 205
103 207
103 208
103 209
103 211
103 212
103 215
103 216
103 220
103 223
103 225
103 226
103 227
103 228
103 229
103 231
103 232
103 233
103 236
103 240
103 241
103 243
103 244
103 246
103 247
103 248
103 249
103 250
103 251
103 253
103 254
103 255
103 256
103 257
103 259
103 260
103 261
103 262
103 264
103 266
103 268
103 269
103 270
103 272
103 273
103 274
103 275
103 276
103 278
103 279
103 280
103 281
103 282
103 285
103 287
103 289
103 290
103 291
103 292
103 294
103 295
103 297
103 298
103 299
103 300
103 302
103 303
103 304
103 305
103 307
103 308
103 309
103 311
103 312
103 314
103 315
103 316
103 323
103 324
103 326
103 327
103 329
104 105
104 106
104 107
104 111
104 112
104 114
104 116
104 117
104 118
104 120
104 121
104 123
104 124
104 125
104 127
104 128
104 130
104 131
104 132
104 134
104 135
104 137
104 138
104 139
104 141
104 142
104 143
104 144
104 146
104 147
104 148
104 149
104 151
104 152
104 153
104 156
104 157
104 159
104 160
104 161
104 162
104 163
104 164
104 166
104 167
104 168
104 170
104 171
104 172
104 173
104 174
104 175
104 177
104 178
104 179
104 180
104 181
104 182
104 183
104 185
104 186
104 187
104 188
104 189
104 191
104 195
104 197
104 198
104 199
104 200
104 201
104 202
104 204
104 205
104 206
104 208
104 209
104 210
104 212
104 213
104 214
104 216
104 217
104 218
104 219
104 221
104 222
104 223
104 224
104 226
104 227
104 228
104 229
104 230
104 232
104 233
104 234
104 235
104 237
104 238
104 239
104 241
104 242
104 244
104 245
104 247
104 249
104 250
104 251
104 252
104 254
104 255
104 256
104 257
104 258
104 261
104 262
104 263
104 265
104 266
104 267
104 269
104 270
104 271
104 273
104 274
104 275
104 276
104 277
104 279
104 280
104 281
104 282
104 283
104 284
104 286
104 287
104 288
104 290
104 291
104 292
104 293
104 295
104 296
104 298
104 299
104 300
104 301
104 304
104 305
104 306
104 308
104 309
104 310
104 313
104 315
104 316
104 322
104 324
104 325
104 328
104 330
105 106
105 107
105 111
105 112
105 113
105 116
105 117
105 118
105 120
105 121
105 122
105 124
105 125
105 126
105 128
105 129
105 131
105 133
105 135
105 136
105 138
105 139
105 140
105 142
105 143
105 144
105 145
105 147
105 148
105 149
105 150
105 152
105 153
105 156
105 157
105 158
105 159
105 161
105 162
105 163
105 164
105 165
105 167
105 168
105 169
105 171
105 172
105 173
105 174
105 175
105 176
105 177
105 179
105 180
105 181
105 182
105 183
105 184
105 186
105 187
105 190
105 195
105 196
105 197
105 199
105 200
105 201
105 202
105 204
105 205
105 206
105 207
105 209
105 210
105 211
105 213
105 214
105 215
105 217
105 218
105 220
105 223
105 224
105 225
105 227
105 228
105 230
105 231
105 236
105 239
105 242
105 243
105 245
105 246
105 248
105 249
105 250
105 251
105 252
105 253
105 254
105 256
105 257
105 258
105 261
105 262
105 264
105 267
105 268
105 270
105 271
105 272
105 275
105 276
105 277
105 278
105 279
105 281
105 282
105 285
105 288
105 289
105 292
105 293
105 295
105 296
105 297
105 300
105 301
105 304
105 306
105 307
105 310
105 313
105 314
105 322
105 323
105 325
105 328
105 330
106 107
106 109
106 110
106 112
106 113
106 115
106 117
106 118
106 119
106 121
106 122
106 123
106 126
106 127
106 129
106 130
106 133
106 136
106 137
106 138
106 139
106 140
106 141
106 142
106 144
106 145
106 146
106 147
106 148
106 149
106 150
106 151
106 153
106 156
106 157
106 158
106 159
106 160
106 162
106 164
106 165
106 166
106 167
106 168
106 169
106 170
106 171
106 173
106 174
106 175
106 176
106 177
106 178
106 179
106 181
106 183
106 184
106 185
106 187
106 190
106 195
106 196
106 197
106 198
106 199
106 201
106 202
106 203
106 206
106 207
106 208
106 211
106 212
106 215
106 216
106 220
106 224
106 225
106 226
106 230
106 231
106 236
106 239
106 242
106 243
106 245
106 246
106 247
106 248
106 250
106 252
106 253
106 255
106 257
106 258
106 259
106 260
106 262
106 264
106 267
106 268
106 270
106 271
106 272
106 273
106 274
106 276
106 277
106 278
106 280
106 282
106 285
106 288
106 289
106 292
106 293
106 295
106 296
106 297
106 300
106 301
106 304
106 306
106 307
106 310
106 313
106 314
106 322
106 323
106 325
106 328
106 330
107 109
107 110
107 111
107 113
107 115
107 116
107 118
107 119
107 120
107 122
107 123
107 126
107 127
107 129
107 130
107 133
107 135
107 136
107 137
107 139
107 140
107 141
107 143
107 144
107 145
107 146
107 148
107 149
107 150
107 151
107 152
107 156
107 157
107 158
107 159
107 160
107 161
107 164
107 165
107 166
107 167
107 168
107 169
107 170
107 171
107 172
107 174
107 175
107 176
107 177
107 178
107 179
107 180
107 182
107 183
107 184
107 185
107 186
107 190
107 195
107 196
107 197
107 198
107 199
107 200
107 202
107 204
107 206
107 207
107 208
107 211
107 212
107 215
107 216
107 220
107 224
107 225
107 226
107 230
107 231
107 236
107 239
107 242
107 243
107 245
107 246
107 247
107 248
107 249
107 251
107 252
107 253
107 254
107 255
107 256
107 258
107 259
107 260
107 261
107 264
107 266
107 267
107 268
107 269
107 271
107 272
107 273
107 274
107 275
107 277
107 278
107 279
107 280
107 281
107 285
107 287
107 288
107 289
107 290
107 291
107 293
107 294
107 296
107 297
107 298
107 299
107 301
107 302
107 303
107 306
107 307
107 310
107 313
107 314
107 322
107 323
107 325
107 328
107 330
108 113
108 122
108 123
108 128
108 129
108 130
108 132
108 133
108 154
108 188
108 189
108 190
108 192
108 193
108 214
108 215
108 216
108 218
108 219
108 220
108 222
108 223
108 224
108 225
108 226
108 228
108 229
108 230
108 231
108 233
108 234
108 235
108 236
108 238
108 317
108 318
108 320
109 110
109 111
109 112
109 115
109 116
109 117
109 119
109 120
109 121
109 138
109 142
109 147
109 152
109 153
109 159
109 161
109 162
109 172
109 173
109 177
109 180
109 181
109 187
109 197
109 200
109 201
109 203
109 204
109 240
109 246
109 249
109 250
109 254
109 257
109 259
109 261
109 262
109 270
109 273
109 275
109 276
109 279
109 282
109 290
109 292
109 294
109 295
109 298
109 300
109 302
109 304
109 308
109 311
109 315
109 321
110 111
110 112
110 116
110 117
110 118
110 120
110 121
110 138
110 142
110 147
110 152
110 153
110 156
110 157
110 158
110 160
110 161
110 162
110 172
110 173
110 174
110 175
110 176
110 178
110 179
110 180
110 181
110 187
110 195
110 196
110 198
110 199
110 200
110 201
110 202
110 204
110 239
110 245
110 247
110 248
110 249
110 250
110 251
110 252
110 253
110 255
110 256
110 257
110 258
110 260
110 261
110 262
110 270
110 271
110 272
110 274
110 275
110 276
110 277
110 278
110 280
110 281
110 282
110 287
110 288
110 289
110 291
110 292
110 293
110 295
110 296
110 297
110 299
110 300
110 301
110 303
110 304
110 305
110 306
110 307
110 309
110 310
110 312
110 313
110 314
110 316
111 112
111 115
111 117
111 118
111 119
111 121
111 138
111 142
111 147
111 148
111 149
111 150
111 151
111 153
111 156
111 157
111 158
111 159
111 160
111 162
111 167
111 168
111 169
111 170
111 171
111 173
111 174
111 175
111 176
111 177
111 178
111 179
111 181
111 187
111 195
111 196
111 197
111 198
111 199
111 201
111 202
111 203
111 240
111 245
111 246
111 247
111 248
111 250
111 254
111 257
111 258
111 259
111 260
111 262
111 270
111 271
111 272
111 273
111 274
111 276
111 279
111 282
111 290
111 292
111 294
111 295
111 298
111 300
111 302
111 304
111 308
111 311
111 315
111 321
112 115
112 116
112 118
112 119
112 120
112 135
112 136
112 137
112 139
112 140
112 141
112 143
112 144
112 145
112 146
112 148
112 149
112 150
112 151
112 152
112 156
112 157
112 158
112 159
112 160
112 161
112 167
112 168
112 169
112 170
112 171
112 172
112 174
112 175
112 176
112 177
112 178
112 179
112 180
112 182
112 183
112 184
112 185
112 186
112 195
112 196
112 197
112 198
112 199
112 200
112 203
112 204
112 240
112 245
112 246
112 247
112 248
112 249
112 251
112 252
112 253
112 254
112 255
112 256
112 258
112 259
112 260
112 261
112 266
112 267
112 268
112 269
112 271
112 272
112 273
112 274
112 275
112 277
112 278
112 279
112 280
112 281
112 287
112 288
112 289
112 290
112 291
112 293
112 294
112 296
112 297
112 298
112 299
112 301
112 302
112 303
112 308
112 311
112 315
112 321
113 114
113 123
113 124
113 125
113 127
113 128
113 130
113 131
113 132
113 134
113 135
113 137
113 138
113 139
113 141
113 142
113 143
113 144
113 146
113 147
113 148
113 149
113 151
113 152
113 153
113 155
113 156
113 157
113 159
113 160
113 161
113 162
113 163
113 164
113 166
113 167
113 168
113 170
113 171
113 172
113 173
113 174
113 175
113 177
113 178
113 179
113 180
113 181
113 182
113 183
113 185
113 186
113 187
113 188
113 189
113 191
113 194
113 195
113 197
113 198
113 199
113 200
113 201
113 205
113 206
113 208
113 209
113 210
113 212
113 213
113 214
113 216
113 217
113 218
113 219
113 221
113 222
113 223
113 224
113 226
113 227
113 228
113 229
113 230
113 232
113 233
113 234
113 235
113 237
113 238
113 241
113 242
113 244
113 251
113 252
113 254
113 255
113 256
113 257
113 263
113 265
113 266
113 267
113 269
113 270
113 271
113 273
113 274
113 275
113 276
113 277
113 279
113 280
113 281
113 282
113 283
113 284
113 286
113 287
113 288
113 290
113 291
113 292
113 296
113 298
113 299
113 300
113 305
113 306
113 308
113 309
113 313
113 315
113 316
113 319
113 322
113 324
114 122
114 123
114 126
114 128
114 129
114 130
114 132
114 133
114 136
114 140
114 145
114 150
114 154
114 158
114 165
114 169
114 176
114 184
114 188
114 189
114 190
114 192
114 193
114 196
114 207
114 211
114 214
114 215
114 216
114 218
114 219
114 220
114 222
114 223
114 224
114 225
114 226
114 228
114 229
114 230
114 231
114 233
114 234
114 235
114 236
114 238
114 243
114 253
114 264
114 268
114 272
114 278
114 285
114 289
114 297
114 307
114 314
114 317
114 318
114 320
114 323
115 116
115 117
115 118
115 120
115 121
115 138
115 142
115 147
115 152
115 153
115 156
115 157
115 158
115 160
115 161
115 162
115 172
115 173
115 174
115 175
115 176
115 178
115 179
115 180
115 181
115 187
115 195
115 196
115 198
115 199
115 200
115 201
115 202
115 204
115 239
115 245
115 247
115 248
115 249
115 250
115 251
115 252
115 253
115 255
115 256
115 257
115 258
115 260
115 261
115 262
115 270
115 271
115 272
115 274
115 275
115 276
115 277
115 278
115 280
115 281
115 282
115 287
115 288
115 289
115 291
115 292
115 293
115 295
115 296
115 297
115 299
115 300
115 301
115 303
115 304
115 305
115 306
115 307
115 309
115 310
115 312
115 313
115 314
115 316
116 117
116 118
116 119
116 121
116 138
116 142
116 147
116 148
116 149
116 150
116 151
116 153
116 156
116 157
116 158
116 159
116 160
116 162
116 167
116 168
116 169
116 170
116 171
116 173
116 174
116 175
116 176
116 177
116 178
116 179
116 181
116 187
116 195
116 196
116 197
116 198
116 199
116 201
116 202
116 203
116 240
116 245
116 246
116 247
116 248
116 250
116 254
116 257
116 258
116 259
116 260
116 262
116 270
116 271
116 272
116 273
116 274
116 276
116 279
116 282
116 290
116 292
116 294
116 295
116 298
116 300
116 302
116 304
116 308
116 311
116 315
116 321
117 118
117 119
117 120
117 135
117 136
117 137
117 139
117 140
117 141
117 143
117 144
117 145
117 146
117 148
117 149
117 150
117 151
117 152
117 156
117 157
117 158
117 159
117 160
117 161
117 167
117 168
117 169
117 170
117 171
117 172
117 174
117 175
117 176
117 177
117 178
117 179
117 180
117 182
117 183
117 184
117 185
117 186
117 195
117 196
117 197
117 198
117 199
117 200
117 203
117 204
117 240
117 245
117 246
117 247
117 248
117 249
117 251
117 252
117 253
117 254
117 255
117 256
117 258
117 259
117 260
117 261
117 266
117 267
117 268
117 269
117 271
117 272
117 273
117 274
117 275
117 277
117 278
117 279
117 280
117 281
117 287
117 288
117 289
117 290
117 291
117 293
117 294
117 296
117 297
117 298
117 299
117 301
117 302
117 303
117 308
117 311
117 315
117 321
118 119
118 120
118 121
118 138
118 140
118 141
118 142
118 143
118 145
118 146
118 147
118 148
118 150
118 151
118 152
118 153
118 156
118 158
118 159
118 160
118 161
118 162
118 163
118 165
118 166
118 167
118 169
118 170
118 171
118 172
118 173
118 174
118 176
118 177
118 178
118 179
118 180
118 181
118 182
118 184
118 185
118 186
118 187
118 196
118 197
118 198
118 199
118 200
118 201
118 203
118 204
118 205
118 207
118 208
118 209
118 223
118 225
118 226
118 227
118 228
118 229
118 231
118 232
118 233
118 240
118 241
118 243
118 244
118 246
118 247
118 248
118 249
118 250
118 251
118 253
118 254
118 255
118 256
118 257
118 259
118 260
118 261
118 262
118 266
118 268
118 269
118 270
118 272
118 273
118 274
118 275
118 276
118 278
118 279
118 280
118 281
118 282
118 287
118 289
118 290
118 291
118 292
118 294
118 295
118 297
118 298
118 299
118 300
118 302
118 303
118 304
118 305
118 307
118 308
118 309
118 311
118 312
118 314
118 315
118 316
118 321
118 323
118 324
118 326
118 327
118 329
119 120
119 121
119 138
119 139
119 142
119 144
119 147
119 149
119 152
119 153
119 156
119 157
119 158
119 160
119 161
119 162
119 164
119 168
119 172
119 173
119 174
119 175
119 176
119 178
119 179
119 180
119 181
119 183
119 187
119 195
119 196
119 198
119 199
119 200
119 201
119 202
119 204
119 206
119 224
119 230
119 239
119 242
119 245
119 247
119 248
119 249
119 250
119 251
119 252
119 253
119 255
119 256
119 257
119 258
119 260
119 261
119 262
119 267
119 270
119 271
119 272
119 274
119 275
119 276
119 277
119 278
119 280
119 281
119 282
119 287
119 288
119 289
119 291
119 292
119 293
119 295
119 296
119 297
119 299
119 300
119 301
119 303
119 304
119 305
119 306
119 307
119 309
119 310
119 312
119 313
119 314
119 316
119 322
119 325
119 328
119 330
120 121
120 138
120 139
120 142
120 144
120 147
120 148
120 149
120 150
120 151
120 153
120 156
120 157
120 158
120 159
120 160
120 162
120 164
120 167
120 168
120 169
120 170
120 171
120 173
120 174
120 175
120 176
120 177
120 178
120 179
120 181
120 183
120 187
120 195
120 196
120 197
120 198
120 199
120 201
120 202
120 203
120 206
120 224
120 230
120 239
120 240
120 242
120 245
120 246
120 247
120 248
120 250
120 252
120 254
120 257
120 258
120 259
120 260
120 262
120 267
120 270
120 271
120 272
120 273
120 274
120 276
120 277
120 279
120 282
120 288
120 290
120 292
120 293
120 294
120 295
120 296
120 298
120 300
120 301
120 302
120 304
120 306
120 308
120 310
120 311
120 313
120 315
120 321
120 322
120 325
120 328
120 330
121 135
121 136
121 137
121 139
121 140
121 141
121 143
121 144
121 145
121 146
121 148
121 149
121 150
121 151
121 152
121 156
121 157
121 158
121 159
121 160
121 161
121 164
121 167
121 168
121 169
121 170
121 171
121 172
121 174
121 175
121 176
121 177
121 178
121 179
121 180
121 182
121 183
121 184
121 185
121 186
121 195
121 196
121 197
121 198
121 199
121 200
121 202
121 203
121 204
121 206
121 224
121 230
121 239
121 240
121 242
121 245
121 246
121 247
121 248
121 249
121 251
121 252
121 253
121 254
121 255
121 256
121 258
121 259
121 260
121 261
121 266
121 267
121 268
121 269
121 271
121 272
121 273
121 274
121 275
121 277
121 278
121 279
121 280
121 281
121 287
121 288
121 289
121 290
121 291
121 293
121 294
121 296
121 297
121 298
121 299
121 301
121 302
121 303
121 306
121 308
121 310
121 311
121 313
121 315
121 321
121 322
121 325
121 328
121 330
122 123
122 124
122 125
122 127
122 128
122 130
122 131
122 132
122 134
122 135
122 137
122 138
122 139
122 141
122 142
122 143
122 144
122 146
122 147
122 148
122 149
122 151
122 152
122 153
122 155
122 156
122 157
122 159
122 160
122 161
122 162
122 163
122 164
122 166
122 167
122 168
122 170
122 171
122 172
122 173
122 174
122 175
122 177
122 178
122 179
122 180
122 181
122 182
122 183
122 185
122 186
122 187
122 188
122 189
122 191
122 194
122 195
122 197
122 198
122 199
122 200
122 201
122 205
122 206
122 208
122 209
122 210
122 212
122 213
122 214
122 216
122 217
122 218
122 219
122 221
122 222
122 223
122 224
122 226
122 227
122 228
122 229
122 230
122 232
122 233
122 234
122 235
122 237
122 238
122 241
122 242
122 244
122 247
122 251
122 252
122 254
122 255
122 256
122 257
122 263
122 265
122 266
122 267
122 269
122 270
122 271
122 273
122 274
122 275
122 276
122 277
122 279
122 280
122 281
122 282
122 283
122 284
122 286
122 287
122 288
122 290
122 291
122 292
122 296
122 298
122 299
122 300
122 305
122 306
122 308
122 309
122 313
122 315
122 316
122 319
122 322
122 324
123 124
123 125
123 126
123 128
123 129
123 131
123 133
123 134
123 135
123 136
123 138
123 139
123 140
123 142
123 143
123 144
123 145
123 147
123 148
123 149
123 150
123 152
123 153
123 155
123 156
123 157
123 158
123 159
123 161
123 162
123 163
123 164
123 165
123 167
123 168
123 169
123 171
123 172
123 173
123 174
123 175
123 176
123 177
123 179
123 180
123 181
123 182
123 183
123 184
123 186
123 187
123 190
123 191
123 194
123 195
123 196
123 197
123 199
123 200
123 201
123 205
123 206
123 207
123 209
123 210
123 211
123 213
123 214
123 215
123 217
123 218
123 220
123 221
123 223
123 224
123 225
123 227
123 228
123 231
123 232
123 236
123 237
123 243
123 245
123 246
123 248
123 249
123 250
123 251
123 252
123 253
123 254
123 256
123 257
123 264
123 268
123 272
123 277
123 278
123 279
123 281
123 282
123 285
123 289
123 297
123 307
123 314
123 319
123 323
124 126
124 127
124 128
124 129
124 130
124 132
124 133
124 136
124 137
124 140
124 141
124 145
124 146
124 150
124 151
124 154
124 158
124 160
124 165
124 166
124 169
124 170
124 176
124 178
124 184
124 185
124 188
124 189
124 190
124 192
124 193
124 196
124 198
124 207
124 208
124 211
124 212
124 214
124 215
124 216
124 218
124 219
124 220
124 222
124 223
124 224
124 225
124 226
124 228
124 229
124 230
124 231
124 233
124 234
124 235
124 236
124 238
124 243
124 247
124 253
124 255
124 264
124 268
124 272
124 278
124 280
124 285
124 289
124 297
124 307
124 314
124 317
124 318
124 320
124 323
125 126
125 127
125 129
125 130
125 131
125 133
125 134
125 136
125 137
125 138
125 140
125 141
125 144
125 145
125 146
125 147
125 149
125 150
125 151
125 152
125 153
125 155
125 157
125 158
125 159
125 160
125 161
125 162
125 164
125 165
125 166
125 168
125 169
125 170
125 171
125 172
125 173
125 175
125 176
125 177
125 178
125 179
125 180
125 181
125 183
125 184
125 185
125 186
125 187
125 188
125 190
125 191
125 192
125 194
125 196
125 198
125 206
125 207
125 208
125 209
125 211
125 212
125 213
125 215
125 216
125 217
125 218
125 220
125 221
125 222
125 224
125 225
125 226
125 227
125 228
125 230
125 231
125 232
125 233
125 234
125 236
125 237
125 238
125 242
125 243
125 244
125 247
125 252
125 253
125 254
125 255
125 256
125 257
125 264
125 265
125 267
125 268
125 269
125 270
125 272
125 278
125 280
125 283
125 285
125 286
125 288
125 289
125 290
125 291
125 292
125 297
125 306
125 307
125 308
125 309
125 314
125 317
125 319
125 320
125 323
125 328
125 329
125 331
125 333
125 335
126 127
126 128
126 130
126 131
126 132
126 134
126 135
126 137
126 138
126 139
126 141
126 142
126 143
126 144
126 146
126 147
126 148
126 149
126 151
126 152
126 153
126 154
126 156
126 157
126 159
126 160
126 161
126 162
126 163
126 164
126 166
126 167
126 168
126 170
126 171
126 172
126 173
126 174
126 175
126 177
126 178
126 179
126 180
126 181
126 182
126 183
126 185
126 186
126 187
126 188
126 189
126 191
126 193
126 195
126 197
126 198
126 199
126 200
126 201
126 205
126 206
126 208
126 209
126 210
126 212
126 213
126 214
126 216
126 217
126 218
126 219
126 221
126 222
126 223
126 224
126 226
126 227
126 228
126 229
126 230
126 232
126 233
126 234
126 235
126 237
126 238
126 241
126 242
126 244
126 247
126 251
126 252
126 254
126 255
126 256
126 257
126 263
126 265
126 266
126 267
126 269
126 270
126 271
126 273
126 274
126 275
126 276
126 277
126 279
126 280
126 281
126 282
126 283
126 284
126 286
126 287
126 288
126 290
126 291
126 292
126 296
126 298
126 299
126 300
126 305
126 306
126 308
126 309
126 313
126 315
126 316
126 318
126 322
126 324
126 327
126 332
126 334
127 128
127 129
127 131
127 132
127 133
127 135
127 136
127 138
127 139
127 140
127 142
127 143
127 144
127 145
127 147
127 148
127 149
127 150
127 152
127 153
127 154
127 156
127 157
127 158
127 159
127 161
127 162
127 163
127 164
127 165
127 167
127 168
127 169
127 171
127 172
127 173
127 174
127 175
127 176
127 177
127 179
127 180
127 181
127 182
127 183
127 184
127 186
127 187
127 189
127 190
127 193
127 195
127 196
127 197
127 199
127 200
127 201
127 205
127 206
127 207
127 209
127 210
127 211
127 213
127 214
127 215
127 217
127 218
127 219
127 220
127 223
127 224
127 225
127 227
127 228
127 229
127 231
127 235
127 236
127 241
127 243
127 245
127 246
127 248
127 249
127 250
127 251
127 252
127 253
127 254
127 256
127 257
127 263
127 264
127 266
127 268
127 272
127 277
127 278
127 279
127 281
127 282
127 284
127 285
127 287
127 289
127 297
127 305
127 307
127 314
127 318
127 323
127 327
127 332
127 334
128 129
128 130
128 131
128 133
128 134
128 136
128 137
128 138
128 140
128 141
128 144
128 145
128 146
128 147
128 149
128 150
128 151
128 152
128 153
128 155
128 157
128 158
128 159
128 160
128 161
128 162
128 164
128 165
128 166
128 168
128 169
128 170
128 171
128 172
128 173
128 175
128 176
128 177
128 178
128 179
128 180
128 181
128 183
128 184
128 185
128 186
128 187
128 188
128 190
128 191
128 192
128 194
128 196
128 198
128 206
128 207
128 208
128 209
128 211
128 212
128 213
128 215
128 216
128 217
128 218
128 220
128 221
128 222
128 224
128 225
128 226
128 227
128 228
128 230
128 231
128 232
128 233
128 234
128 236
128 237
128 238
128 242
128 243
128 244
128 247
128 252
128 253
128 254
128 255
128 256
128 257
128 264
128 265
128 267
128 268
128 269
128 270
128 272
128 278
128 280
128 283
128 285
128 286
128 288
128 289
128 290
128 291
128 292
128 297
128 306
128 307
128 308
128 309
128 314
128 317
128 319
128 320
128 323
128 328
128 329
128 331
128 333
128 335
129 130
129 131
129 132
129 134
129 135
129 137
129 138
129 139
129 141
129 142
129 143
129 144
129 146
129 147
129 148
129 149
129 151
129 152
129 153
129 154
129 155
129 156
129 157
129 159
129 160
129 161
129 162
129 163
129 164
129 166
129 167
129 168
129 170
129 171
129 172
129 173
129 174
129 175
129 177
129 178
129 179
129 180
129 181
129 182
129 183
129 185
129 186
129 187
129 188
129 189
129 191
129 193
129 194
129 195
129 197
129 198
129 199
129 200
129 201
129 205
129 206
129 208
129 209
129 210
129 212
129 213
129 214
129 216
129 217
129 218
129 219
129 221
129 222
129 223
129 224
129 226
129 227
129 228
129 229
129 230
129 232
129 233
129 234
129 235
129 237
129 238
129 241
129 242
129 244
129 247
129 251
129 252
129 254
129 255
129 256
129 257
129 263
129 265
129 266
129 267
129 269
129 270
129 271
129 273
129 274
129 275
129 276
129 277
129 279
129 280
129 281
129 282
129 283
129 284
129 286
129 287
129 288
129 290
129 291
129 292
129 296
129 298
129 299
129 300
129 305
129 306
129 308
129 309
129 313
129 315
129 316
129 318
129 319
129 322
129 324
129 327
129 332
129 334
130 131
130 132
130 133
130 134
130 135
130 136
130 138
130 139
130 140
130 142
130 143
130 144
130 145
130 147
130 148
130 149
130 150
130 152
130 153
130 154
130 155
130 156
130 157
130 158
130 159
130 161
130 162
130 163
130 164
130 165
130 167
130 168
130 169
130 171
130 172
130 173
130 174
130 175
130 176
130 177
130 179
130 180
130 181
130 182
130 183
130 184
130 186
130 187
130 189
130 190
130 191
130 193
130 194
130 195
130 196
130 197
130 199
130 200
130 201
130 205
130 206
130 207
130 209
130 210
130 211
130 213
130 214
130 215
130 217
130 218
130 219
130 220
130 221
130 223
130 224
130 225
130 227
130 228
130 229
130 231
130 232
130 235
130 236
130 237
130 241
130 243
130 245
130 246
130 248
130 249
130 250
130 251
130 252
130 253
130 254
130 256
130 257
130 263
130 264
130 266
130 268
130 272
130 277
130 278
130 279
130 281
130 282
130 284
130 285
130 287
130 289
130 297
130 305
130 307
130 314
130 318
130 319
130 323
130 327
130 332
130 334
131 132
131 133
131 135
131 136
131 137
131 140
131 141
131 143
131 145
131 146
131 148
131 150
131 151
131 154
131 156
131 158
131 160
131 163
131 165
131 166
131 167
131 169
131 170
131 174
131 176
131 178
131 182
131 184
131 185
131 188
131 189
131 190
131 192
131 193
131 196
131 198
131 205
131 207
131 208
131 210
131 211
131 212
131 214
131 215
131 216
131 218
131 219
131 220
131 222
131 223
131 224
131 225
131 226
131 228
131 229
131 230
131 231
131 233
131 234
131 235
131 236
131 238
131 241
131 243
131 247
131 251
131 253
131 255
131 263
131 264
131 266
131 268
131 272
131 278
131 280
131 284
131 285
131 287
131 289
131 297
131 305
131 307
131 314
131 317
131 318
131 320
131 323
131 327
131 332
131 334
132 133
132 134
132 136
132 137
132 138
132 140
132 144
132 145
132 146
132 147
132 149
132 150
132 151
132 152
132 153
132 155
132 157
132 158
132 159
132 160
132 161
132 162
132 164
132 165
132 166
132 168
132 169
132 170
132 171
132 172
132 173
132 175
132 176
132 177
132 178
132 179
132 180
132 181
132 183
132 184
132 185
132 186
132 187
132 188
132 190
132 191
132 192
132 194
132 196
132 206
132 207
132 208
132 209
132 211
132 212
132 213
132 215
132 216
132 217
132 218
132 220
132 221
132 222
132 224
132 225
132 226
132 227
132 228
132 230
132 231
132 232
132 233
132 234
132 236
132 237
132 238
132 242
132 243
132 244
132 252
132 253
132 254
132 255
132 256
132 257
132 264
132 265
132 267
132 268
132 269
132 270
132 272
132 278
132 283
132 285
132 286
132 288
132 289
132 290
132 291
132 292
132 297
132 306
132 307
132 308
132 309
132 314
132 317
132 319
132 320
132 323
132 328
132 329
132 331
132 333
132 335
133 134
133 135
133 137
133 138
133 139
133 141
133 142
133 143
133 144
133 146
133 147
133 148
133 149
133 151
133 152
133 153
133 154
133 155
133 156
133 157
133 159
133 160
133 161
133 162
133 163
133 164
133 166
133 167
133 168
133 170
133 171
133 172
133 173
133 174
133 175
133 177
133 178
133 179
133 180
133 181
133 182
133 183
133 185
133 186
133 187
133 188
133 189
133 191
133 193
133 194
133 195
133 197
133 198
133 199
133 200
133 201
133 205
133 206
133 208
133 209
133 210
133 212
133 213
133 214
133 216
133 217
133 218
133 219
133 221
133 222
133 223
133 224
133 226
133 227
133 228
133 229
133 230
133 232
133 233
133 234
133 235
133 237
133 238
133 241
133 242
133 244
133 251
133 252
133 254
133 255
133 256
133 257
133 263
133 265
133 266
133 267
133 269
133 270
133 271
133 273
133 274
133 275
133 276
133 277
133 279
133 280
133 281
133 282
133 283
133 284
133 286
133 287
133 288
133 290
133 291
133 292
133 296
133 298
133 299
133 300
133 305
133 306
133 308
133 309
133 313
133 315
133 316
133 318
133 319
133 322
133 324
133 327
133 332
133 334
134 135
134 136
134 140
134 143
134 145
134 148
134 150
134 154
134 156
134 158
134 163
134 165
134 167
134 169
134 174
134 176
134 182
134 184
134 188
134 189
134 190
134 192
134 193
134 196
134 205
134 207
134 210
134 211
134 214
134 215
134 216
134 218
134 219
134 220
134 222
134 223
134 224
134 225
134 226
134 228
134 229
134 230
134 231
134 233
134 234
134 235
134 236
134 238
134 241
134 243
134 251
134 253
134 263
134 264
134 266
134 268
134 272
134 278
134 284
134 285
134 287
134 289
134 297
134 305
134 307
134 314
134 317
134 318
134 320
134 323
134 327
134 332
134 334
135 136
135 137
135 138
135 140
135 141
135 142
135 144
135 145
135 146
135 147
135 149
135 150
135 151
135 152
135 153
135 155
135 157
135 158
135 159
135 160
135 161
135 162
135 164
135 165
135 166
135 168
135 169
135 170
135 171
135 172
135 173
135 175
135 176
135 177
135 178
135 179
135 180
135 181
135 183
135 184
135 185
135 186
135 187
135 188
135 190
135 191
135 192
135 194
135 196
135 198
135 201
135 206
135 207
135 208
135 209
135 211
135 212
135 213
135 215
135 216
135 217
135 218
135 220
135 221
135 222
135 224
135 225
135 226
135 227
135 228
135 230
135 231
135 232
135 233
135 234
135 236
135 237
135 238
135 242
135 243
135 244
135 247
135 250
135 252
135 253
135 254
135 255
135 256
135 257
135 262
135 264
135 265
135 267
135 268
135 269
135 270
135 272
135 276
135 278
135 280
135 282
135 283
135 285
135 286
135 288
135 289
135 290
135 291
135 292
135 295
135 297
135 300
135 304
135 306
135 307
135 308
135 309
135 314
135 317
135 319
135 320
135 323
135 328
135 329
135 331
135 333
135 335
136 137
136 138
136 139
136 141
136 142
136 143
136 144
136 146
136 147
136 148
136 149
136 151
136 152
136 153
136 154
136 156
136 157
136 159
136 160
136 161
136 162
136 163
136 164
136 166
136 167
136 168
136 170
136 171
136 172
136 173
136 174
136 175
136 177
136 178
136 179
136 180
136 181
136 182
136 183
136 185
136 186
136 187
136 188
136 189
136 191
136 193
136 195
136 197
136 198
136 199
136 200
136 201
136 205
136 206
136 208
136 209
136 210
136 212
136 213
136 214
136 216
136 217
136 218
136 219
136 221
136 222
136 223
136 224
136 226
136 227
136 228
136 229
136 230
136 232
136 233
136 234
136 235
136 237
136 238
136 241
136 242
136 244
136 247
136 250
136 251
136 252
136 254
136 255
136 256
136 257
136 262
136 263
136 265
136 266
136 267
136 269
136 270
136 271
136 273
136 274
136 275
136 276
136 277
136 279
136 280
136 281
136 282
136 283
136 284
136 286
136 287
136 288
136 290
136 291
136 292
136 295
136 296
136 298
136 299
136 300
136 304
136 305
136 306
136 308
136 309
136 313
136 315
136 316
136 318
136 322
136 324
136 327
136 332
136 334
137 138
137 139
137 140
137 142
137 143
137 144
137 145
137 147
137 148
137 149
137 150
137 152
137 153
137 154
137 156
137 157
137 158
137 159
137 161
137 162
137 163
137 164
137 165
137 167
137 168
137 169
137 171
137 172
137 173
137 174
137 175
137 176
137 177
137 179
137 180
137 181
137 182
137 183
137 184
137 186
137 187
137 189
137 190
137 193
137 195
137 196
137 197
137 199
137 200
137 201
137 205
137 206
137 207
137 209
137 210
137 211
137 213
137 214
137 215
137 217
137 218
137 219
137 220
137 223
137 224
137 225
137 227
137 228
137 229
137 231
137 235
137 236
137 241
137 243
137 245
137 246
137 248
137 249
137 250
137 251
137 252
137 253
137 254
137 256
137 257
137 262
137 263
137 264
137 266
137 268
137 270
137 272
137 276
137 277
137 278
137 279
137 281
137 282
137 284
137 285
137 287
137 289
137 292
137 295
137 297
137 300
137 304
137 305
137 307
137 314
137 318
137 323
137 327
137 332
137 334
138 139
138 140
138 141
138 143
138 144
138 145
138 146
138 148
138 149
138 150
138 151
138 152
138 154
138 156
138 157
138 158
138 159
138 160
138 161
138 163
138 165
138 166
138 167
138 168
138 169
138 170
138 171
138 172
138 174
138 175
138 176
138 177
138 178
138 179
138 180
138 182
138 183
138 184
138 185
138 186
138 189
138 190
138 193
138 195
138 196
138 197
138 198
138 199
138 200
138 205
138 207
138 208
138 210
138 211
138 212
138 214
138 215
138 216
138 219
138 220
138 223
138 225
138 226
138 229
138 231
138 235
138 236
138 241
138 243
138 245
138 246
138 247
138 248
138 249
138 251
138 252
138 253
138 254
138 255
138 256
138 258
138 259
138 260
138 261
138 263
138 264
138 266
138 267
138 268
138 269
138 271
138 272
138 273
138 274
138 275
138 277
138 278
138 279
138 280
138 281
138 284
138 285
138 287
138 288
138 289
138 290
138 291
138 293
138 294
138 296
138 297
138 298
138 299
138 301
138 302
138 303
138 305
138 307
138 314
138 318
138 323
138 327
138 332
138 334
139 140
139 141
139 142
139 143
139 145
139 146
139 147
139 148
139 150
139 151
139 152
139 153
139 156
139 158
139 159
139 160
139 161
139 162
139 163
139 165
139 166
139 167
139 169
139 170
139 171
139 172
139 173
139 174
139 176
139 177
139 178
139 179
139 180
139 181
139 182
139 184
139 185
139 186
139 187
139 190
139 196
139 197
139 198
139 199
139 200
139 201
139 203
139 204
139 205
139 207
139 208
139 209
139 211
139 212
139 215
139 216
139 220
139 223
139 225
139 226
139 227
139 228
139 229
139 231
139 232
139 233
139 236
139 240
139 241
139 243
139 244
139 246
139 247
139 248
139 249
139 250
139 251
139 253
139 254
139 255
139 256
139 257
139 259
139 260
139 261
139 262
139 264
139 266
139 268
139 269
139 270
139 272
139 273
139 274
139 275
139 276
139 278
139 279
139 280
139 281
139 282
139 285
139 287
139 289
139 290
139 291
139 292
139 294
139 295
139 297
139 298
139 299
139 300
139 302
139 303
139 304
139 305
139 307
139 308
139 309
139 311
139 312
139 314
139 315
139 316
139 323
139 324
139 326
139 327
139 329
140 141
140 142
140 143
140 144
140 146
140 147
140 148
140 149
140 151
140 152
140 153
140 156
140 157
140 159
140 160
140 161
140 162
140 163
140 164
140 166
140 167
140 168
140 170
140 171
140 172
140 173
140 174
140 175
140 177
140 178
140 179
140 180
140 181
140 182
140 183
140 185
140 186
140 187
140 188
140 189
140 191
140 195
140 197
140 198
140 199
140 200
140 201
140 202
140 205
140 206
140 208
140 209
140 210
140 212
140 213
140 214
140 216
140 217
140 218
140 219
140 221
140 222
140 223
140 224
140 226
140 227
140 228
140 229
140 230
140 232
140 233
140 234
140 235
140 237
140 238
140 239
140 241
140 242
140 244
140 245
140 247
140 250
140 251
140 252
140 254
140 255
140 256
140 257
140 258
140 262
140 263
140 265
140 266
140 267
140 269
140 270
140 271
140 273
140 274
140 275
140 276
140 277
140 279
140 280
140 281
140 282
140 283
140 284
140 286
140 287
140 288
140 290
140 291
140 292
140 293
140 295
140 296
140 298
140 299
140 300
140 301
140 304
140 305
140 306
140 308
140 309
140 310
140 313
140 315
140 316
140 322
140 324
140 325
140 328
140 330
141 142
141 143
141 144
141 145
141 147
141 148
141 149
141 150
141 152
141 153
141 156
141 157
141 158
141 159
141 161
141 162
141 163
141 164
141 165
141 167
141 168
141 169
141 171
141 172
141 173
141 174
141 175
141 176
141 177
141 179
141 180
141 181
141 182
141 183
141 184
141 186
141 187
141 190
141 195
141 196
141 197
141 199
141 200
141 201
141 202
141 205
141 206
141 207
141 209
141 210
141 211
141 213
141 214
141 215
141 217
141 218
141 220
141 223
141 224
141 225
141 227
141 228
141 230
141 231
141 236
141 239
141 242
141 243
141 245
141 246
141 248
141 249
141 250
141 251
141 252
141 253
141 254
141 256
141 257
141 258
141 262
141 264
141 267
141 268
141 270
141 271
141 272
141 276
141 277
141 278
141 279
141 281
141 282
141 285
141 288
141 289
141 292
141 293
141 295
141 296
141 297
141 300
141 301
141 304
141 306
141 307
141 310
141 313
141 314
141 322
141 323
141 325
141 328
141 330
142 143
142 144
142 145
142 146
142 148
142 149
142 150
142 151
142 152
142 156
142 157
142 158
142 159
142 160
142 161
142 164
142 165
142 166
142 167
142 168
142 169
142 170
142 171
142 172
142 174
142 175
142 176
142 177
142 178
142 179
142 180
142 182
142 183
142 184
142 185
142 186
142 190
142 195
142 196
142 197
142 198
142 199
142 200
142 202
142 206
142 207
142 208
142 211
142 212
142 215
142 216
142 220
142 224
142 225
142 226
142 230
142 231
142 236
142 239
142 242
142 243
142 245
142 246
142 247
142 248
142 249
142 251
142 252
142 253
142 254
142 255
142 256
142 258
142 259
142 260
142 261
142 264
142 266
142 267
142 268
142 269
142 271
142 272
142 273
142 274
142 275
142 277
142 278
142 279
142 280
142 281
142 285
142 287
142 288
142 289
142 290
142 291
142 293
142 294
142 296
142 297
142 298
142 299
142 301
142 302
142 303
142 306
142 307
142 310
142 313
142 314
142 322
142 323
142 325
142 328
142 330
143 144
143 145
143 146
143 147
143 149
143 150
143 151
143 152
143 153
143 155
143 157
143 158
143 159
143 160
143 161
143 162
143 164
143 165
143 166
143 168
143 169
143 170
143 171
143 172
143 173
143 175
143 176
143 177
143 178
143 179
143 180
143 181
143 183
143 184
143 185
143 186
143 187
143 188
143 190
143 191
143 192
143 194
143 195
143 196
143 198
143 201
143 202
143 206
143 207
143 208
143 209
143 211
143 212
143 213
143 215
143 216
143 217
143 218
143 220
143 221
143 222
143 224
143 225
143 226
143 227
143 228
143 230
143 231
143 232
143 233
143 234
143 236
143 237
143 238
143 239
143 242
143 243
143 244
143 245
143 247
143 250
143 252
143 253
143 254
143 255
143 256
143 257
143 258
143 262
143 264
143 265
143 267
143 268
143 269
143 270
143 271
143 272
143 276
143 277
143 278
143 280
143 282
143 283
143 285
143 286
143 288
143 289
143 290
143 291
143 292
143 293
143 295
143 296
143 297
143 300
143 301
143 304
143 306
143 307
143 308
143 309
143 310
143 313
143 314
143 317
143 319
143 320
143 322
143 323
143 325
143 328
143 329
143 330
143 331
143 333
143 335
144 145
144 146
144 147
144 148
144 150
144 151
144 152
144 153
144 154
144 156
144 158
144 159
144 160
144 161
144 162
144 163
144 165
144 166
144 167
144 169
144 170
144 171
144 172
144 173
144 174
144 176
144 177
144 178
144 179
144 180
144 181
144 182
144 184
144 185
144 186
144 187
144 189
144 190
144 193
144 196
144 197
144 198
144 199
144 200
144 201
144 203
144 204
144 205
144 207
144 208
144 209
144 210
144 211
144 212
144 214
144 215
144 216
144 219
144 220
144 223
144 225
144 226
144 227
144 228
144 229
144 231
144 232
144 233
144 235
144 236
144 240
144 241
144 243
144 244
144 246
144 247
144 248
144 249
144 250
144 251
144 253
144 254
144 255
144 256
144 257
144 259
144 260
144 261
144 262
144 263
144 264
144 266
144 268
144 269
144 270
144 272
144 273
144 274
144 275
144 276
144 278
144 279
144 280
144 281
144 282
144 284
144 285
144 287
144 289
144 290
144 291
144 292
144 294
144 295
144 297
144 298
144 299
144 300
144 302
144 303
144 304
144 305
144 307
144 308
144 309
144 311
144 312
144 314
144 315
144 316
144 318
144 323
144 324
144 326
144 327
144 329
144 332
144 334
145 146
145 147
145 148
145 149
145 151
145 152
145 153
145 154
145 156
145 157
145 159
145 160
145 161
145 162
145 163
145 164
145 166
145 167
145 168
145 170
145 171
145 172
145 173
145 174
145 175
145 177
145 178
145 179
145 180
145 181
145 182
145 183
145 185
145 186
145 187
145 188
145 189
145 191
145 193
145 195
145 197
145 198
145 199
145 200
145 201
145 202
145 205
145 206
145 208
145 209
145 210
145 212
145 213
145 214
145 216
145 217
145 218
145 219
145 221
145 222
145 223
145 224
145 226
145 227
145 228
145 229
145 230
145 232
145 233
145 234
145 235
145 237
145 238
145 239
145 241
145 242
145 244
145 245
145 247
145 250
145 251
145 252
145 254
145 255
145 256
145 257
145 258
145 262
145 263
145 265
145 266
145 267
145 269
145 270
145 271
145 273
145 274
145 275
145 276
145 277
145 279
145 280
145 281
145 282
145 283
145 284
145 286
145 287
145 288
145 290
145 291
145 292
145 293
145 295
145 296
145 298
145 299
145 300
145 301
145 304
145 305
145 306
145 308
145 309
145 310
145 313
145 315
145 316
145 318
145 322
145 324
145 325
145 327
145 328
145 330
145 332
145 334
146 147
146 148
146 149
146 150
146 152
146 153
146 154
146 156
146 157
146 158
146 159
146 161
146 162
146 163
146 164
146 165
146 167
146 168
146 169
146 171
146 172
146 173
146 174
146 175
146 176
146 177
146 179
146 180
146 181
146 182
146 183
146 184
146 186
146 187
146 189
146 190
146 193
146 195
146 196
146 197
146 199
146 200
146 201
146 202
146 205
146 206
146 207
146 209
146 210
146 211
146 213
146 214
146 215
146 217
146 218
146 219
146 220
146 223
146 224
146 225
146 227
146 228
146 229
146 230
146 231
146 235
146 236
146 239
146 241
146 242
146 243
146 245
146 246
146 248
146 249
146 250
146 251
146 252
146 253
146 254
146 256
146 257
146 258
146 262
146 263
146 264
146 266
146 267
146 268
146 270
146 271
146 272
146 276
146 277
146 278
146 279
146 281
146 282
146 284
146 285
146 287
146 288
146 289
146 292
146 293
146 295
146 296
146 297
146 300
146 301
146 304
146 305
146 306
146 307
146 310
146 313
146 314
146 318
146 322
146 323
146 325
146 327
146 328
146 330
146 332
146 334
147 148
147 149
147 150
147 151
147 152
147 154
147 156
147 157
147 158
147 159
147 160
147 161
147 163
147 164
147 165
147 166
147 167
147 168
147 169
147 170
147 171
147 172
147 174
147 175
147 176
147 177
147 178
147 179
147 180
147 182
147 183
147 184
147 185
147 186
147 189
147 190
147 193
147 195
147 196
147 197
147 198
147 199
147 200
147 202
147 205
147 206
147 207
147 208
147 210
147 211
147 212
147 214
147 215
147 216
147 219
147 220
147 223
147 224
147 225
147 226
147 229
147 230
147 231
147 235
147 236
147 239
147 241
147 242
147 243
147 245
147 246
147 247
147 248
147 249
147 251
147 252
147 253
147 254
147 255
147 256
147 258
147 259
147 260
147 261
147 263
147 264
147 266
147 267
147 268
147 269
147 271
147 272
147 273
147 274
147 275
147 277
147 278
147 279
147 280
147 281
147 284
147 285
147 287
147 288
147 289
147 290
147 291
147 293
147 294
147 296
147 297
147 298
147 299
147 301
147 302
147 303
147 305
147 306
147 307
147 310
147 313
147 314
147 318
147 322
147 323
147 325
147 327
147 328
147 330
147 332
147 334
148 149
148 150
148 151
148 152
148 153
148 155
148 157
148 158
148 159
148 160
148 161
148 162
148 164
148 165
148 166
148 168
148 169
148 170
148 171
148 172
148 173
148 175
148 176
148 177
148 178
148 179
148 180
148 181
148 183
148 184
148 185
148 186
148 187
148 188
148 190
148 191
148 192
148 194
148 195
148 196
148 198
148 200
148 201
148 202
148 204
148 206
148 207
148 208
148 209
148 211
148 212
148 213
148 215
148 216
148 217
148 218
148 220
148 221
148 222
148 224
148 225
148 226
148 227
148 228
148 230
148 231
148 232
148 233
148 234
148 236
148 237
148 238
148 239
148 242
148 243
148 244
148 245
148 247
148 249
148 250
148 252
148 253
148 254
148 255
148 256
148 257
148 258
148 261
148 262
148 264
148 265
148 267
148 268
148 269
148 270
148 271
148 272
148 275
148 276
148 277
148 278
148 280
148 282
148 283
148 285
148 286
148 288
148 289
148 290
148 291
148 292
148 293
148 295
148 296
148 297
148 300
148 301
148 304
148 306
148 307
148 308
148 309
148 310
148 313
148 314
148 317
148 319
148 320
148 322
148 323
148 325
148 328
148 329
148 330
148 331
148 333
148 335
149 150
149 151
149 152
149 153
149 154
149 156
149 158
149 159
149 160
149 161
149 162
149 163
149 165
149 166
149 167
149 169
149 170
149 171
149 172
149 173
149 174
149 176
149 177
149 178
149 179
149 180
149 181
149 182
149 184
149 185
149 186
149 187
149 189
149 190
149 193
149 196
149 197
149 198
149 199
149 200
149 201
149 203
149 204
149 205
149 207
149 208
149 209
149 210
149 211
149 212
149 214
149 215
149 216
149 219
149 220
149 223
149 225
149 226
149 227
149 228
149 229
149 231
149 232
149 233
149 235
149 236
149 240
149 241
149 243
149 244
149 246
149 247
149 248
149 249
149 250
149 251
149 253
149 254
149 255
149 256
149 257
149 259
149 260
149 261
149 262
149 263
149 264
149 266
149 268
149 269
149 270
149 272
149 273
149 274
149 275
149 276
149 278
149 279
149 280
149 281
149 282
149 284
149 285
149 287
149 289
149 290
149 291
149 292
149 294
149 295
149 297
149 298
149 299
149 300
149 302
149 303
149 304
149 305
149 307
149 308
149 309
149 311
149 312
149 314
149 315
149 316
149 318
149 323
149 324
149 326
149 327
149 329
149 332
149 334
150 151
150 152
150 153
150 154
150 156
150 157
150 159
150 160
150 161
150 162
150 163
150 164
150 166
150 167
150 168
150 170
150 171
150 172
150 173
150 174
150 175
150 177
150 178
150 179
150 180
150 181
150 182
150 183
150 185
150 186
150 187
150 188
150 189
150 191
150 193
150 195
150 197
150 198
150 199
150 200
150 201
150 202
150 204
150 205
150 206
150 208
150 209
150 210
150 212
150 213
150 214
150 216
150 217
150 218
150 219
150 221
150 222
150 223
150 224
150 226
150 227
150 228
150 229
150 230
150 232
150 233
150 234
150 235
150 237
150 238
150 239
150 241
150 242
150 244
150 245
150 247
150 249
150 250
150 251
150 252
150 254
150 255
150 256
150 257
150 258
150 261
150 262
150 263
150 265
150 266
150 267
150 269
150 270
150 271
150 273
150 274
150 275
150 276
150 277
150 279
150 280
150 281
150 282
150 283
150 284
150 286
150 287
150 288
150 290
150 291
150 292
150 293
150 295
150 296
150 298
150 299
150 300
150 301
150 304
150 305
150 306
150 308
150 309
150 310
150 313
150 315
150 316
150 318
150 322
150 324
150 325
150 327
150 328
150 330
150 332
150 334
151 152
151 153
151 154
151 156
151 157
151 158
151 159
151 161
151 162
151 163
151 164
151 165
151 167
151 168
151 169
151 171
151 172
151 173
151 174
151 175
151 176
151 177
151 179
151 180
151 181
151 182
151 183
151 184
151 186
151 187
151 189
151 190
151 193
151 195
151 196
151 197
151 199
151 200
151 201
151 202
151 204
151 205
151 206
151 207
151 209
151 210
151 211
151 213
151 214
151 215
151 217
151 218
151 219
151 220
151 223
151 224
151 225
151 227
151 228
151 229
151 230
151 231
151 235
151 236
151 239
151 241
151 242
151 243
151 245
151 246
151 248
151 249
151 250
151 251
151 252
151 253
151 254
151 256
151 257
151 258
151 261
151 262
151 263
151 264
151 266
151 267
151 268
151 270
151 271
151 272
151 275
151 276
151 277
151 278
151 279
151 281
151 282
151 284
151 285
151 287
151 288
151 289
151 292
151 293
151 295
151 296
151 297
151 300
151 301
151 304
151 305
151 306
151 307
151 310
151 313
151 314
151 318
151 322
151 323
151 325
151 327
151 328
151 330
151 332
151 334
152 153
152 154
152 156
152 157
152 158
152 159
152 160
152 162
152 163
152 164
152 165
152 166
152 167
152 168
152 169
152 170
152 171
152 173
152 174
152 175
152 176
152 177
152 178
152 179
152 181
152 182
152 183
152 184
152 185
152 187
152 189
152 190
152 193
152 195
152 196
152 197
152 198
152 199
152 201
152 202
152 203
152 205
152 206
152 207
152 208
152 210
152 211
152 212
152 214
152 215
152 216
152 219
152 220
152 223
152 224
152 225
152 226
152 229
152 230
152 231
152 235
152 236
152 239
152 241
152 242
152 243
152 245
152 246
152 247
152 248
152 250
152 251
152 252
152 253
152 255
152 257
152 258
152 259
152 260
152 262
152 263
152 264
152 266
152 267
152 268
152 270
152 271
152 272
152 273
152 274
152 276
152 277
152 278
152 280
152 282
152 284
152 285
152 287
152 288
152 289
152 292
152 293
152 295
152 296
152 297
152 300
152 301
152 304
152 305
152 306
152 307
152 310
152 313
152 314
152 318
152 322
152 323
152 325
152 327
152 328
152 330
152 332
152 334
153 154
153 156
153 157
153 158
153 159
153 160
153 161
153 163
153 164
153 165
153 166
153 167
153 168
153 169
153 170
153 171
153 172
153 174
153 175
153 176
153 177
153 178
153 179
153 180
153 182
153 183
153 184
153 185
153 186
153 189
153 190
153 193
153 195
153 196
153 197
153 198
153 199
153 200
153 202
153 204
153 205
153 206
153 207
153 208
153 210
153 211
153 212
153 214
153 215
153 216
153 219
153 220
153 223
153 224
153 225
153 226
153 229
153 230
153 231
153 235
153 236
153 239
153 241
153 242
153 243
153 245
153 246
153 247
153 248
153 249
153 251
153 252
153 253
153 254
153 255
153 256
153 258
153 259
153 260
153 261
153 263
153 264
153 266
153 267
153 268
153 269
153 271
153 272
153 273
153 274
153 275
153 277
153 278
153 279
153 280
153 281
153 284
153 285
153 287
153 288
153 289
153 290
153 291
153 293
153 294
153 296
153 297
153 298
153 299
153 301
153 302
153 303
153 305
153 306
153 307
153 310
153 313
153 314
153 318
153 322
153 323
153 325
153 327
153 328
153 330
153 332
153 334
154 155
154 157
154 158
154 159
154 160
154 161
154 162
154 164
154 165
154 166
154 168
154 169
154 170
154 171
154 172
154 173
154 175
154 176
154 177
154 178
154 179
154 180
154 181
154 183
154 184
154 185
154 186
154 187
154 188
154 190
154 191
154 192
154 194
154 206
154 207
154 208
154 209
154 211
154 212
154 213
154 215
154 216
154 217
154 218
154 220
154 221
154 222
154 224
154 225
154 226
154 227
154 228
154 230
154 231
154 232
154 233
154 234
154 236
154 237
154 238
154 242
154 243
154 244
154 252
154 253
154 254
154 255
154 256
154 257
154 264
154 265
154 267
154 268
154 269
154 270
154 283
154 285
154 286
154 288
154 289
154 290
154 291
154 292
154 306
154 307
154 308
154 309
154 317
154 319
154 320
154 328
154 329
154 331
154 333
154 335
155 156
155 163
155 167
155 174
155 182
155 188
155 189
155 190
155 192
155 193
155 205
155 210
155 214
155 215
155 216
155 218
155 219
155 220
155 222
155 223
155 224
155 225
155 226
155 228
155 229
155 230
155 231
155 233
155 234
155 235
155 236
155 238
155 241
155 251
155 263
155 266
155 284
155 287
155 305
155 317
155 318
155 320
155 327
155 332
155 334
156 157
156 158
156 159
156 160
156 161
156 162
156 164
156 165
156 166
156 168
156 169
156 170
156 171
156 172
156 173
156 175
156 176
156 177
156 178
156 179
156 180
156 181
156 183
156 184
156 185
156 186
156 187
156 188
156 190
156 191
156 192
156 194
156 195
156 196
156 197
156 198
156 200
156 201
156 202
156 203
156 204
156 206
156 207
156 208
156 209
156 211
156 212
156 213
156 215
156 216
156 217
156 218
156 220
156 221
156 222
156 224
156 225
156 226
156 227
156 228
156 230
156 231
156 232
156 233
156 234
156 236
156 237
156 238
156 239
156 240
156 242
156 243
156 244
156 245
156 246
156 247
156 249
156 250
156 252
156 253
156 254
156 255
156 256
156 257
156 258
156 259
156 261
156 262
156 264
156 265
156 267
156 268
156 269
156 270
156 271
156 272
156 273
156 275
156 276
156 277
156 278
156 279
156 280
156 282
156 283
156 285
156 286
156 288
156 289
156 290
156 291
156 292
156 293
156 294
156 295
156 296
156 297
156 298
156 300
156 301
156 302
156 304
156 306
156 307
156 308
156 309
156 310
156 311
156 313
156 314
156 315
156 317
156 319
156 320
156 321
156 322
156 323
156 325
156 328
156 329
156 330
156 331
156 333
156 335
157 158
157 159
157 160
157 161
157 162
157 163
157 165
157 166
157 167
157 169
157 170
157 171
157 172
157 173
157 174
157 176
157 177
157 178
157 179
157 180
157 181
157 182
157 184
157 185
157 186
157 187
157 189
157 190
157 193
157 196
157 197
157 198
157 199
157 200
157 201
157 203
157 204
157 205
157 207
157 208
157 209
157 210
157 211
157 212
157 214
157 215
157 216
157 219
157 220
157 223
157 225
157 226
157 227
157 228
157 229
157 231
157 232
157 233
157 235
157 236
157 240
157 241
157 243
157 244
157 246
157 247
157 248
157 249
157 250
157 251
157 253
157 254
157 255
157 256
157 257
157 259
157 260
157 261
157 262
157 263
157 264
157 266
157 268
157 269
157 270
157 272
157 273
157 274
157 275
157 276
157 278
157 279
157 280
157 281
157 282
157 284
157 285
157 287
157 289
157 290
157 291
157 292
157 294
157 295
157 297
157 298
157 299
157 300
157 302
157 303
157 304
157 305
157 307
157 308
157 309
157 311
157 312
157 314
157 315
157 316
157 318
157 321
157 323
157 324
157 326
157 327
157 329
157 332
157 334
158 159
158 160
158 161
158 162
158 163
158 164
158 166
158 167
158 168
158 170
158 171
158 172
158 173
158 174
158 175
158 177
158 178
158 179
158 180
158 181
158 182
158 183
158 185
158 186
158 187
158 188
158 189
158 191
158 193
158 195
158 197
158 198
158 199
158 200
158 201
158 202
158 203
158 204
158 205
158 206
158 208
158 209
158 210
158 212
158 213
158 214
158 216
158 217
158 218
158 219
158 221
158 222
158 223
158 224
158 226
158 227
158 228
158 229
158 230
158 232
158 233
158 234
158 235
158 237
158 238
158 239
158 240
158 241
158 242
158 244
158 245
158 246
158 247
158 249
158 250
158 251
158 252
158 254
158 255
158 256
158 257
158 258
158 259
158 261
158 262
158 263
158 265
158 266
158 267
158 269
158 270
158 271
158 273
158 274
158 275
158 276
158 277
158 279
158 280
158 281
158 282
158 283
158 284
158 286
158 287
158 288
158 290
158 291
158 292
158 293
158 294
158 295
158 296
158 298
158 299
158 300
158 301
158 302
158 304
158 305
158 306
158 308
158 309
158 310
158 311
158 313
158 315
158 316
158 318
158 321
158 322
158 324
158 325
158 327
158 328
158 330
158 332
158 334
159 160
159 161
159 162
159 163
159 164
159 165
159 166
159 167
159 168
159 169
159 170
159 172
159 173
159 174
159 175
159 176
159 178
159 179
159 180
159 181
159 182
159 183
159 184
159 185
159 187
159 189
159 190
159 193
159 195
159 196
159 198
159 199
159 200
159 201
159 202
159 204
159 205
159 206
159 207
159 208
159 210
159 211
159 212
159 214
159 215
159 216
159 219
159 220
159 223
159 224
159 225
159 226
159 229
159 230
159 231
159 235
159 236
159 239
159 241
159 242
159 243
159 245
159 247
159 248
159 249
159 250
159 251
159 252
159 253
159 255
159 256
159 257
159 258
159 260
159 261
159 262
159 263
159 264
159 266
159 267
159 268
159 270
159 271
159 272
159 274
159 275
159 276
159 277
159 278
159 280
159 281
159 282
159 284
159 285
159 287
159 288
159 289
159 291
159 292
159 293
159 295
159 296
159 297
159 299
159 300
159 301
159 303
159 304
159 305
159 306
159 307
159 309
159 310
159 312
159 313
159 314
159 316
159 318
159 322
159 323
159 325
159 327
159 328
159 330
159 332
159 334
160 161
160 162
160 163
160 164
160 165
160 167
160 168
160 169
160 171
160 172
160 173
160 174
160 175
160 176
160 177
160 179
160 180
160 181
160 182
160 183
160 184
160 186
160 187
160 189
160 190
160 193
160 195
160 196
160 197
160 199
160 200
160 201
160 202
160 203
160 204
160 205
160 206
160 207
160 209
160 210
160 211
160 213
160 214
160 215
160 217
160 218
160 219
160 220
160 223
160 224
160 225
160 227
160 228
160 229
160 230
160 231
160 235
160 236
160 239
160 240
160 241
160 242
160 243
160 245
160 246
160 248
160 249
160 250
160 251
160 252
160 253
160 254
160 256
160 257
160 258
160 259
160 261
160 262
160 263
160 264
160 266
160 267
160 268
160 270
160 271
160 272
160 273
160 275
160 276
160 277
160 278
160 279
160 281
160 282
160 284
160 285
160 287
160 288
160 289
160 290
160 292
160 293
160 294
160 295
160 296
160 297
160 298
160 300
160 301
160 302
160 304
160 305
160 306
160 307
160 308
160 310
160 311
160 313
160 314
160 315
160 318
160 321
160 322
160 323
160 325
160 327
160 328
160 330
160 332
160 334
161 162
161 163
161 164
161 165
161 166
161 167
161 168
161 169
161 170
161 171
161 173
161 174
161 175
161 176
161 177
161 178
161 179
161 181
161 182
161 183
161 184
161 185
161 187
161 189
161 190
161 193
161 195
161 196
161 197
161 198
161 199
161 201
161 202
161 203
161 205
161 206
161 207
161 208
161 210
161 211
161 212
161 214
161 215
161 216
161 219
161 220
161 223
161 224
161 225
161 226
161 229
161 230
161 231
161 235
161 236
161 239
161 240
161 241
161 242
161 243
161 245
161 246
161 247
161 248
161 250
161 251
161 252
161 253
161 254
161 255
161 257
161 258
161 259
161 260
161 262
161 263
161 264
161 266
161 267
161 268
161 270
161 271
161 272
161 273
161 274
161 276
161 277
161 278
161 279
161 280
161 282
161 284
161 285
161 287
161 288
161 289
161 290
161 292
161 293
161 294
161 295
161 296
161 297
161 298
161 300
161 301
161 302
161 304
161 305
161 306
161 307
161 308
161 310
161 311
161 313
161 314
161 315
161 318
161 321
161 322
161 323
161 325
161 327
161 328
161 330
161 332
161 334
162 163
162 164
162 165
162 166
162 167
162 168
162 169
162 170
162 171
162 172
162 174
162 175
162 176
162 177
162 178
162 179
162 180
162 182
162 183
162 184
162 185
162 186
162 189
162 190
162 193
162 195
162 196
162 197
162 198
162 199
162 200
162 202
162 203
162 204
162 205
162 206
162 207
162 208
162 210
162 211
162 212
162 214
162 215
162 216
162 219
162 220
162 223
162 224
162 225
162 226
162 229
162 230
162 231
162 235
162 236
162 239
162 240
162 241
162 242
162 243
162 245
162 246
162 247
162 248
162 249
162 251
162 252
162 253
162 254
162 255
162 256
162 258
162 259
162 260
162 261
162 263
162 264
162 266
162 267
162 268
162 269
162 271
162 272
162 273
162 274
162 275
162 277
162 278
162 279
162 280
162 281
162 284
162 285
162 287
162 288
162 289
162 290
162 291
162 293
162 294
162 296
162 297
162 298
162 299
162 301
162 302
162 303
162 305
162 306
162 307
162 308
162 310
162 311
162 313
162 314
162 315
162 318
162 321
162 322
162 323
162 325
162 327
162 328
162 330
162 332
162 334
163 164
163 165
163 166
163 168
163 169
163 170
163 171
163 172
163 173
163 175
163 176
163 177
163 178
163 179
163 180
163 181
163 183
163 184
163 185
163 186
163 187
163 188
163 190
163 191
163 192
163 194
163 195
163 196
163 198
163 202
163 206
163 207
163 208
163 209
163 211
163 212
163 213
163 215
163 216
163 217
163 218
163 220
163 221
163 222
163 224
163 225
163 226
163 227
163 228
163 230
163 231
163 232
163 233
163 234
163 236
163 237
163 238
163 239
163 242
163 243
163 244
163 245
163 247
163 252
163 253
163 254
163 255
163 256
163 257
163 258
163 264
163 265
163 267
163 268
163 269
163 270
163 271
163 272
163 277
163 278
163 280
163 283
163 285
163 286
163 288
163 289
163 290
163 291
163 292
163 293
163 296
163 297
163 301
163 306
163 307
163 308
163 309
163 310
163 313
163 314
163 317
163 319
163 320
163 322
163 323
163 325
163 328
163 329
163 330
163 331
163 333
163 335
164 165
164 166
164 167
164 169
164 170
164 171
164 172
164 173
164 174
164 176
164 177
164 178
164 179
164 180
164 181
164 182
164 184
164 185
164 186
164 187
164 189
164 190
164 193
164 196
164 197
164 198
164 199
164 200
164 201
164 203
164 204
164 205
164 207
164 208
164 209
164 210
164 211
164 212
164 214
164 215
164 216
164 219
164 220
164 223
164 225
164 226
164 227
164 228
164 229
164 231
164 232
164 233
164 235
164 236
164 240
164 241
164 243
164 244
164 246
164 247
164 248
164 249
164 250
164 251
164 253
164 254
164 255
164 256
164 257
164 259
164 260
164 261
164 262
164 263
164 264
164 266
164 268
164 269
164 270
164 272
164 273
164 274
164 275
164 276
164 278
164 279
164 280
164 281
164 282
164 284
164 285
164 287
164 289
164 290
164 291
164 292
164 294
164 295
164 297
164 298
164 299
164 300
164 302
164 303
164 304
164 305
164 307
164 308
164 309
164 311
164 312
164 314
164 315
164 316
164 318
164 323
164 324
164 326
164 327
164 329
164 332
164 334
165 166
165 167
165 168
165 170
165 171
165 172
165 173
165 174
165 175
165 177
165 178
165 179
165 180
165 181
165 182
165 183
165 185
165 186
165 187
165 188
165 189
165 191
165 193
165 195
165 197
165 198
165 199
165 200
165 201
165 202
165 205
165 206
165 208
165 209
165 210
165 212
165 213
165 214
165 216
165 217
165 218
165 219
165 221
165 222
165 223
165 224
165 226
165 227
165 228
165 229
165 230
165 232
165 233
165 234
165 235
165 237
165 238
165 239
165 241
165 242
165 244
165 245
165 247
165 251
165 252
165 254
165 255
165 256
165 257
165 258
165 263
165 265
165 266
165 267
165 269
165 270
165 271
165 273
165 274
165 275
165 276
165 277
165 279
165 280
165 281
165 282
165 283
165 284
165 286
165 287
165 288
165 290
165 291
165 292
165 293
165 296
165 298
165 299
165 300
165 301
165 305
165 306
165 308
165 309
165 310
165 313
165 315
165 316
165 318
165 322
165 324
165 325
165 327
165 328
165 330
165 332
165 334
166 167
166 168
166 169
166 171
166 172
166 173
166 174
166 175
166 176
166 177
166 179
166 180
166 181
166 182
166 183
166 184
166 186
166 187
166 189
166 190
166 193
166 195
166 196
166 197
166 199
166 200
166 201
166 202
166 205
166 206
166 207
166 209
166 210
166 211
166 213
166 214
166 215
166 217
166 218
166 219
166 220
166 223
166 224
166 225
166 227
166 228
166 229
166 230
166 231
166 235
166 236
166 239
166 241
166 242
166 243
166 245
166 246
166 248
166 249
166 250
166 251
166 252
166 253
166 254
166 256
166 257
166 258
166 263
166 264
166 266
166 267
166 268
166 271
166 272
166 277
166 278
166 279
166 281
166 282
166 284
166 285
166 287
166 288
166 289
166 293
166 296
166 297
166 301
166 305
166 306
166 307
166 310
166 313
166 314
166 318
166 322
166 323
166 325
166 327
166 328
166 330
166 332
166 334
167 168
167 169
167 170
167 171
167 172
167 173
167 175
167 176
167 177
167 178
167 179
167 180
167 181
167 183
167 184
167 185
167 186
167 187
167 188
167 190
167 191
167 192
167 194
167 195
167 196
167 198
167 199
167 200
167 201
167 202
167 204
167 206
167 207
167 208
167 209
167 211
167 212
167 213
167 215
167 216
167 217
167 218
167 220
167 221
167 222
167 224
167 225
167 226
167 227
167 228
167 230
167 231
167 232
167 233
167 234
167 236
167 237
167 238
167 239
167 242
167 243
167 244
167 245
167 247
167 248
167 249
167 250
167 252
167 253
167 254
167 255
167 256
167 257
167 258
167 260
167 261
167 262
167 264
167 265
167 267
167 268
167 269
167 270
167 271
167 272
167 274
167 275
167 276
167 277
167 278
167 280
167 281
167 282
167 283
167 285
167 286
167 288
167 289
167 290
167 291
167 292
167 293
167 295
167 296
167 297
167 299
167 300
167 301
167 303
167 304
167 306
167 307
167 308
167 309
167 310
167 312
167 313
167 314
167 316
167 317
167 319
167 320
167 322
167 323
167 324
167 325
167 326
167 328
167 329
167 330
167 331
167 333
167 335
167 336
168 169
168 170
168 171
168 172
168 173
168 174
168 176
168 177
168 178
168 179
168 180
168 181
168 182
168 184
168 185
168 186
168 187
168 189
168 190
168 193
168 196
168 197
168 198
168 199
168 200
168 201
168 203
168 204
168 205
168 207
168 208
168 209
168 210
168 211
168 212
168 213
168 214
168 215
168 216
168 218
168 219
168 220
168 222
168 223
168 225
168 226
168 227
168 228
168 229
168 231
168 232
168 233
168 235
168 236
168 238
168 240
168 241
168 243
168 244
168 246
168 247
168 248
168 249
168 250
168 251
168 253
168 254
168 255
168 256
168 257
168 259
168 260
168 261
168 262
168 263
168 264
168 265
168 266
168 268
168 269
168 270
168 272
168 273
168 274
168 275
168 276
168 278
168 279
168 280
168 281
168 282
168 284
168 285
168 286
168 287
168 289
168 290
168 291
168 292
168 294
168 295
168 297
168 298
168 299
168 300
168 302
168 303
168 304
168 305
168 307
168 308
168 309
168 311
168 312
168 314
168 315
168 316
168 318
168 320
168 323
168 324
168 326
168 327
168 329
168 332
168 333
168 334
168 335
168 336
169 170
169 171
169 172
169 173
169 174
169 175
169 177
169 178
169 179
169 180
169 181
169 182
169 183
169 185
169 186
169 187
169 188
169 189
169 191
169 193
169 195
169 197
169 198
169 199
169 200
169 201
169 202
169 204
169 205
169 206
169 208
169 209
169 210
169 212
169 213
169 214
169 216
169 217
169 218
169 219
169 221
169 222
169 223
169 224
169 226
169 227
169 228
169 229
169 230
169 232
169 233
169 234
169 235
169 237
169 238
169 239
169 241
169 242
169 244
169 245
169 247
169 248
169 249
169 250
169 251
169 252
169 254
169 255
169 256
169 257
169 258
169 260
169 261
169 262
169 263
169 265
169 266
169 267
169 269
169 270
169 271
169 273
169 274
169 275
169 276
169 277
169 279
169 280
169 281
169 282
169 283
169 284
169 286
169 287
169 288
169 290
169 291
169 292
169 293
169 295
169 296
169 298
169 299
169 300
169 301
169 303
169 304
169 305
169 306
169 308
169 309
169 310
169 312
169 313
169 315
169 316
169 318
169 320
169 322
169 324
169 325
169 326
169 327
169 328
169 329
169 330
169 332
169 333
169 334
169 335
169 336
170 171
170 172
170 173
170 174
170 175
170 176
170 177
170 179
170 180
170 181
170 182
170 183
170 184
170 186
170 187
170 189
170 190
170 193
170 195
170 196
170 197
170 199
170 200
170 201
170 202
170 204
170 205
170 206
170 207
170 209
170 210
170 211
170 213
170 214
170 215
170 217
170 218
170 219
170 220
170 222
170 223
170 224
170 225
170 227
170 228
170 229
170 230
170 231
170 233
170 235
170 236
170 238
170 239
170 241
170 242
170 243
170 244
170 245
170 246
170 248
170 249
170 250
170 251
170 252
170 253
170 254
170 256
170 257
170 258
170 260
170 261
170 262
170 263
170 264
170 265
170 266
170 267
170 268
170 269
170 270
170 271
170 272
170 274
170 275
170 276
170 277
170 278
170 279
170 281
170 282
170 284
170 285
170 286
170 287
170 288
170 289
170 291
170 292
170 293
170 295
170 296
170 297
170 299
170 300
170 301
170 303
170 304
170 305
170 306
170 307
170 309
170 310
170 312
170 313
170 314
170 316
170 318
170 320
170 322
170 323
170 324
170 325
170 326
170 327
170 328
170 329
170 330
170 332
170 333
170 334
170 335
170 336
171 172
171 173
171 174
171 175
171 176
171 177
171 178
171 180
171 181
171 182
171 183
171 184
171 185
171 187
171 189
171 190
171 193
171 195
171 196
171 197
171 198
171 200
171 201
171 202
171 204
171 205
171 206
171 207
171 208
171 210
171 211
171 212
171 214
171 215
171 216
171 217
171 219
171 220
171 221
171 223
171 224
171 225
171 226
171 227
171 229
171 230
171 231
171 232
171 234
171 235
171 236
171 237
171 239
171 241
171 242
171 243
171 245
171 246
171 247
171 249
171 250
171 251
171 252
171 253
171 254
171 255
171 257
171 258
171 259
171 261
171 262
171 263
171 264
171 266
171 267
171 268
171 270
171 271
171 272
171 273
171 275
171 276
171 277
171 278
171 279
171 280
171 282
171 283
171 284
171 285
171 287
171 288
171 289
171 290
171 292
171 293
171 295
171 296
171 297
171 298
171 300
171 301
171 302
171 304
171 305
171 306
171 307
171 308
171 310
171 311
171 313
171 314
171 315
171 317
171 318
171 319
171 322
171 323
171 325
171 327
171 328
171 330
171 331
171 332
171 334
172 173
172 174
172 175
172 176
172 177
172 178
172 179
172 181
172 182
172 183
172 184
172 185
172 186
172 187
172 189
172 190
172 193
172 195
172 196
172 197
172 198
172 199
172 201
172 202
172 203
172 205
172 206
172 207
172 208
172 209
172 210
172 211
172 212
172 213
172 214
172 215
172 216
172 218
172 219
172 220
172 222
172 223
172 224
172 225
172 226
172 228
172 229
172 230
172 231
172 233
172 235
172 236
172 238
172 239
172 241
172 242
172 243
172 244
172 245
172 246
172 247
172 248
172 250
172 251
172 252
172 253
172 255
172 256
172 257
172 258
172 259
172 260
172 262
172 263
172 264
172 265
172 266
172 267
172 268
172 269
172 270
172 271
172 272
172 273
172 274
172 276
172 277
172 278
172 280
172 281
172 282
172 284
172 285
172 286
172 287
172 288
172 289
172 291
172 292
172 293
172 295
172 296
172 297
172 299
172 300
172 301
172 303
172 304
172 305
172 306
172 307
172 309
172 310
172 312
172 313
172 314
172 316
172 318
172 320
172 322
172 323
172 324
172 325
172 326
172 327
172 328
172 329
172 330
172 332
172 333
172 334
172 335
172 336
173 174
173 175
173 176
173 177
173 178
173 179
173 180
173 182
173 183
173 184
173 185
173 186
173 189
173 190
173 193
173 195
173 196
173 197
173 198
173 199
173 200
173 202
173 204
173 205
173 206
173 207
173 208
173 209
173 210
173 211
173 212
173 213
173 214
173 215
173 216
173 218
173 219
173 220
173 222
173 223
173 224
173 225
173 226
173 228
173 229
173 230
173 231
173 233
173 235
173 236
173 238
173 239
173 241
173 242
173 243
173 244
173 245
173 246
173 247
173 248
173 249
173 251
173 252
173 253
173 254
173 255
173 256
173 258
173 259
173 260
173 261
173 263
173 264
173 265
173 266
173 267
173 268
173 269
173 271
173 272
173 273
173 274
173 275
173 277
173 278
173 279
173 280
173 281
173 284
173 285
173 286
173 287
173 288
173 289
173 290
173 291
173 293
173 294
173 296
173 297
173 298
173 299
173 301
173 302
173 303
173 305
173 306
173 307
173 309
173 310
173 312
173 313
173 314
173 316
173 318
173 320
173 322
173 323
173 324
173 325
173 326
173 327
173 328
173 329
173 330
173 332
173 333
173 334
173 335
173 336
174 175
174 176
174 177
174 178
174 179
174 180
174 181
174 183
174 184
174 185
174 186
174 187
174 188
174 190
174 191
174 192
174 194
174 195
174 196
174 197
174 198
174 199
174 200
174 201
174 202
174 203
174 204
174 206
174 207
174 208
174 209
174 211
174 212
174 213
174 215
174 216
174 217
174 218
174 220
174 221
174 222
174 224
174 225
174 226
174 227
174 228
174 230
174 231
174 232
174 233
174 234
174 236
174 237
174 238
174 239
174 240
174 242
174 243
174 244
174 245
174 246
174 247
174 248
174 249
174 250
174 252
174 253
174 254
174 255
174 256
174 257
174 258
174 259
174 260
174 261
174 262
174 264
174 265
174 267
174 268
174 269
174 270
174 271
174 272
174 273
174 274
174 275
174 276
174 277
174 278
174 279
174 280
174 281
174 282
174 283
174 285
174 286
174 288
174 289
174 290
174 291
174 292
174 293
174 294
174 295
174 296
174 297
174 298
174 299
174 300
174 301
174 302
174 303
174 304
174 306
174 307
174 308
174 309
174 310
174 311
174 312
174 313
174 314
174 315
174 316
174 317
174 319
174 320
174 321
174 322
174 323
174 324
174 325
174 326
174 328
174 329
174 330
174 331
174 333
174 335
174 336
175 176
175 177
175 178
175 179
175 180
175 181
175 182
175 184
175 185
175 186
175 187
175 189
175 190
175 193
175 196
175 197
175 198
175 199
175 200
175 201
175 203
175 204
175 205
175 207
175 208
175 209
175 210
175 211
175 212
175 213
175 214
175 215
175 216
175 218
175 219
175 220
175 222
175 223
175 225
175 226
175 227
175 228
175 229
175 231
175 232
175 233
175 235
175 236
175 238
175 240
175 241
175 243
175 244
175 246
175 247
175 248
175 249
175 250
175 251
175 253
175 254
175 255
175 256
175 257
175 259
175 260
175 261
175 262
175 263
175 264
175 265
175 266
175 268
175 269
175 270
175 272
175 273
175 274
175 275
175 276
175 278
175 279
175 280
175 281
175 282
175 284
175 285
175 286
175 287
175 289
175 290
175 291
175 292
175 294
175 295
175 297
175 298
175 299
175 300
175 302
175 303
175 304
175 305
175 307
175 308
175 309
175 311
175 312
175 314
175 315
175 316
175 318
175 320
175 321
175 323
175 324
175 326
175 327
175 329
175 332
175 333
175 334
175 335
175 336
176 177
176 178
176 179
176 180
176 181
176 182
176 183
176 185
176 186
176 187
176 188
176 189
176 191
176 193
176 195
176 197
176 198
176 199
176 200
176 201
176 202
176 203
176 204
176 205
176 206
176 208
176 209
176 210
176 212
176 213
176 214
176 216
176 217
176 218
176 219
176 221
176 222
176 223
176 224
176 226
176 227
176 228
176 229
176 230
176 232
176 233
176 234
176 235
176 237
176 238
176 239
176 240
176 241
176 242
176 244
176 245
176 246
176 247
176 248
176 249
176 250
176 251
176 252
176 254
176 255
176 256
176 257
176 258
176 259
176 260
176 261
176 262
176 263
176 265
176 266
176 267
176 269
176 270
176 271
176 273
176 274
176 275
176 276
176 277
176 279
176 280
176 281
176 282
176 283
176 284
176 286
176 287
176 288
176 290
176 291
176 292
176 293
176 294
176 295
176 296
176 298
176 299
176 300
176 301
176 302
176 303
176 304
176 305
176 306
176 308
176 309
176 310
176 311
176 312
176 313
176 315
176 316
176 318
176 320
176 321
176 322
176 324
176 325
176 326
176 327
176 328
176 329
176 330
176 332
176 333
176 334
176 335
176 336
177 178
177 179
177 180
177 181
177 182
177 183
177 184
177 185
177 186
177 187
177 189
177 190
177 193
177 195
177 196
177 198
177 199
177 200
177 201
177 202
177 204
177 205
177 206
177 207
177 208
177 209
177 210
177 211
177 212
177 213
177 214
177 215
177 216
177 218
177 219
177 220
177 222
177 223
177 224
177 225
177 226
177 228
177 229
177 230
177 231
177 233
177 235
177 236
177 238
177 239
177 241
177 242
177 243
177 244
177 245
177 247
177 248
177 249
177 250
177 251
177 252
177 253
177 255
177 256
177 257
177 258
177 260
177 261
177 262
177 263
177 264
177 265
177 266
177 267
177 268
177 269
177 270
177 271
177 272
177 274
177 275
177 276
177 277
177 278
177 280
177 281
177 282
177 284
177 285
177 286
177 287
177 288
177 289
177 291
177 292
177 293
177 295
177 296
177 297
177 299
177 300
177 301
177 303
177 304
177 305
177 306
177 307
177 309
177 310
177 312
177 313
177 314
177 316
177 318
177 320
177 322
177 323
177 324
177 325
177 326
177 327
177 328
177 329
177 330
177 332
177 333
177 334
177 335
177 336
178 179
178 180
178 181
178 182
178 183
178 184
178 186
178 187
178 189
178 190
178 193
178 195
178 196
178 197
178 199
178 200
178 201
178 202
178 203
178 204
178 205
178 206
178 207
178 209
178 210
178 211
178 213
178 214
178 215
178 217
178 218
178 219
178 220
178 222
178 223
178 224
178 225
178 227
178 228
178 229
178 230
178 231
178 233
178 235
178 236
178 238
178 239
178 240
178 241
178 242
178 243
178 244
178 245
178 246
178 248
178 249
178 250
178 251
178 252
178 253
178 254
178 256
178 257
178 258
178 259
178 260
178 261
178 262
178 263
178 264
178 265
178 266
178 267
178 268
178 269
178 270
178 271
178 272
178 273
178 274
178 275
178 276
178 277
178 278
178 279
178 281
178 282
178 284
178 285
178 286
178 287
178 288
178 289
178 290
178 291
178 292
178 293
178 294
178 295
178 296
178 297
178 298
178 299
178 300
178 301
178 302
178 303
178 304
178 305
178 306
178 307
178 308
178 309
178 310
178 311
178 312
178 313
178 314
178 315
178 316
178 318
178 320
178 321
178 322
178 323
178 324
178 325
178 326
178 327
178 328
178 329
178 330
178 332
178 333
178 334
178 335
178 336
179 180
179 181
179 182
179 183
179 184
179 185
179 187
179 189
179 190
179 193
179 195
179 196
179 197
179 198
179 200
179 201
179 202
179 203
179 204
179 205
179 206
179 207
179 208
179 210
179 211
179 212
179 214
179 215
179 216
179 217
179 219
179 220
179 221
179 223
179 224
179 225
179 226
179 227
179 229
179 230
179 231
179 232
179 234
179 235
179 236
179 237
179 239
179 240
179 241
179 242
179 243
179 245
179 246
179 247
179 249
179 250
179 251
179 252
179 253
179 254
179 255
179 257
179 258
179 259
179 261
179 262
179 263
179 264
179 266
179 267
179 268
179 270
179 271
179 272
179 273
179 275
179 276
179 277
179 278
179 279
179 280
179 282
179 283
179 284
179 285
179 287
179 288
179 289
179 290
179 292
179 293
179 294
179 295
179 296
179 297
179 298
179 300
179 301
179 302
179 304
179 305
179 306
179 307
179 308
179 310
179 311
179 313
179 314
179 315
179 317
179 318
179 319
179 321
179 322
179 323
179 325
179 327
179 328
179 330
179 331
179 332
179 334
180 181
180 182
180 183
180 184
180 185
180 186
180 187
180 189
180 190
180 193
180 195
180 196
180 197
180 198
180 199
180 201
180 202
180 203
180 205
180 206
180 207
180 208
180 209
180 210
180 211
180 212
180 213
180 214
180 215
180 216
180 218
180 219
180 220
180 222
180 223
180 224
180 225
180 226
180 228
180 229
180 230
180 231
180 233
180 235
180 236
180 238
180 239
180 240
180 241
180 242
180 243
180 244
180 245
180 246
180 247
180 248
180 250
180 251
180 252
180 253
180 254
180 255
180 256
180 257
180 258
180 259
180 260
180 262
180 263
180 264
180 265
180 266
180 267
180 268
180 269
180 270
180 271
180 272
180 273
180 274
180 276
180 277
180 278
180 279
180 280
180 281
180 282
180 284
180 285
180 286
180 287
180 288
180 289
180 290
180 291
180 292
180 293
180 294
180 295
180 296
180 297
180 298
180 299
180 300
180 301
180 302
180 303
180 304
180 305
180 306
180 307
180 308
180 309
180 310
180 311
180 312
180 313
180 314
180 315
180 316
180 318
180 320
180 321
180 322
180 323
180 324
180 325
180 326
180 327
180 328
180 329
180 330
180 332
180 333
180 334
180 335
180 336
181 182
181 183
181 184
181 185
181 186
181 189
181 190
181 193
181 195
181 196
181 197
181 198
181 199
181 200
181 202
181 203
181 204
181 205
181 206
181 207
181 208
181 209
181 210
181 211
181 212
181 213
181 214
181 215
181 216
181 218
181 219
181 220
181 222
181 223
181 224
181 225
181 226
181 228
181 229
181 230
181 231
181 233
181 235
181 236
181 238
181 239
181 240
181 241
181 242
181 243
181 244
181 245
181 246
181 247
181 248
181 249
181 251
181 252
181 253
181 254
181 255
181 256
181 258
181 259
181 260
181 261
181 263
181 264
181 265
181 266
181 267
181 268
181 269
181 271
181 272
181 273
181 274
181 275
181 277
181 278
181 279
181 280
181 281
181 284
181 285
181 286
181 287
181 288
181 289
181 290
181 291
181 293
181 294
181 296
181 297
181 298
181 299
181 301
181 302
181 303
181 305
181 306
181 307
181 308
181 309
181 310
181 311
181 312
181 313
181 314
181 315
181 316
181 318
181 320
181 321
181 322
181 323
181 324
181 325
181 326
181 327
181 328
181 329
181 330
181 332
181 333
181 334
181 335
181 336
182 183
182 184
182 185
182 186
182 187
182 188
182 190
182 191
182 192
182 194
182 195
182 196
182 198
182 199
182 201
182 202
182 206
182 207
182 208
182 209
182 211
182 212
182 213
182 215
182 216
182 217
182 218
182 220
182 221
182 222
182 224
182 225
182 226
182 227
182 228
182 230
182 231
182 232
182 233
182 234
182 236
182 237
182 238
182 239
182 242
182 243
182 244
182 245
182 247
182 248
182 250
182 252
182 253
182 254
182 255
182 256
182 257
182 258
182 260
182 262
182 264
182 265
182 267
182 268
182 269
182 270
182 271
182 272
182 274
182 276
182 277
182 278
182 280
182 281
182 282
182 283
182 285
182 286
182 288
182 289
182 290
182 291
182 292
182 293
182 295
182 296
182 297
182 299
182 300
182 301
182 303
182 304
182 306
182 307
182 308
182 309
182 310
182 312
182 313
182 314
182 316
182 317
182 319
182 320
182 322
182 323
182 324
182 325
182 326
182 328
182 329
182 330
182 331
182 333
182 335
182 336
183 184
183 185
183 186
183 187
183 189
183 190
183 193
183 196
183 197
183 198
183 199
183 200
183 201
183 203
183 204
183 205
183 207
183 208
183 209
183 210
183 211
183 212
183 213
183 214
183 215
183 216
183 218
183 219
183 220
183 222
183 223
183 225
183 226
183 227
183 228
183 229
183 231
183 232
183 233
183 235
183 236
183 238
183 240
183 241
183 243
183 244
183 246
183 247
183 248
183 249
183 250
183 251
183 253
183 254
183 255
183 256
183 257
183 259
183 260
183 261
183 262
183 263
183 264
183 265
183 266
183 268
183 269
183 270
183 272
183 273
183 274
183 275
183 276
183 278
183 279
183 280
183 281
183 282
183 284
183 285
183 286
183 287
183 289
183 290
183 291
183 292
183 294
183 295
183 297
183 298
183 299
183 300
183 302
183 303
183 304
183 305
183 307
183 308
183 309
183 311
183 312
183 314
183 315
183 316
183 318
183 320
183 323
183 324
183 326
183 327
183 329
183 332
183 333
183 334
183 335
183 336
184 185
184 186
184 187
184 188
184 189
184 191
184 193
184 195
184 197
184 198
184 199
184 200
184 201
184 202
184 205
184 206
184 208
184 209
184 210
184 212
184 213
184 214
184 216
184 217
184 218
184 219
184 221
184 222
184 223
184 224
184 226
184 227
184 228
184 229
184 230
184 232
184 233
184 234
184 235
184 237
184 238
184 239
184 241
184 242
184 244
184 245
184 247
184 248
184 250
184 251
184 252
184 254
184 255
184 256
184 257
184 258
184 260
184 262
184 263
184 265
184 266
184 267
184 269
184 270
184 271
184 273
184 274
184 275
184 276
184 277
184 279
184 280
184 281
184 282
184 283
184 284
184 286
184 287
184 288
184 290
184 291
184 292
184 293
184 295
184 296
184 298
184 299
184 300
184 301
184 303
184 304
184 305
184 306
184 308
184 309
184 310
184 312
184 313
184 315
184 316
184 318
184 320
184 322
184 324
184 325
184 326
184 327
184 328
184 329
184 330
184 332
184 333
184 334
184 335
184 336
185 186
185 187
185 189
185 190
185 193
185 195
185 196
185 197
185 199
185 200
185 201
185 202
185 205
185 206
185 207
185 209
185 210
185 211
185 213
185 214
185 215
185 217
185 218
185 219
185 220
185 222
185 223
185 224
185 225
185 227
185 228
185 229
185 230
185 231
185 233
185 235
185 236
185 238
185 239
185 241
185 242
185 243
185 244
185 245
185 246
185 248
185 249
185 250
185 251
185 252
185 253
185 254
185 256
185 257
185 258
185 260
185 262
185 263
185 264
185 265
185 266
185 267
185 268
185 269
185 270
185 271
185 272
185 274
185 276
185 277
185 278
185 279
185 281
185 282
185 284
185 285
185 286
185 287
185 288
185 289
185 291
185 292
185 293
185 295
185 296
185 297
185 299
185 300
185 301
185 303
185 304
185 305
185 306
185 307
185 309
185 310
185 312
185 313
185 314
185 316
185 318
185 320
185 322
185 323
185 324
185 325
185 326
185 327
185 328
185 329
185 330
185 332
185 333
185 334
185 335
185 336
186 187
186 189
186 190
186 193
186 195
186 196
186 197
186 198
186 200
186 201
186 202
186 205
186 206
186 207
186 208
186 210
186 211
186 212
186 214
186 215
186 216
186 217
186 219
186 220
186 221
186 223
186 224
186 225
186 226
186 227
186 229
186 230
186 231
186 232
186 234
186 235
186 236
186 237
186 239
186 241
186 242
186 243
186 245
186 246
186 247
186 249
186 250
186 251
186 252
186 253
186 254
186 255
186 257
186 258
186 259
186 261
186 262
186 263
186 264
186 266
186 267
186 268
186 270
186 271
186 272
186 273
186 275
186 276
186 277
186 278
186 279
186 280
186 282
186 283
186 284
186 285
186 287
186 288
186 289
186 290
186 292
186 293
186 295
186 296
186 297
186 298
186 300
186 301
186 302
186 304
186 305
186 306
186 307
186 308
186 310
186 311
186 313
186 314
186 315
186 317
186 318
186 319
186 322
186 323
186 325
186 327
186 328
186 330
186 331
186 332
186 334
187 189
187 190
187 193
187 195
187 196
187 197
187 198
187 199
187 200
187 202
187 205
187 206
187 207
187 208
187 209
187 210
187 211
187 212
187 213
187 214
187 215
187 216
187 218
187 219
187 220
187 222
187 223
187 224
187 225
187 226
187 228
187 229
187 230
187 231
187 233
187 235
187 236
187 238
187 239
187 241
187 242
187 243
187 244
187 245
187 246
187 247
187 248
187 249
187 251
187 252
187 253
187 254
187 255
187 256
187 258
187 259
187 260
187 261
187 263
187 264
187 265
187 266
187 267
187 268
187 269
187 271
187 272
187 273
187 274
187 275
187 277
187 278
187 279
187 280
187 281
187 284
187 285
187 286
187 287
187 288
187 289
187 290
187 291
187 293
187 294
187 296
187 297
187 298
187 299
187 301
187 302
187 303
187 305
187 306
187 307
187 309
187 310
187 312
187 313
187 314
187 316
187 318
187 320
187 322
187 323
187 324
187 325
187 326
187 327
187 328
187 329
187 330
187 332
187 333
187 334
187 335
187 336
188 189
188 190
188 191
188 193
188 194
188 196
188 205
188 207
188 210
188 211
188 214
188 215
188 217
188 219
188 220
188 221
188 223
188 225
188 227
188 229
188 231
188 232
188 235
188 236
188 237
188 238
188 241
188 243
188 251
188 253
188 263
188 264
188 266
188 268
188 272
188 278
188 284
188 285
188 286
188 287
188 289
188 297
188 305
188 307
188 314
188 318
188 319
188 320
188 323
188 327
188 332
188 333
188 334
189 190
189 191
189 192
189 194
189 196
189 206
189 207
189 208
189 209
189 211
189 212
189 213
189 215
189 216
189 217
189 218
189 220
189 221
189 222
189 224
189 225
189 226
189 227
189 228
189 230
189 231
189 232
189 233
189 234
189 236
189 237
189 238
189 242
189 243
189 244
189 252
189 253
189 254
189 255
189 256
189 257
189 264
189 265
189 267
189 268
189 269
189 270
189 272
189 278
189 283
189 285
189 286
189 288
189 289
189 290
189 291
189 292
189 297
189 306
189 307
189 308
189 309
189 314
189 317
189 319
189 320
189 323
189 328
189 329
189 331
189 333
189 335
190 191
190 192
190 193
190 194
190 195
190 197
190 198
190 199
190 200
190 201
190 205
190 206
190 208
190 209
190 210
190 212
190 213
190 214
190 216
190 217
190 218
190 219
190 221
190 222
190 223
190 224
190 226
190 227
190 228
190 229
190 230
190 232
190 233
190 234
190 235
190 237
190 238
190 241
190 242
190 244
190 251
190 252
190 254
190 255
190 256
190 257
190 263
190 265
190 266
190 267
190 269
190 270
190 271
190 273
190 274
190 275
190 276
190 277
190 279
190 280
190 281
190 282
190 283
190 284
190 286
190 287
190 288
190 290
190 291
190 292
190 296
190 298
190 299
190 300
190 305
190 306
190 308
190 309
190 313
190 315
190 316
190 317
190 318
190 319
190 322
190 324
190 327
190 331
190 332
190 334
191 192
191 193
191 196
191 205
191 207
191 210
191 211
191 214
191 215
191 216
191 218
191 219
191 220
191 222
191 223
191 224
191 225
191 226
191 228
191 229
191 230
191 231
191 233
191 234
191 235
191 236
191 238
191 241
191 243
191 251
191 253
191 263
191 264
191 266
191 268
191 272
191 278
191 283
191 284
191 285
191 287
191 289
191 297
191 305
191 307
191 314
191 317
191 318
191 320
191 323
191 327
191 331
191 332
191 334
192 193
192 194
192 205
192 210
192 214
192 217
192 219
192 221
192 223
192 227
192 229
192 232
192 235
192 236
192 237
192 238
192 241
192 251
192 263
192 266
192 284
192 285
192 286
192 287
192 305
192 318
192 319
192 320
192 327
192 332
192 333
192 334
193 194
193 206
193 207
193 208
193 209
193 211
193 212
193 213
193 215
193 216
193 217
193 218
193 220
193 221
193 222
193 224
193 225
193 226
193 227
193 228
193 230
193 231
193 232
193 233
193 234
193 236
193 237
193 238
193 242
193 243
193 244
193 252
193 253
193 254
193 255
193 256
193 257
193 264
193 265
193 267
193 268
193 269
193 270
193 283
193 285
193 286
193 288
193 289
193 290
193 291
193 292
193 306
193 307
193 308
193 309
193 317
193 319
193 320
193 328
193 329
193 331
193 333
193 335
194 205
194 210
194 214
194 215
194 216
194 218
194 219
194 220
194 222
194 223
194 224
194 225
194 226
194 228
194 229
194 230
194 231
194 233
194 234
194 235
194 236
194 238
194 241
194 251
194 263
194 266
194 283
194 284
194 287
194 305
194 317
194 318
194 320
194 327
194 331
194 332
194 334
195 196
195 197
195 198
195 199
195 200
195 201
195 203
195 204
195 205
195 207
195 208
195 209
195 211
195 212
195 213
195 215
195 216
195 218
195 220
195 222
195 223
195 225
195 226
195 227
195 228
195 229
195 231
195 232
195 233
195 236
195 238
195 240
195 241
195 243
195 244
195 246
195 247
195 248
195 249
195 250
195 251
195 253
195 254
195 255
195 256
195 257
195 259
195 260
195 261
195 262
195 264
195 265
195 266
195 268
195 269
195 270
195 272
195 273
195 274
195 275
195 276
195 278
195 279
195 280
195 281
195 282
195 285
195 286
195 287
195 289
195 290
195 291
195 292
195 294
195 295
195 297
195 298
195 299
195 300
195 302
195 303
195 304
195 305
195 307
195 308
195 309
195 311
195 312
195 314
195 315
195 316
195 320
195 321
195 323
195 324
195 326
195 327
195 329
195 333
195 335
195 336
196 197
196 198
196 199
196 200
196 201
196 202
196 203
196 204
196 205
196 206
196 208
196 209
196 210
196 212
196 213
196 214
196 216
196 217
196 218
196 219
196 221
196 222
196 223
196 224
196 226
196 227
196 228
196 229
196 230
196 232
196 233
196 234
196 235
196 237
196 238
196 239
196 240
196 241
196 242
196 244
196 245
196 246
196 247
196 248
196 249
196 250
196 251
196 252
196 254
196 255
196 256
196 257
196 258
196 259
196 260
196 261
196 262
196 263
196 265
196 266
196 267
196 269
196 270
196 271
196 273
196 274
196 275
196 276
196 277
196 279
196 280
196 281
196 282
196 283
196 284
196 286
196 287
196 288
196 290
196 291
196 292
196 293
196 294
196 295
196 296
196 298
196 299
196 300
196 301
196 302
196 303
196 304
196 305
196 306
196 308
196 309
196 310
196 311
196 312
196 313
196 315
196 316
196 320
196 321
196 322
196 324
196 325
196 326
196 328
196 329
196 330
196 333
196 335
196 336
197 198
197 199
197 200
197 201
197 202
197 204
197 206
197 207
197 208
197 209
197 211
197 212
197 213
197 215
197 216
197 218
197 220
197 222
197 224
197 225
197 226
197 228
197 230
197 231
197 233
197 236
197 238
197 239
197 242
197 243
197 244
197 245
197 247
197 248
197 249
197 250
197 251
197 252
197 253
197 255
197 256
197 257
197 258
197 260
197 261
197 262
197 264
197 265
197 267
197 268
197 269
197 270
197 271
197 272
197 274
197 275
197 276
197 277
197 278
197 280
197 281
197 282
197 285
197 286
197 287
197 288
197 289
197 291
197 292
197 293
197 295
197 296
197 297
197 299
197 300
197 301
197 303
197 304
197 305
197 306
197 307
197 309
197 310
197 312
197 313
197 314
197 316
197 320
197 322
197 323
197 324
197 325
197 326
197 328
197 329
197 330
197 333
197 335
197 336
198 199
198 200
198 201
198 202
198 203
198 204
198 205
198 206
198 207
198 209
198 210
198 211
198 213
198 214
198 215
198 217
198 218
198 220
198 222
198 223
198 224
198 225
198 227
198 228
198 230
198 231
198 233
198 236
198 238
198 239
198 240
198 242
198 243
198 244
198 245
198 246
198 248
198 249
198 250
198 251
198 252
198 253
198 254
198 256
198 257
198 258
198 259
198 260
198 261
198 262
198 264
198 265
198 267
198 268
198 269
198 270
198 271
198 272
198 273
198 274
198 275
198 276
198 277
198 278
198 279
198 281
198 282
198 285
198 286
198 288
198 289
198 290
198 291
198 292
198 293
198 294
198 295
198 296
198 297
198 298
198 299
198 300
198 301
198 302
198 303
198 304
198 306
198 307
198 308
198 309
198 310
198 311
198 312
198 313
198 314
198 315
198 316
198 320
198 321
198 322
198 323
198 324
198 325
198 326
198 328
198 329
198 330
198 333
198 335
198 336
199 200
199 201
199 202
199 203
199 204
199 205
199 206
199 207
199 208
199 210
199 211
199 212
199 214
199 215
199 216
199 217
199 219
199 220
199 221
199 223
199 224
199 225
199 226
199 227
199 229
199 230
199 231
199 232
199 234
199 235
199 236
199 237
199 239
199 240
199 241
199 242
199 243
199 245
199 246
199 247
199 249
199 250
199 251
199 252
199 253
199 254
199 255
199 257
199 258
199 259
199 261
199 262
199 263
199 264
199 266
199 267
199 268
199 270
199 271
199 272
199 273
199 275
199 276
199 277
199 278
199 279
199 280
199 282
199 283
199 284
199 285
199 287
199 288
199 289
199 290
199 292
199 293
199 294
199 295
199 296
199 297
199 298
199 300
199 301
199 302
199 304
199 305
199 306
199 307
199 308
199 310
199 311
199 313
199 314
199 315
199 317
199 318
199 319
199 321
199 322
199 323
199 325
199 327
199 328
199 330
199 331
199 332
199 334
200 201
200 202
200 203
200 206
200 207
200 208
200 209
200 211
200 212
200 213
200 215
200 216
200 218
200 220
200 222
200 224
200 225
200 226
200 228
200 230
200 231
200 233
200 236
200 238
200 239
200 240
200 242
200 243
200 244
200 245
200 246
200 247
200 248
200 250
200 252
200 253
200 254
200 255
200 256
200 257
200 258
200 259
200 260
200 262
200 264
200 265
200 267
200 268
200 269
200 270
200 271
200 272
200 273
200 274
200 276
200 277
200 278
200 279
200 280
200 281
200 282
200 285
200 286
200 288
200 289
200 290
200 291
200 292
200 293
200 294
200 295
200 296
200 297
200 298
200 299
200 300
200 301
200 302
200 303
200 304
200 306
200 307
200 308
200 309
200 310
200 311
200 312
200 313
200 314
200 315
200 316
200 320
200 321
200 322
200 323
200 324
200 325
200 326
200 328
200 329
200 330
200 333
200 335
200 336
201 202
201 203
201 204
201 206
201 207
201 208
201 209
201 211
201 212
201 213
201 215
201 216
201 218
201 220
201 222
201 224
201 225
201 226
201 228
201 230
201 231
201 233
201 236
201 238
201 239
201 240
201 242
201 243
201 244
201 245
201 246
201 247
201 248
201 249
201 251
201 252
201 253
201 254
201 255
201 256
201 258
201 259
201 260
201 261
201 264
201 265
201 266
201 267
201 268
201 269
201 271
201 272
201 273
201 274
201 275
201 277
201 278
201 279
201 280
201 281
201 285
201 286
201 287
201 288
201 289
201 290
201 291
201 293
201 294
201 296
201 297
201 298
201 299
201 301
201 302
201 303
201 306
201 307
201 308
201 309
201 310
201 311
201 312
201 313
201 314
201 315
201 316
201 320
201 321
201 322
201 323
201 324
201 325
201 326
201 328
201 329
201 330
201 333
201 335
201 336
202 203
202 204
202 205
202 207
202 208
202 209
202 223
202 225
202 226
202 227
202 228
202 229
202 231
202 232
202 233
202 240
202 241
202 243
202 244
202 246
202 247
202 248
202 249
202 250
202 251
202 253
202 254
202 255
202 256
202 257
202 259
202 260
202 261
202 262
202 266
202 268
202 269
202 270
202 272
202 273
202 274
202 275
202 276
202 278
202 279
202 280
202 281
202 282
202 287
202 289
202 290
202 291
202 292
202 294
202 295
202 297
202 298
202 299
202 300
202 302
202 303
202 304
202 305
202 307
202 308
202 309
202 311
202 312
202 314
202 315
202 316
202 321
202 323
202 324
202 326
202 327
202 329
203 204
203 206
203 224
203 230
203 239
203 242
203 245
203 247
203 248
203 249
203 250
203 251
203 252
203 253
203 255
203 256
203 257
203 258
203 260
203 261
203 262
203 267
203 271
203 272
203 274
203 275
203 276
203 277
203 278
203 280
203 281
203 282
203 287
203 288
203 289
203 291
203 292
203 293
203 295
203 296
203 297
203 299
203 300
203 301
203 303
203 304
203 305
203 306
203 307
203 309
203 310
203 312
203 313
203 314
203 316
203 322
203 325
203 328
203 330
204 206
204 224
204 230
204 239
204 240
204 242
204 245
204 246
204 247
204 248
204 250
204 252
204 254
204 258
204 259
204 260
204 262
204 267
204 271
204 272
204 273
204 274
204 276
204 277
204 279
204 288
204 290
204 293
204 294
204 296
204 298
204 301
204 302
204 306
204 308
204 310
204 311
204 313
204 315
204 321
204 322
204 325
204 328
204 330
205 206
205 207
205 208
205 209
205 211
205 212
205 213
205 215
205 216
205 217
205 218
205 220
205 221
205 222
205 224
205 225
205 226
205 227
205 228
205 230
205 231
205 232
205 233
205 234
205 236
205 237
205 238
205 239
205 242
205 243
205 244
205 245
205 247
205 248
205 252
205 253
205 254
205 255
205 256
205 257
205 258
205 260
205 264
205 265
205 267
205 268
205 269
205 270
205 271
205 272
205 274
205 277
205 278
205 280
205 281
205 283
205 285
205 286
205 288
205 289
205 290
205 291
205 292
205 293
205 296
205 297
205 299
205 301
205 303
205 306
205 307
205 308
205 309
205 310
205 312
205 313
205 314
205 316
205 317
205 319
205 320
205 322
205 323
205 324
205 325
205 326
205 328
205 329
205 330
205 331
205 333
205 335
205 336
206 207
206 208
206 209
206 210
206 211
206 212
206 213
206 214
206 215
206 216
206 218
206 219
206 220
206 222
206 223
206 225
206 226
206 227
206 228
206 229
206 231
206 232
206 233
206 235
206 236
206 238
206 240
206 241
206 243
206 244
206 246
206 247
206 248
206 249
206 250
206 251
206 253
206 254
206 255
206 256
206 257
206 259
206 260
206 261
206 262
206 263
206 264
206 265
206 266
206 268
206 269
206 270
206 272
206 273
206 274
206 275
206 276
206 278
206 279
206 280
206 281
206 282
206 284
206 285
206 286
206 287
206 289
206 290
206 291
206 292
206 294
206 295
206 297
206 298
206 299
206 300
206 302
206 303
206 304
206 305
206 307
206 308
206 309
206 311
206 312
206 314
206 315
206 316
206 318
206 320
206 323
206 324
206 326
206 327
206 329
206 332
206 333
206 334
206 335
206 336
207 208
207 209
207 210
207 212
207 213
207 214
207 216
207 217
207 218
207 219
207 221
207 222
207 223
207 224
207 226
207 227
207 228
207 229
207 230
207 232
207 233
207 234
207 235
207 237
207 238
207 239
207 241
207 242
207 244
207 245
207 247
207 248
207 251
207 252
207 254
207 255
207 256
207 257
207 258
207 260
207 263
207 265
207 266
207 267
207 269
207 270
207 271
207 273
207 274
207 275
207 276
207 277
207 279
207 280
207 281
207 282
207 283
207 284
207 286
207 287
207 288
207 290
207 291
207 292
207 293
207 296
207 298
207 299
207 300
207 301
207 303
207 305
207 306
207 308
207 309
207 310
207 312
207 313
207 315
207 316
207 318
207 320
207 322
207 324
207 325
207 326
207 327
207 328
207 329
207 330
207 332
207 333
207 334
207 335
207 336
208 209
208 210
208 211
208 213
208 214
208 215
208 217
208 218
208 219
208 220
208 222
208 223
208 224
208 225
208 227
208 228
208 229
208 230
208 231
208 233
208 235
208 236
208 238
208 239
208 241
208 242
208 243
208 244
208 245
208 246
208 248
208 249
208 250
208 251
208 252
208 253
208 254
208 256
208 257
208 258
208 260
208 263
208 264
208 265
208 266
208 267
208 268
208 269
208 271
208 272
208 274
208 277
208 278
208 279
208 281
208 282
208 284
208 285
208 286
208 287
208 288
208 289
208 291
208 293
208 296
208 297
208 299
208 301
208 303
208 305
208 306
208 307
208 309
208 310
208 312
208 313
208 314
208 316
208 318
208 320
208 322
208 323
208 324
208 325
208 326
208 327
208 328
208 329
208 330
208 332
208 333
208 334
208 335
208 336
209 210
209 211
209 212
209 214
209 215
209 216
209 217
209 219
209 220
209 221
209 223
209 224
209 225
209 226
209 227
209 229
209 230
209 231
209 232
209 234
209 235
209 236
209 237
209 239
209 241
209 242
209 243
209 245
209 246
209 247
209 249
209 250
209 251
209 252
209 253
209 254
209 255
209 257
209 258
209 259
209 261
209 262
209 263
209 264
209 266
209 267
209 268
209 270
209 271
209 272
209 273
209 275
209 276
209 277
209 278
209 279
209 280
209 282
209 283
209 284
209 285
209 287
209 288
209 289
209 290
209 292
209 293
209 296
209 297
209 298
209 300
209 301
209 302
209 304
209 305
209 306
209 307
209 308
209 310
209 311
209 313
209 314
209 315
209 317
209 318
209 319
209 322
209 323
209 325
209 327
209 328
209 330
209 331
209 332
209 334
210 211
210 212
210 213
210 215
210 216
210 217
210 218
210 220
210 221
210 222
210 224
210 225
210 226
210 227
210 228
210 230
210 231
210 232
210 233
210 234
210 236
210 237
210 238
210 242
210 243
210 244
210 247
210 248
210 252
210 253
210 254
210 255
210 256
210 257
210 260
210 264
210 265
210 267
210 268
210 269
210 270
210 272
210 274
210 278
210 280
210 281
210 283
210 285
210 286
210 288
210 289
210 290
210 291
210 292
210 297
210 299
210 303
210 306
210 307
210 308
210 309
210 312
210 314
210 316
210 317
210 319
210 320
210 323
210 324
210 326
210 328
210 329
210 331
210 333
210 335
210 336
211 212
211 213
211 214
211 216
211 217
211 218
211 219
211 221
211 222
211 223
211 224
211 226
211 227
211 228
211 229
211 230
211 232
211 233
211 234
211 235
211 237
211 238
211 241
211 242
211 244
211 247
211 248
211 251
211 252
211 254
211 255
211 256
211 257
211 260
211 263
211 265
211 266
211 267
211 269
211 270
211 271
211 273
211 274
211 275
211 276
211 277
211 279
211 280
211 281
211 282
211 283
211 284
211 286
211 287
211 288
211 290
211 291
211 292
211 296
211 298
211 299
211 300
211 303
211 305
211 306
211 308
211 309
211 312
211 313
211 315
211 316
211 318
211 320
211 322
211 324
211 326
211 327
211 329
211 332
211 333
211 334
211 335
211 336
212 213
212 214
212 215
212 217
212 218
212 219
212 220
212 222
212 223
212 224
212 225
212 227
212 228
212 229
212 231
212 233
212 235
212 236
212 238
212 241
212 243
212 244
212 245
212 246
212 248
212 249
212 250
212 251
212 252
212 253
212 254
212 256
212 257
212 260
212 263
212 264
212 265
212 266
212 268
212 269
212 272
212 274
212 277
212 278
212 279
212 281
212 282
212 284
212 285
212 286
212 287
212 289
212 291
212 297
212 299
212 303
212 305
212 307
212 309
212 312
212 314
212 316
212 318
212 320
212 323
212 324
212 326
212 327
212 329
212 332
212 333
212 334
212 335
212 336
213 214
213 215
213 216
213 217
213 219
213 220
213 221
213 223
213 224
213 225
213 226
213 227
213 229
213 230
213 231
213 232
213 234
213 235
213 236
213 237
213 241
213 242
213 243
213 245
213 246
213 247
213 249
213 250
213 251
213 252
213 253
213 254
213 255
213 257
213 258
213 259
213 261
213 262
213 263
213 264
213 266
213 267
213 268
213 270
213 271
213 272
213 273
213 275
213 276
213 277
213 278
213 279
213 280
213 282
213 283
213 284
213 285
213 287
213 288
213 289
213 290
213 292
213 296
213 297
213 298
213 300
213 301
213 302
213 304
213 305
213 306
213 307
213 308
213 310
213 311
213 313
213 314
213 315
213 317
213 318
213 319
213 322
213 323
213 325
213 327
213 328
213 331
213 332
213 334
214 215
214 216
214 217
214 218
214 220
214 221
214 222
214 224
214 225
214 226
214 227
214 228
214 230
214 231
214 232
214 233
214 234
214 236
214 237
214 238
214 242
214 243
214 244
214 247
214 248
214 252
214 253
214 254
214 255
214 256
214 257
214 260
214 264
214 265
214 267
214 268
214 269
214 270
214 272
214 274
214 278
214 280
214 281
214 283
214 285
214 286
214 288
214 289
214 290
214 291
214 292
214 297
214 299
214 303
214 306
214 307
214 308
214 309
214 312
214 314
214 316
214 317
214 319
214 320
214 323
214 324
214 326
214 328
214 329
214 331
214 333
214 335
214 336
215 216
215 217
215 218
215 219
215 221
215 222
215 223
215 224
215 226
215 227
215 228
215 229
215 230
215 232
215 233
215 234
215 235
215 237
215 238
215 241
215 242
215 244
215 247
215 248
215 251
215 252
215 254
215 255
215 256
215 257
215 260
215 263
215 265
215 266
215 267
215 269
215 270
215 271
215 273
215 274
215 275
215 276
215 277
215 279
215 280
215 281
215 282
215 283
215 284
215 286
215 287
215 288
215 290
215 291
215 292
215 296
215 298
215 299
215 300
215 303
215 305
215 306
215 308
215 309
215 312
215 313
215 315
215 316
215 318
215 319
215 320
215 322
215 324
215 326
215 327
215 329
215 332
215 333
215 334
215 335
215 336
216 217
216 218
216 219
216 220
216 221
216 222
216 223
216 224
216 225
216 227
216 228
216 229
216 231
216 232
216 233
216 235
216 236
216 237
216 238
216 241
216 243
216 244
216 245
216 246
216 248
216 249
216 250
216 251
216 252
216 253
216 254
216 256
216 257
216 260
216 263
216 264
216 265
216 266
216 268
216 269
216 272
216 274
216 277
216 278
216 279
216 281
216 282
216 284
216 285
216 286
216 287
216 289
216 291
216 297
216 299
216 303
216 305
216 307
216 309
216 312
216 314
216 316
216 318
216 319
216 320
216 323
216 324
216 326
216 327
216 329
216 332
216 333
216 334
216 335
216 336
217 218
217 219
217 220
217 222
217 223
217 224
217 225
217 226
217 228
217 229
217 230
217 231
217 233
217 234
217 235
217 236
217 238
217 241
217 243
217 244
217 247
217 248
217 251
217 253
217 255
217 256
217 260
217 263
217 264
217 265
217 266
217 268
217 269
217 272
217 274
217 278
217 280
217 281
217 284
217 285
217 286
217 287
217 289
217 291
217 297
217 299
217 303
217 305
217 307
217 309
217 312
217 314
217 316
217 317
217 318
217 320
217 323
217 324
217 326
217 327
217 329
217 332
217 333
217 334
217 335
217 336
218 219
218 220
218 221
218 223
218 224
218 225
218 226
218 227
218 229
218 230
218 231
218 232
218 234
218 235
218 236
218 237
218 241
218 242
218 243
218 245
218 246
218 247
218 249
218 250
218 251
218 252
218 253
218 254
218 255
218 257
218 258
218 259
218 261
218 262
218 263
218 264
218 266
218 267
218 268
218 270
218 271
218 272
218 273
218 275
218 276
218 277
218 278
218 279
218 280
218 282
218 283
218 284
218 285
218 287
218 288
218 289
218 290
218 292
218 296
218 297
218 298
218 300
218 301
218 302
218 304
218 305
218 306
218 307
218 308
218 310
218 311
218 313
218 314
218 315
218 317
218 318
218 319
218 322
218 323
218 325
218 327
218 328
218 331
218 332
218 334
219 220
219 221
219 222
219 224
219 225
219 226
219 227
219 228
219 230
219 231
219 232
219 233
219 234
219 236
219 237
219 238
219 242
219 243
219 244
219 248
219 252
219 253
219 254
219 255
219 256
219 257
219 260
219 264
219 265
219 267
219 268
219 269
219 270
219 272
219 274
219 278
219 281
219 283
219 285
219 286
219 288
219 289
219 290
219 291
219 292
219 297
219 299
219 303
219 306
219 307
219 308
219 309
219 312
219 314
219 316
219 317
219 319
219 320
219 323
219 324
219 326
219 328
219 329
219 331
219 333
219 335
219 336
220 221
220 222
220 223
220 224
220 226
220 227
220 228
220 229
220 230
220 232
220 233
220 234
220 235
220 237
220 238
220 241
220 242
220 244
220 248
220 251
220 252
220 254
220 255
220 256
220 257
220 260
220 263
220 265
220 266
220 267
220 269
220 270
220 271
220 273
220 274
220 275
220 276
220 277
220 279
220 280
220 281
220 282
220 283
220 284
220 286
220 287
220 288
220 290
220 291
220 292
220 296
220 298
220 299
220 300
220 303
220 305
220 306
220 308
220 309
220 312
220 313
220 315
220 316
220 318
220 319
220 320
220 322
220 324
220 326
220 327
220 329
220 332
220 333
220 334
220 335
220 336
221 222
221 223
221 224
221 225
221 226
221 228
221 229
221 230
221 231
221 233
221 234
221 235
221 236
221 238
221 241
221 243
221 244
221 248
221 251
221 253
221 256
221 260
221 263
221 264
221 265
221 266
221 268
221 269
221 272
221 274
221 278
221 281
221 284
221 285
221 286
221 287
221 289
221 291
221 297
221 299
221 303
221 305
221 307
221 309
221 312
221 314
221 316
221 317
221 318
221 320
221 323
221 324
221 326
221 327
221 329
221 332
221 333
221 334
221 335
221 336
222 223
222 224
222 225
222 226
222 227
222 229
222 230
222 231
222 232
222 234
222 235
222 236
222 237
222 241
222 242
222 243
222 245
222 246
222 247
222 249
222 250
222 251
222 252
222 253
222 254
222 255
222 257
222 258
222 259
222 261
222 262
222 263
222 264
222 266
222 267
222 268
222 270
222 271
222 272
222 273
222 275
222 276
222 277
222 278
222 279
222 280
222 282
222 283
222 284
222 285
222 287
222 288
222 289
222 290
222 292
222 296
222 297
222 298
222 300
222 301
222 302
222 304
222 305
222 306
222 307
222 308
222 310
222 311
222 313
222 314
222 315
222 317
222 318
222 319
222 322
222 323
222 325
222 327
222 328
222 331
222 332
222 334
223 224
223 225
223 226
223 227
223 228
223 230
223 231
223 232
223 233
223 234
223 236
223 237
223 238
223 239
223 242
223 243
223 244
223 245
223 247
223 248
223 252
223 253
223 254
223 255
223 256
223 257
223 258
223 260
223 264
223 265
223 267
223 268
223 269
223 270
223 271
223 272
223 274
223 277
223 278
223 280
223 281
223 283
223 285
223 286
223 288
223 289
223 290
223 291
223 292
223 293
223 296
223 297
223 299
223 301
223 303
223 306
223 307
223 308
223 309
223 310
223 312
223 313
223 314
223 316
223 317
223 319
223 320
223 322
223 323
223 324
223 325
223 326
223 328
223 329
223 330
223 331
223 333
223 335
223 336
224 225
224 226
224 227
224 228
224 229
224 231
224 232
224 233
224 235
224 236
224 237
224 238
224 240
224 241
224 243
224 244
224 246
224 247
224 248
224 249
224 250
224 251
224 253
224 254
224 255
224 256
224 257
224 259
224 260
224 261
224 262
224 263
224 264
224 265
224 266
224 268
224 269
224 270
224 272
224 273
224 274
224 275
224 276
224 278
224 279
224 280
224 281
224 282
224 284
224 285
224 286
224 287
224 289
224 290
224 291
224 292
224 294
224 295
224 297
224 298
224 299
224 300
224 302
224 303
224 304
224 305
224 307
224 308
224 309
224 311
224 312
224 314
224 315
224 316
224 318
224 319
224 320
224 323
224 324
224 326
224 327
224 329
224 332
224 333
224 334
224 335
224 336
225 226
225 227
225 228
225 229
225 230
225 232
225 233
225 234
225 235
225 237
225 238
225 239
225 241
225 242
225 244
225 245
225 247
225 248
225 251
225 252
225 254
225 255
225 256
225 257
225 258
225 260
225 263
225 265
225 266
225 267
225 269
225 270
225 271
225 273
225 274
225 275
225 276
225 277
225 279
225 280
225 281
225 282
225 283
225 284
225 286
225 287
225 288
225 290
225 291
225 292
225 293
225 296
225 298
225 299
225 300
225 301
225 303
225 305
225 306
225 308
225 309
225 310
225 312
225 313
225 315
225 316
225 318
225 319
225 320
225 322
225 324
225 325
225 326
225 327
225 328
225 329
225 330
225 332
225 333
225 334
225 335
225 336
226 227
226 228
226 229
226 230
226 231
226 232
226 233
226 235
226 236
226 237
226 238
226 239
226 241
226 242
226 243
226 244
226 245
226 246
226 248
226 249
226 250
226 251
226 252
226 253
226 254
226 256
226 257
226 258
226 260
226 263
226 264
226 265
226 266
226 267
226 268
226 269
226 271
226 272
226 274
226 277
226 278
226 279
226 281
226 282
226 284
226 285
226 286
226 287
226 288
226 289
226 291
226 293
226 296
226 297
226 299
226 301
226 303
226 305
226 306
226 307
226 309
226 310
226 312
226 313
226 314
226 316
226 318
226 319
226 320
226 322
226 323
226 324
226 325
226 326
226 327
226 328
226 329
226 330
226 332
226 333
226 334
226 335
226 336
227 228
227 229
227 230
227 231
227 233
227 234
227 235
227 236
227 238
227 239
227 241
227 242
227 243
227 244
227 245
227 247
227 248
227 251
227 252
227 253
227 255
227 256
227 258
227 260
227 263
227 264
227 265
227 266
227 267
227 268
227 269
227 271
227 272
227 274
227 277
227 278
227 280
227 281
227 284
227 285
227 286
227 287
227 288
227 289
227 291
227 293
227 296
227 297
227 299
227 301
227 303
227 305
227 306
227 307
227 309
227 310
227 312
227 313
227 314
227 316
227 317
227 318
227 320
227 322
227 323
227 324
227 325
227 326
227 327
227 328
227 329
227 330
227 332
227 333
227 334
227 335
227 336
228 229
228 230
228 231
228 232
228 234
228 235
228 236
228 237
228 239
228 241
228 242
228 243
228 245
228 246
228 247
228 249
228 250
228 251
228 252
228 253
228 254
228 255
228 257
228 258
228 259
228 261
228 262
228 263
228 264
228 266
228 267
228 268
228 270
228 271
228 272
228 273
228 275
228 276
228 277
228 278
228 279
228 280
228 282
228 283
228 284
228 285
228 287
228 288
228 289
228 290
228 292
228 293
228 296
228 297
228 298
228 300
228 301
228 302
228 304
228 305
228 306
228 307
228 308
228 310
228 311
228 313
228 314
228 315
228 317
228 318
228 319
228 322
228 323
228 325
228 327
228 328
228 330
228 331
228 332
228 334
229 230
229 231
229 232
229 233
229 234
229 236
229 237
229 238
229 239
229 242
229 243
229 244
229 245
229 248
229 252
229 253
229 254
229 255
229 256
229 257
229 258
229 260
229 264
229 265
229 267
229 268
229 269
229 270
229 271
229 272
229 274
229 277
229 278
229 281
229 283
229 285
229 286
229 288
229 289
229 290
229 291
229 292
229 293
229 296
229 297
229 299
229 301
229 303
229 306
229 307
229 308
229 309
229 310
229 312
229 313
229 314
229 316
229 317
229 319
229 320
229 322
229 323
229 324
229 325
229 326
229 328
229 329
229 330
229 331
229 333
229 335
229 336
230 231
230 232
230 233
230 235
230 236
230 237
230 238
230 240
230 241
230 243
230 244
230 246
230 247
230 248
230 249
230 250
230 251
230 253
230 254
230 255
230 256
230 257
230 259
230 260
230 261
230 262
230 263
230 264
230 265
230 266
230 268
230 269
230 270
230 272
230 273
230 274
230 275
230 276
230 278
230 279
230 280
230 281
230 282
230 284
230 285
230 286
230 287
230 289
230 290
230 291
230 292
230 294
230 295
230 297
230 298
230 299
230 300
230 302
230 303
230 304
230 305
230 307
230 308
230 309
230 311
230 312
230 314
230 315
230 316
230 318
230 319
230 320
230 323
230 324
230 326
230 327
230 329
230 332
230 333
230 334
230 335
230 336
231 232
231 233
231 234
231 235
231 237
231 238
231 239
231 241
231 242
231 244
231 245
231 248
231 251
231 252
231 254
231 255
231 256
231 257
231 258
231 260
231 263
231 265
231 266
231 267
231 269
231 270
231 271
231 273
231 274
231 275
231 276
231 277
231 279
231 280
231 281
231 282
231 283
231 284
231 286
231 287
231 288
231 290
231 291
231 292
231 293
231 296
231 298
231 299
231 300
231 301
231 303
231 305
231 306
231 308
231 309
231 310
231 312
231 313
231 315
231 316
231 318
231 319
231 320
231 322
231 324
231 325
231 326
231 327
231 328
231 329
231 330
231 332
231 333
231 334
231 335
231 336
232 233
232 234
232 235
232 236
232 238
232 239
232 241
232 242
232 243
232 244
232 245
232 248
232 251
232 252
232 253
232 256
232 258
232 260
232 263
232 264
232 265
232 266
232 267
232 268
232 269
232 271
232 272
232 274
232 277
232 278
232 281
232 284
232 285
232 286
232 287
232 288
232 289
232 291
232 293
232 296
232 297
232 299
232 301
232 303
232 305
232 306
232 307
232 309
232 310
232 312
232 313
232 314
232 316
232 317
232 318
232 320
232 322
232 323
232 324
232 325
232 326
232 327
232 328
232 329
232 330
232 332
232 333
232 334
232 335
232 336
233 234
233 235
233 236
233 237
233 239
233 241
233 242
233 243
233 245
233 246
233 247
233 249
233 250
233 251
233 252
233 253
233 254
233 255
233 257
233 258
233 259
233 261
233 262
233 263
233 264
233 266
233 267
233 268
233 270
233 271
233 272
233 273
233 275
233 276
233 277
233 278
233 279
233 280
233 282
233 283
233 284
233 285
233 287
233 288
233 289
233 290
233 292
233 293
233 296
233 297
233 298
233 300
233 301
233 302
233 304
233 305
233 306
233 307
233 308
233 310
233 311
233 313
233 314
233 315
233 317
233 318
233 319
233 322
233 323
233 325
233 327
233 328
233 330
233 331
233 332
233 334
234 235
234 236
234 237
234 238
234 241
234 243
234 244
234 248
234 251
234 253
234 256
234 260
234 263
234 264
234 265
234 266
234 268
234 269
234 272
234 274
234 278
234 281
234 284
234 285
234 286
234 287
234 289
234 291
234 297
234 299
234 303
234 305
234 307
234 309
234 312
234 314
234 316
234 318
234 319
234 320
234 323
234 324
234 326
234 327
234 329
234 332
234 333
234 334
234 335
234 336
235 236
235 237
235 238
235 242
235 243
235 244
235 248
235 252
235 253
235 254
235 255
235 256
235 257
235 260
235 264
235 265
235 267
235 268
235 269
235 270
235 272
235 274
235 278
235 281
235 283
235 285
235 286
235 288
235 289
235 290
235 291
235 292
235 297
235 299
235 303
235 306
235 307
235 308
235 309
235 312
235 314
235 316
235 317
235 319
235 320
235 323
235 324
235 326
235 328
235 329
235 331
235 333
235 335
235 336
236 237
236 238
236 241
236 242
236 244
236 248
236 251
236 252
236 254
236 255
236 256
236 257
236 260
236 263
236 265
236 266
236 267
236 269
236 270
236 271
236 273
236 274
236 275
236 276
236 277
236 279
236 280
236 281
236 282
236 283
236 284
236 286
236 287
236 288
236 290
236 291
236 292
236 296
236 298
236 299
236 300
236 303
236 305
236 306
236 308
236 309
236 312
236 313
236 315
236 316
236 317
236 318
236 319
236 320
236 322
236 324
236 326
236 327
236 329
236 331
236 332
236 333
236 334
236 335
236 336
237 238
237 241
237 243
237 244
237 248
237 251
237 253
237 256
237 260
237 263
237 264
237 265
237 266
237 268
237 269
237 272
237 274
237 278
237 281
237 283
237 284
237 285
237 286
237 287
237 289
237 291
237 297
237 299
237 303
237 305
237 307
237 309
237 312
237 314
237 316
237 317
237 318
237 320
237 323
237 324
237 326
237 327
237 329
237 331
237 332
237 333
237 334
237 335
237 336
238 241
238 242
238 243
238 245
238 246
238 247
238 249
238 250
238 251
238 252
238 253
238 254
238 255
238 257
238 258
238 259
238 261
238 262
238 263
238 264
238 266
238 267
238 268
238 270
238 271
238 272
238 273
238 275
238 276
238 277
238 278
238 279
238 280
238 282
238 283
238 284
238 285
238 287
238 288
238 289
238 290
238 292
238 296
238 297
238 298
238 300
238 301
238 302
238 304
238 305
238 306
238 307
238 308
238 310
238 311
238 313
238 314
238 315
238 317
238 318
238 319
238 322
238 323
238 325
238 327
238 328
238 331
238 332
238 334
239 240
239 241
239 243
239 244
239 246
239 247
239 248
239 249
239 250
239 251
239 253
239 254
239 255
239 256
239 257
239 259
239 260
239 261
239 262
239 266
239 268
239 269
239 270
239 272
239 273
239 274
239 275
239 276
239 278
239 279
239 280
239 281
239 282
239 287
239 289
239 290
239 291
239 292
239 294
239 295
239 297
239 298
239 299
239 300
239 302
239 303
239 304
239 305
239 307
239 308
239 309
239 311
239 312
239 314
239 315
239 316
239 321
239 323
239 324
239 326
239 327
239 329
240 242
240 245
240 247
240 248
240 249
240 250
240 251
240 252
240 253
240 255
240 256
240 257
240 258
240 260
240 261
240 262
240 267
240 271
240 272
240 274
240 275
240 276
240 277
240 278
240 280
240 281
240 282
240 287
240 288
240 289
240 291
240 292
240 293
240 295
240 296
240 297
240 299
240 300
240 301
240 303
240 304
240 305
240 306
240 307
240 309
240 310
240 312
240 313
240 314
240 316
240 322
240 325
240 328
240 330
241 242
241 243
241 244
241 245
241 248
241 252
241 253
241 254
241 255
241 256
241 257
241 258
241 260
241 264
241 265
241 267
241 268
241 269
241 270
241 271
241 272
241 274
241 277
241 278
241 281
241 283
241 285
241 286
241 288
241 289
241 290
241 291
241 292
241 293
241 296
241 297
241 299
241 301
241 303
241 306
241 307
241 308
241 309
241 310
241 312
241 313
241 314
241 316
241 317
241 319
241 320
241 322
241 323
241 324
241 325
241 326
241 328
241 329
241 330
241 331
241 333
241 335
241 336
242 243
242 244
242 246
242 247
242 248
242 249
242 250
242 251
242 253
242 254
242 255
242 256
242 257
242 259
242 260
242 261
242 262
242 263
242 264
242 265
242 266
242 268
242 269
242 270
242 272
242 273
242 274
242 275
242 276
242 278
242 279
242 280
242 281
242 282
242 284
242 285
242 286
242 287
242 289
242 290
242 291
242 292
242 294
242 295
242 297
242 298
242 299
242 300
242 302
242 303
242 304
242 305
242 307
242 308
242 309
242 311
242 312
242 314
242 315
242 316
242 318
242 320
242 323
242 324
242 326
242 327
242 329
242 332
242 333
242 334
242 335
242 336
243 244
243 245
243 248
243 251
243 252
243 254
243 255
243 256
243 257
243 258
243 260
243 263
243 265
243 266
243 267
243 269
243 270
243 271
243 273
243 274
243 275
243 276
243 277
243 279
243 280
243 281
243 282
243 283
243 284
243 286
243 287
243 288
243 290
243 291
243 292
243 293
243 296
243 298
243 299
243 300
243 301
243 303
243 305
243 306
243 308
243 309
243 310
243 312
243 313
243 315
243 316
243 318
243 320
243 322
243 324
243 325
243 326
243 327
243 328
243 329
243 330
243 332
243 333
243 334
243 335
243 336
244 245
244 246
244 247
244 249
244 250
244 251
244 252
244 253
244 254
244 255
244 257
244 258
244 259
244 261
244 262
244 263
244 264
244 266
244 267
244 268
244 270
244 271
244 272
244 273
244 275
244 276
244 277
244 278
244 279
244 280
244 282
244 283
244 284
244 285
244 287
244 288
244 289
244 290
244 292
244 293
244 296
244 297
244 298
244 300
244 301
244 302
244 304
244 305
244 306
244 307
244 308
244 310
244 311
244 313
244 314
244 315
244 317
244 318
244 319
244 322
244 323
244 325
244 327
244 328
244 330
244 331
244 332
244 334
245 246
245 247
245 248
245 249
245 250
245 251
245 253
245 254
245 255
245 256
245 257
245 259
245 260
245 261
245 262
245 265
245 266
245 268
245 269
245 270
245 272
245 273
245 274
245 275
245 276
245 278
245 279
245 280
245 281
245 282
245 286
245 287
245 289
245 290
245 291
245 292
245 294
245 295
245 297
245 298
245 299
245 300
245 302
245 303
245 304
245 305
245 307
245 308
245 309
245 311
245 312
245 314
245 315
245 316
245 320
245 321
245 323
245 324
245 326
245 327
245 329
245 333
245 335
245 336
246 247
246 248
246 249
246 250
246 251
246 252
246 253
246 255
246 256
246 257
246 258
246 260
246 261
246 262
246 265
246 267
246 269
246 270
246 271
246 272
246 274
246 275
246 276
246 277
246 278
246 280
246 281
246 282
246 286
246 287
246 288
246 289
246 291
246 292
246 293
246 295
246 296
246 297
246 299
246 300
246 301
246 303
246 304
246 305
246 306
246 307
246 309
246 310
246 312
246 313
246 314
246 316
246 320
246 322
246 324
246 325
246 326
246 328
246 329
246 330
246 333
246 335
246 336
247 248
247 249
247 250
247 251
247 252
247 253
247 254
247 256
247 257
247 258
247 259
247 260
247 261
247 262
247 265
247 267
247 269
247 270
247 271
247 273
247 274
247 275
247 276
247 277
247 278
247 279
247 281
247 282
247 286
247 288
247 290
247 291
247 292
247 293
247 294
247 295
247 296
247 298
247 299
247 300
247 301
247 302
247 303
247 304
247 306
247 308
247 309
247 310
247 311
247 312
247 313
247 315
247 316
247 320
247 321
247 322
247 324
247 325
247 326
247 328
247 329
247 330
247 333
247 335
247 336
248 249
248 250
248 251
248 252
248 253
248 254
248 255
248 257
248 258
248 259
248 261
248 262
248 263
248 264
248 266
248 267
248 268
248 270
248 271
248 272
248 273
248 275
248 276
248 277
248 278
248 279
248 280
248 282
248 283
248 284
248 285
248 287
248 288
248 289
248 290
248 292
248 293
248 294
248 295
248 296
248 297
248 298
248 300
248 301
248 302
248 304
248 305
248 306
248 307
248 308
248 310
248 311
248 313
248 314
248 315
248 317
248 318
248 319
248 321
248 322
248 323
248 325
248 327
248 328
248 330
248 331
248 332
248 334
249 250
249 252
249 254
249 255
249 256
249 257
249 258
249 259
249 260
249 262
249 265
249 267
249 269
249 270
249 271
249 272
249 273
249 274
249 276
249 277
249 279
249 280
249 281
249 282
249 286
249 288
249 290
249 291
249 292
249 293
249 294
249 295
249 296
249 298
249 299
249 300
249 301
249 302
249 303
249 304
249 306
249 308
249 309
249 310
249 311
249 312
249 313
249 315
249 316
249 320
249 321
249 322
249 324
249 325
249 326
249 328
249 329
249 330
249 333
249 335
249 336
250 251
250 252
250 253
250 254
250 255
250 256
250 258
250 259
250 260
250 261
250 265
250 266
250 267
250 268
250 269
250 271
250 272
250 273
250 274
250 275
250 277
250 278
250 279
250 280
250 281
250 286
250 287
250 288
250 289
250 290
250 291
250 293
250 294
250 296
250 297
250 298
250 299
250 301
250 302
250 303
250 306
250 308
250 309
250 310
250 311
250 312
250 313
250 315
250 316
250 320
250 321
250 322
250 324
250 325
250 326
250 328
250 329
250 330
250 333
250 335
250 336
251 252
251 253
251 254
251 255
251 256
251 257
251 258
251 259
251 260
251 262
251 264
251 265
251 267
251 268
251 269
251 270
251 271
251 272
251 273
251 274
251 276
251 277
251 278
251 279
251 280
251 281
251 282
251 283
251 285
251 286
251 288
251 289
251 290
251 291
251 292
251 293
251 294
251 295
251 296
251 297
251 298
251 299
251 300
251 301
251 302
251 303
251 304
251 306
251 307
251 308
251 309
251 310
251 311
251 312
251 313
251 314
251 315
251 316
251 317
251 319
251 320
251 321
251 322
251 323
251 324
251 325
251 326
251 328
251 329
251 330
251 331
251 333
251 335
251 336
252 253
252 254
252 255
252 256
252 257
252 259
252 260
252 261
252 262
252 263
252 264
252 265
252 266
252 268
252 269
252 270
252 272
252 273
252 274
252 275
252 276
252 278
252 279
252 280
252 281
252 282
252 284
252 285
252 286
252 287
252 289
252 290
252 291
252 292
252 294
252 295
252 297
252 298
252 299
252 300
252 302
252 303
252 304
252 305
252 307
252 308
252 309
252 311
252 312
252 314
252 315
252 316
252 318
252 320
252 321
252 323
252 324
252 326
252 327
252 329
252 332
252 333
252 334
252 335
252 336
253 254
253 255
253 256
253 257
253 258
253 259
253 260
253 262
253 263
253 265
253 266
253 267
253 269
253 270
253 271
253 273
253 274
253 275
253 276
253 277
253 279
253 280
253 281
253 282
253 283
253 284
253 286
253 287
253 288
253 290
253 291
253 292
253 293
253 294
253 295
253 296
253 298
253 299
253 300
253 301
253 302
253 303
253 304
253 305
253 306
253 308
253 309
253 310
253 311
253 312
253 313
253 315
253 316
253 318
253 320
253 321
253 322
253 324
253 325
253 326
253 327
253 328
253 329
253 330
253 332
253 333
253 334
253 335
253 336
254 255
254 256
254 257
254 258
254 260
254 261
254 262
254 263
254 264
254 265
254 266
254 267
254 268
254 269
254 270
254 271
254 272
254 274
254 275
254 276
254 277
254 278
254 280
254 281
254 282
254 284
254 285
254 286
254 287
254 288
254 289
254 291
254 292
254 293
254 295
254 296
254 297
254 299
254 300
254 301
254 303
254 304
254 305
254 306
254 307
254 309
254 310
254 312
254 313
254 314
254 316
254 318
254 320
254 322
254 323
254 324
254 325
254 326
254 327
254 328
254 329
254 330
254 332
254 333
254 334
254 335
254 336
255 256
255 257
255 258
255 259
255 260
255 262
255 263
255 264
255 265
255 266
255 267
255 268
255 269
255 270
255 271
255 272
255 273
255 274
255 276
255 277
255 278
255 279
255 281
255 282
255 284
255 285
255 286
255 287
255 288
255 289
255 290
255 291
255 292
255 293
255 294
255 295
255 296
255 297
255 298
255 299
255 300
255 301
255 302
255 303
255 304
255 305
255 306
255 307
255 308
255 309
255 310
255 311
255 312
255 313
255 314
255 315
255 316
255 318
255 320
255 321
255 322
255 323
255 324
255 325
255 326
255 327
255 328
255 329
255 330
255 332
255 333
255 334
255 335
255 336
256 257
256 258
256 259
256 261
256 262
256 263
256 264
256 266
256 267
256 268
256 270
256 271
256 272
256 273
256 275
256 276
256 277
256 278
256 279
256 280
256 282
256 283
256 284
256 285
256 287
256 288
256 289
256 290
256 292
256 293
256 294
256 295
256 296
256 297
256 298
256 300
256 301
256 302
256 304
256 305
256 306
256 307
256 308
256 310
256 311
256 313
256 314
256 315
256 317
256 318
256 319
256 321
256 322
256 323
256 325
256 327
256 328
256 330
256 331
256 332
256 334
257 258
257 259
257 260
257 261
257 263
257 264
257 265
257 266
257 267
257 268
257 269
257 271
257 272
257 273
257 274
257 275
257 277
257 278
257 279
257 280
257 281
257 284
257 285
257 286
257 287
257 288
257 289
257 290
257 291
257 293
257 294
257 296
257 297
257 298
257 299
257 301
257 302
257 303
257 305
257 306
257 307
257 308
257 309
257 310
257 311
257 312
257 313
257 314
257 315
257 316
257 318
257 320
257 321
257 322
257 323
257 324
257 325
257 326
257 327
257 328
257 329
257 330
257 332
257 333
257 334
257 335
257 336
258 259
258 260
258 261
258 262
258 265
258 266
258 268
258 269
258 270
258 272
258 273
258 274
258 275
258 276
258 278
258 279
258 280
258 281
258 282
258 286
258 287
258 289
258 290
258 291
258 292
258 294
258 295
258 297
258 298
258 299
258 300
258 302
258 303
258 304
258 305
258 307
258 308
258 309
258 311
258 312
258 314
258 315
258 316
258 320
258 321
258 323
258 324
258 326
258 327
258 329
258 333
258 335
258 336
259 260
259 261
259 262
259 265
259 267
259 269
259 270
259 271
259 272
259 274
259 275
259 276
259 277
259 278
259 280
259 281
259 282
259 286
259 287
259 288
259 289
259 291
259 292
259 293
259 295
259 296
259 297
259 299
259 300
259 301
259 303
259 304
259 305
259 306
259 307
259 309
259 310
259 312
259 313
259 314
259 316
259 320
259 322
259 324
259 325
259 326
259 328
259 329
259 330
259 333
259 335
259 336
260 261
260 262
260 263
260 264
260 266
260 267
260 268
260 270
260 271
260 272
260 273
260 275
260 276
260 277
260 278
260 279
260 280
260 282
260 283
260 284
260 285
260 287
260 288
260 289
260 290
260 292
260 293
260 294
260 295
260 296
260 297
260 298
260 300
260 301
260 302
260 304
260 305
260 306
260 307
260 308
260 310
260 311
260 313
260 314
260 315
260 317
260 318
260 319
260 321
260 322
260 323
260 325
260 327
260 328
260 330
260 331
260 332
260 334
261 262
261 265
261 267
261 269
261 270
261 271
261 272
261 273
261 274
261 276
261 277
261 279
261 281
261 282
261 286
261 288
261 290
261 291
261 292
261 293
261 294
261 295
261 296
261 298
261 299
261 300
261 301
261 302
261 303
261 304
261 306
261 308
261 309
261 310
261 311
261 312
261 313
261 315
261 316
261 320
261 321
261 322
261 324
261 325
261 326
261 328
261 329
261 330
261 333
261 335
261 336
262 265
262 266
262 267
262 268
262 269
262 271
262 272
262 273
262 274
262 275
262 277
262 278
262 279
262 280
262 281
262 286
262 287
262 288
262 289
262 290
262 291
262 293
262 294
262 296
262 297
262 298
262 299
262 301
262 302
262 303
262 306
262 308
262 309
262 310
262 311
262 312
262 313
262 315
262 316
262 320
262 321
262 322
262 324
262 325
262 326
262 328
262 329
262 330
262 333
262 335
262 336
263 264
263 265
263 267
263 268
263 269
263 270
263 272
263 274
263 278
263 281
263 283
263 285
263 286
263 288
263 289
263 290
263 291
263 292
263 297
263 299
263 303
263 306
263 307
263 308
263 309
263 312
263 314
263 316
263 317
263 319
263 320
263 323
263 324
263 326
263 328
263 329
263 331
263 333
263 335
263 336
264 265
264 266
264 267
264 269
264 270
264 271
264 273
264 274
264 275
264 276
264 277
264 279
264 280
264 281
264 282
264 283
264 284
264 286
264 287
264 288
264 290
264 291
264 292
264 296
264 298
264 299
264 300
264 303
264 305
264 306
264 308
264 309
264 312
264 313
264 315
264 316
264 318
264 320
264 322
264 324
264 326
264 327
264 329
264 332
264 333
264 334
264 335
264 336
265 266
265 267
265 268
265 270
265 271
265 272
265 273
265 275
265 276
265 277
265 278
265 279
265 280
265 282
265 283
265 284
265 285
265 287
265 288
265 289
265 290
265 292
265 296
265 297
265 298
265 300
265 301
265 302
265 304
265 305
265 306
265 307
265 308
265 310
265 311
265 313
265 314
265 315
265 317
265 318
265 319
265 322
265 323
265 325
265 327
265 328
265 331
265 332
265 334
266 267
266 268
266 269
266 270
266 271
266 272
266 274
266 276
266 277
266 278
266 281
266 282
266 283
266 285
266 286
266 288
266 289
266 290
266 291
266 292
266 293
266 295
266 296
266 297
266 299
266 300
266 301
266 303
266 304
266 306
266 307
266 308
266 309
266 310
266 312
266 313
266 314
266 316
266 317
266 319
266 320
266 322
266 323
266 324
266 325
266 326
266 328
266 329
266 330
266 331
266 333
266 335
266 336
267 268
267 269
267 270
267 272
267 273
267 274
267 275
267 276
267 278
267 279
267 280
267 281
267 282
267 284
267 285
267 286
267 287
267 289
267 290
267 291
267 292
267 294
267 295
267 297
267 298
267 299
267 300
267 302
267 303
267 304
267 305
267 307
267 308
267 309
267 311
267 312
267 314
267 315
267 316
267 318
267 320
267 323
267 324
267 326
267 327
267 329
267 332
267 333
267 334
267 335
267 336
268 269
268 270
268 271
268 273
268 274
268 275
268 276
268 277
268 279
268 280
268 281
268 282
268 283
268 284
268 286
268 287
268 288
268 290
268 291
268 292
268 293
268 295
268 296
268 298
268 299
268 300
268 301
268 303
268 304
268 305
268 306
268 308
268 309
268 310
268 312
268 313
268 315
268 316
268 318
268 320
268 322
268 324
268 325
268 326
268 327
268 328
268 329
268 330
268 332
268 333
268 334
268 335
268 336
269 270
269 271
269 272
269 273
269 275
269 276
269 277
269 278
269 279
269 280
269 282
269 283
269 284
269 285
269 287
269 288
269 289
269 290
269 292
269 293
269 295
269 296
269 297
269 298
269 300
269 301
269 302
269 304
269 305
269 306
269 307
269 308
269 310
269 311
269 313
269 314
269 315
269 317
269 318
269 319
269 322
269 323
269 325
269 327
269 328
269 330
269 331
269 332
269 334
270 271
270 272
270 273
270 274
270 275
270 277
270 278
270 279
270 280
270 281
270 284
270 285
270 286
270 287
270 288
270 289
270 290
270 291
270 293
270 294
270 296
270 297
270 298
270 299
270 301
270 302
270 303
270 305
270 306
270 307
270 309
270 310
270 312
270 313
270 314
270 316
270 318
270 320
270 322
270 323
270 324
270 325
270 326
270 327
270 328
270 329
270 330
270 332
270 333
270 334
270 335
270 336
271 272
271 273
271 274
271 275
271 276
271 278
271 279
271 280
271 281
271 282
271 285
271 286
271 287
271 289
271 290
271 291
271 292
271 294
271 295
271 297
271 298
271 299
271 300
271 302
271 303
271 304
271 305
271 307
271 308
271 309
271 311
271 312
271 314
271 315
271 316
271 320
271 321
271 323
271 324
271 326
271 327
271 329
271 333
271 335
271 336
272 273
272 274
272 275
272 276
272 277
272 279
272 280
272 281
272 282
272 283
272 284
272 286
272 287
272 288
272 290
272 291
272 292
272 293
272 294
272 295
272 296
272 298
272 299
272 300
272 301
272 302
272 303
272 304
272 305
272 306
272 308
272 309
272 310
272 311
272 312
272 313
272 315
272 316
272 320
272 321
272 322
272 324
272 325
272 326
272 328
272 329
272 330
272 333
272 335
272 336
273 274
273 275
273 276
273 277
273 278
273 280
273 281
273 282
273 285
273 286
273 287
273 288
273 289
273 291
273 292
273 293
273 295
273 296
273 297
273 299
273 300
273 301
273 303
273 304
273 305
273 306
273 307
273 309
273 310
273 312
273 313
273 314
273 316
273 320
273 322
273 323
273 324
273 325
273 326
273 328
273 329
273 330
273 333
273 335
273 336
274 275
274 276
274 277
274 278
274 279
274 280
274 282
274 283
274 284
274 285
274 287
274 288
274 289
274 290
274 292
274 293
274 294
274 295
274 296
274 297
274 298
274 300
274 301
274 302
274 304
274 305
274 306
274 307
274 308
274 310
274 311
274 313
274 314
274 315
274 317
274 318
274 319
274 321
274 322
274 323
274 325
274 327
274 328
274 330
274 331
274 332
274 334
275 276
275 277
275 278
275 279
275 281
275 282
275 285
275 286
275 288
275 289
275 290
275 291
275 292
275 293
275 294
275 295
275 296
275 297
275 298
275 299
275 300
275 301
275 302
275 303
275 304
275 306
275 307
275 308
275 309
275 310
275 311
275 312
275 313
275 314
275 315
275 316
275 320
275 321
275 322
275 323
275 324
275 325
275 326
275 328
275 329
275 330
275 333
275 335
275 336
276 277
276 278
276 279
276 280
276 281
276 285
276 286
276 287
276 288
276 289
276 290
276 291
276 293
276 294
276 296
276 297
276 298
276 299
276 301
276 302
276 303
276 306
276 307
276 308
276 309
276 310
276 311
276 312
276 313
276 314
276 315
276 316
276 320
276 321
276 322
276 323
276 324
276 325
276 326
276 328
276 329
276 330
276 333
276 335
276 336
277 278
277 279
277 280
277 281
277 282
277 285
277 286
277 287
277 289
277 290
277 291
277 292
277 294
277 295
277 297
277 298
277 299
277 300
277 302
277 303
277 304
277 305
277 307
277 308
277 309
277 311
277 312
277 314
277 315
277 316
277 320
277 321
277 323
277 324
277 326
277 327
277 329
277 333
277 335
277 336
278 279
278 280
278 281
278 282
278 283
278 284
278 286
278 287
278 288
278 290
278 291
278 292
278 293
278 294
278 295
278 296
278 298
278 299
278 300
278 301
278 302
278 303
278 304
278 305
278 306
278 308
278 309
278 310
278 311
278 312
278 313
278 315
278 316
278 320
278 321
278 322
278 324
278 325
278 326
278 328
278 329
278 330
278 333
278 335
278 336
279 280
279 281
279 282
279 285
279 286
279 287
279 288
279 289
279 291
279 292
279 293
279 295
279 296
279 297
279 299
279 300
279 301
279 303
279 304
279 305
279 306
279 307
279 309
279 310
279 312
279 313
279 314
279 316
279 320
279 322
279 323
279 324
279 325
279 326
279 328
279 329
279 330
279 333
279 335
279 336
280 281
280 282
280 285
280 286
280 288
280 289
280 290
280 291
280 292
280 293
280 294
280 295
280 296
280 297
280 298
280 299
280 300
280 301
280 302
280 303
280 304
280 306
280 307
280 308
280 309
280 310
280 311
280 312
280 313
280 314
280 315
280 316
280 320
280 321
280 322
280 323
280 324
280 325
280 326
280 328
280 329
280 330
280 333
280 335
280 336
281 282
281 283
281 284
281 285
281 287
281 288
281 289
281 290
281 292
281 293
281 294
281 295
281 296
281 297
281 298
281 300
281 301
281 302
281 304
281 305
281 306
281 307
281 308
281 310
281 311
281 313
281 314
281 315
281 317
281 318
281 319
281 321
281 322
281 323
281 325
281 327
281 328
281 330
281 331
281 332
281 334
282 285
282 286
282 287
282 288
282 289
282 290
282 291
282 293
282 294
282 296
282 297
282 298
282 299
282 301
282 302
282 303
282 306
282 307
282 308
282 309
282 310
282 311
282 312
282 313
282 314
282 315
282 316
282 320
282 321
282 322
282 323
282 324
282 325
282 326
282 328
282 329
282 330
282 333
282 335
282 336
283 284
283 285
283 286
283 287
283 289
283 291
283 297
283 299
283 303
283 305
283 307
283 309
283 312
283 314
283 316
283 318
283 319
283 320
283 323
283 324
283 326
283 327
283 329
283 332
283 333
283 334
283 335
283 336
284 285
284 286
284 288
284 289
284 290
284 291
284 292
284 297
284 299
284 303
284 306
284 307
284 308
284 309
284 312
284 314
284 316
284 317
284 319
284 320
284 323
284 324
284 326
284 328
284 329
284 331
284 333
284 335
284 336
285 286
285 287
285 288
285 290
285 291
285 292
285 296
285 298
285 299
285 300
285 303
285 305
285 306
285 308
285 309
285 312
285 313
285 315
285 316
285 317
285 318
285 320
285 322
285 324
285 326
285 327
285 329
285 331
285 332
285 333
285 334
285 335
285 336
286 287
286 288
286 289
286 290
286 292
286 296
286 297
286 298
286 300
286 301
286 302
286 304
286 305
286 306
286 307
286 308
286 310
286 311
286 313
286 314
286 315
286 317
286 318
286 319
286 322
286 323
286 325
286 327
286 328
286 331
286 332
286 334
287 288
287 289
287 290
287 291
287 292
287 293
287 294
287 295
287 296
287 297
287 298
287 299
287 300
287 301
287 302
287 303
287 304
287 306
287 307
287 308
287 309
287 310
287 311
287 312
287 313
287 314
287 315
287 316
287 317
287 319
287 320
287 321
287 322
287 323
287 324
287 325
287 326
287 328
287 329
287 330
287 331
287 333
287 335
287 336
288 289
288 290
288 291
288 292
288 294
288 295
288 297
288 298
288 299
288 300
288 302
288 303
288 304
288 305
288 307
288 308
288 309
288 311
288 312
288 314
288 315
288 316
288 318
288 320
288 321
288 323
288 324
288 326
288 327
288 329
288 332
288 333
288 334
288 335
288 336
289 290
289 291
289 292
289 293
289 294
289 295
289 296
289 298
289 299
289 300
289 301
289 302
289 303
289 304
289 305
289 306
289 308
289 309
289 310
289 311
289 312
289 313
289 315
289 316
289 318
289 320
289 321
289 322
289 324
289 325
289 326
289 327
289 328
289 329
289 330
289 332
289 333
289 334
289 335
289 336
290 291
290 292
290 293
290 295
290 296
290 297
290 299
290 300
290 301
290 303
290 304
290 305
290 306
290 307
290 309
290 310
290 312
290 313
290 314
290 316
290 318
290 320
290 322
290 323
290 324
290 325
290 326
290 327
290 328
290 329
290 330
290 332
290 333
290 334
290 335
290 336
291 292
291 293
291 294
291 295
291 296
291 297
291 298
291 300
291 301
291 302
291 304
291 305
291 306
291 307
291 308
291 310
291 311
291 313
291 314
291 315
291 317
291 318
291 319
291 321
291 322
291 323
291 325
291 327
291 328
291 330
291 331
291 332
291 334
292 293
292 294
292 296
292 297
292 298
292 299
292 301
292 302
292 303
292 305
292 306
292 307
292 308
292 309
292 310
292 311
292 312
292 313
292 314
292 315
292 316
292 318
292 320
292 321
292 322
292 323
292 324
292 325
292 326
292 327
292 328
292 329
292 330
292 332
292 333
292 334
292 335
292 336
293 294
293 295
293 297
293 298
293 299
293 300
293 302
293 303
293 304
293 305
293 307
293 308
293 309
293 311
293 312
293 314
293 315
293 316
293 321
293 323
293 324
293 326
293 327
293 329
294 295
294 296
294 297
294 299
294 300
294 301
294 303
294 304
294 305
294 306
294 307
294 309
294 310
294 312
294 313
294 314
294 316
294 322
294 325
294 328
294 330
295 296
295 297
295 298
295 299
295 301
295 302
295 303
295 306
295 308
295 310
295 311
295 313
295 315
295 321
295 322
295 325
295 328
295 330
296 297
296 298
296 299
296 300
296 302
296 303
296 304
296 305
296 307
296 308
296 309
296 311
296 312
296 314
296 315
296 316
296 320
296 321
296 323
296 324
296 326
296 327
296 329
296 333
296 335
296 336
297 298
297 299
297 300
297 301
297 302
297 303
297 304
297 305
297 306
297 308
297 309
297 310
297 311
297 312
297 313
297 315
297 316
297 320
297 321
297 322
297 324
297 325
297 326
297 328
297 329
297 330
297 333
297 335
297 336
298 299
298 300
298 301
298 303
298 304
298 305
298 306
298 307
298 309
298 310
298 312
298 313
298 314
298 316
298 320
298 322
298 323
298 324
298 325
298 326
298 328
298 329
298 330
298 333
298 335
298 336
299 300
299 301
299 302
299 304
299 305
299 306
299 307
299 308
299 310
299 311
299 313
299 314
299 315
299 317
299 318
299 319
299 321
299 322
299 323
299 325
299 327
299 328
299 330
299 331
299 332
299 334
300 301
300 302
300 303
300 306
300 307
300 308
300 309
300 310
300 311
300 312
300 313
300 314
300 315
300 316
300 320
300 321
300 322
300 323
300 324
300 325
300 326
300 328
300 329
300 330
300 333
300 335
300 336
301 302
301 303
301 304
301 305
301 307
301 308
301 309
301 311
301 312
301 314
301 315
301 316
301 320
301 321
301 323
301 324
301 326
301 327
301 329
301 333
301 335
301 336
302 303
302 304
302 305
302 306
302 307
302 309
302 310
302 312
302 313
302 314
302 316
302 320
302 322
302 324
302 325
302 326
302 328
302 329
302 330
302 333
302 335
302 336
303 304
303 305
303 306
303 307
303 308
303 310
303 311
303 313
303 314
303 315
303 317
303 318
303 319
303 321
303 322
303 323
303 325
303 327
303 328
303 330
303 331
303 332
303 334
304 306
304 308
304 309
304 310
304 311
304 312
304 313
304 315
304 316
304 320
304 321
304 322
304 324
304 325
304 326
304 328
304 329
304 330
304 333
304 335
304 336
305 306
305 307
305 308
305 309
305 310
305 311
305 312
305 313
305 314
305 315
305 316
305 317
305 319
305 320
305 321
305 322
305 323
305 324
305 325
305 326
305 328
305 329
305 330
305 331
305 333
305 335
305 336
306 307
306 308
306 309
306 311
306 312
306 314
306 315
306 316
306 318
306 320
306 321
306 323
306 324
306 326
306 327
306 329
306 332
306 333
306 334
306 335
306 336
307 308
307 309
307 310
307 311
307 312
307 313
307 315
307 316
307 318
307 320
307 321
307 322
307 324
307 325
307 326
307 327
307 328
307 329
307 330
307 332
307 333
307 334
307 335
307 336
308 309
308 310
308 312
308 313
308 314
308 316
308 318
308 320
308 322
308 323
308 324
308 325
308 326
308 327
308 328
308 329
308 330
308 332
308 333
308 334
308 335
308 336
309 310
309 311
309 313
309 314
309 315
309 317
309 318
309 319
309 321
309 322
309 323
309 325
309 327
309 328
309 330
309 331
309 332
309 334
310 311
310 312
310 314
310 315
310 316
310 320
310 321
310 323
310 324
310 326
310 327
310 329
310 333
310 335
310 336
311 312
311 313
311 314
311 316
311 320
311 322
311 324
311 325
311 326
311 328
311 329
311 330
311 333
311 335
311 336
312 313
312 314
312 315
312 317
312 318
312 319
312 321
312 322
312 323
312 325
312 327
312 328
312 330
312 331
312 332
312 334
313 314
313 315
313 316
313 320
313 321
313 323
313 324
313 326
313 327
313 329
313 333
313 335
313 336
314 315
314 316
314 320
314 321
314 322
314 324
314 325
314 326
314 328
314 329
314 330
314 333
314 335
314 336
315 316
315 320
315 322
315 323
315 324
315 325
315 326
315 328
315 329
315 330
315 333
315 335
315 336
316 317
316 318
316 319
316 321
316 322
316 323
316 325
316 327
316 328
316 330
316 331
316 332
316 334
317 318
317 319
317 320
317 324
317 326
317 327
317 329
317 332
317 333
317 334
317 335
317 336
318 319
318 320
318 324
318 326
318 328
318 329
318 331
318 333
318 335
318 336
319 320
319 324
319 326
319 327
319 329
319 331
319 332
319 333
319 334
319 335
319 336
320 322
320 323
320 325
320 327
320 328
320 331
320 332
320 334
322 323
322 324
322 326
322 327
322 329
322 333
322 335
322 336
323 324
323 325
323 326
323 328
323 329
323 330
323 333
323 335
323 336
324 325
324 327
324 328
324 330
324 331
324 332
324 334
325 326
325 327
325 329
325 333
325 335
325 336
326 327
326 328
326 330
326 331
326 332
326 334
327 328
327 329
327 330
327 331
327 333
327 335
327 336
328 329
328 332
328 333
328 334
328 335
328 336
329 330
329 331
329 332
329 334
331 332
331 333
331 334
331 335
331 336
332 333
332 335
332 336
333 334
334 335
334 336
