265:11393
0 2
0 5
0 7
0 8
0 15
0 16
0 24
0 25
0 27
0 28
0 29
0 31
0 32
0 33
0 34
0 36
1 3
1 7
1 9
1 12
1 18
2 3
2 6
2 7
2 9
2 12
2 17
2 18
2 26
2 30
2 35
3 5
3 7
3 8
3 11
3 15
3 16
3 19
3 24
3 25
3 27
3 28
3 29
3 31
3 32
3 33
3 34
3 36
4 14
5 6
5 8
5 9
5 16
5 17
5 19
5 22
5 25
5 26
5 27
5 29
5 30
5 31
5 32
5 34
5 35
5 36
5 38
5 39
5 41
5 42
5 43
5 47
5 48
5 49
5 56
5 57
5 58
5 59
5 61
5 62
5 71
5 72
5 73
5 74
5 77
5 78
5 79
5 80
5 81
6 7
6 8
6 15
6 16
6 18
6 20
6 21
6 24
6 25
6 27
6 28
6 29
6 31
6 32
6 33
6 34
6 36
6 37
6 40
6 46
6 55
6 60
6 70
6 76
7 8
7 9
7 11
7 16
7 17
7 19
7 22
7 25
7 26
7 27
7 29
7 30
7 31
7 32
7 34
7 35
7 36
7 38
7 39
7 41
7 42
7 43
7 47
7 48
7 49
7 56
7 57
7 58
7 59
7 61
7 62
7 71
7 72
7 73
7 74
7 77
7 78
7 79
7 80
7 81
8 9
8 12
8 15
8 17
8 18
8 20
8 21
8 24
8 26
8 28
8 30
8 33
8 35
8 37
8 40
8 46
8 55
8 60
8 70
8 76
9 11
9 15
9 16
9 18
9 19
9 20
9 21
9 24
9 25
9 27
9 28
9 29
9 31
9 32
9 33
9 34
9 36
9 37
9 40
9 46
9 55
9 60
9 70
9 76
10 11
10 13
10 91
11 12
11 14
11 18
11 90
12 13
12 19
12 91
13 14
13 90
14 91
15 16
15 17
15 19
15 22
15 23
15 25
15 26
15 27
15 29
15 30
15 31
15 32
15 34
15 35
15 36
15 38
15 39
15 41
15 42
15 43
15 44
15 47
15 48
15 49
15 50
15 53
15 56
15 57
15 58
15 59
15 61
15 62
15 63
15 67
15 71
15 72
15 73
15 74
15 77
15 78
15 79
15 80
15 81
15 85
15 92
15 94
15 100
15 116
16 17
16 18
16 20
16 21
16 24
16 26
16 27
16 28
16 30
16 31
16 32
16 33
16 35
16 36
16 37
16 39
16 40
16 42
16 43
16 45
16 46
16 48
16 49
16 51
16 52
16 54
16 55
16 57
16 58
16 59
16 60
16 62
16 64
16 65
16 66
16 68
16 69
16 70
16 72
16 73
16 74
16 76
16 78
16 79
16 80
16 81
16 86
16 87
16 88
16 89
16 93
16 95
16 96
16 101
16 102
16 103
16 117
16 118
16 119
16 120
16 121
17 18
17 20
17 21
17 22
17 23
17 24
17 25
17 27
17 28
17 29
17 31
17 32
17 33
17 34
17 36
17 37
17 38
17 40
17 41
17 44
17 46
17 47
17 50
17 53
17 55
17 56
17 60
17 61
17 63
17 67
17 70
17 71
17 76
17 77
17 85
17 92
17 94
17 100
17 116
18 19
18 22
18 25
18 26
18 27
18 29
18 30
18 31
18 32
18 34
18 35
18 36
18 38
18 39
18 41
18 42
18 43
18 47
18 48
18 49
18 56
18 57
18 58
18 59
18 61
18 62
18 71
18 72
18 73
18 74
18 77
18 78
18 79
18 80
18 81
19 20
19 21
19 24
19 28
19 33
19 37
19 40
19 46
19 55
19 60
19 70
19 76
20 22
20 25
20 26
20 27
20 29
20 30
20 31
20 32
20 34
20 35
20 36
20 38
20 39
20 41
20 42
20 43
20 47
20 48
20 49
20 56
20 57
20 58
20 59
20 61
20 62
20 71
20 72
20 73
20 74
20 77
20 78
20 79
20 80
20 81
21 22
21 23
21 25
21 26
21 27
21 29
21 30
21 31
21 32
21 34
21 35
21 36
21 38
21 39
21 41
21 42
21 43
21 44
21 47
21 48
21 49
21 50
21 53
21 56
21 57
21 58
21 59
21 61
21 62
21 63
21 67
21 71
21 72
21 73
21 74
21 77
21 78
21 79
21 80
21 81
21 85
21 92
21 94
21 100
21 116
22 24
22 26
22 27
22 28
22 30
22 31
22 32
22 33
22 35
22 36
22 37
22 39
22 40
22 42
22 43
22 45
22 46
22 48
22 49
22 51
22 52
22 54
22 55
22 57
22 58
22 59
22 60
22 62
22 64
22 65
22 66
22 68
22 69
22 70
22 72
22 73
22 74
22 76
22 78
22 79
22 80
22 81
22 86
22 87
22 88
22 89
22 93
22 95
22 96
22 101
22 102
22 103
22 117
22 118
22 119
22 120
22 121
23 24
23 26
23 27
23 28
23 30
23 31
23 32
23 33
23 35
23 36
23 37
23 39
23 40
23 42
23 43
23 45
23 46
23 48
23 49
23 51
23 52
23 54
23 55
23 57
23 58
23 59
23 60
23 62
23 64
23 65
23 66
23 68
23 69
23 70
23 72
23 73
23 74
23 76
23 78
23 79
23 80
23 81
23 86
23 87
23 88
23 89
23 93
23 95
23 96
23 101
23 102
23 103
23 117
23 118
23 119
23 120
23 121
24 25
24 26
24 27
24 29
24 30
24 31
24 32
24 34
24 35
24 36
24 38
24 39
24 41
24 42
24 43
24 44
24 47
24 48
24 49
24 50
24 53
24 56
24 57
24 58
24 59
24 61
24 62
24 63
24 67
24 71
24 72
24 73
24 74
24 77
24 78
24 79
24 80
24 81
24 85
24 88
24 92
24 93
24 94
24 96
24 100
24 103
24 108
24 114
24 116
24 120
24 125
24 133
24 134
24 139
24 144
24 155
24 160
24 164
24 175
24 178
25 26
25 27
25 28
25 30
25 31
25 32
25 33
25 35
25 36
25 37
25 39
25 40
25 42
25 43
25 45
25 46
25 48
25 49
25 51
25 52
25 54
25 55
25 57
25 58
25 59
25 60
25 62
25 64
25 65
25 66
25 68
25 69
25 70
25 72
25 73
25 74
25 76
25 78
25 79
25 80
25 81
25 86
25 87
25 88
25 89
25 93
25 95
25 96
25 101
25 102
25 103
25 108
25 114
25 117
25 118
25 119
25 120
25 121
25 125
25 133
25 134
25 139
25 144
25 155
25 160
25 164
25 175
25 178
26 27
26 28
26 29
26 31
26 32
26 33
26 34
26 36
26 37
26 38
26 40
26 41
26 43
26 44
26 46
26 47
26 50
26 53
26 55
26 56
26 59
26 60
26 61
26 62
26 63
26 67
26 70
26 71
26 76
26 77
26 80
26 85
26 88
26 92
26 93
26 94
26 96
26 100
26 103
26 108
26 114
26 116
26 120
26 125
26 133
26 134
26 139
26 144
26 155
26 160
26 164
26 175
26 178
27 28
27 29
27 30
27 31
27 33
27 34
27 35
27 37
27 38
27 40
27 41
27 42
27 44
27 46
27 47
27 50
27 53
27 55
27 56
27 57
27 58
27 60
27 61
27 63
27 67
27 70
27 71
27 76
27 77
27 78
27 79
27 81
27 85
27 86
27 87
27 89
27 92
27 94
27 95
27 100
27 101
27 102
27 107
27 112
27 113
27 115
27 116
27 117
27 118
27 119
27 121
27 122
27 123
27 124
27 126
27 131
27 132
27 135
27 136
27 137
27 138
27 140
27 141
27 142
27 143
27 153
27 154
27 156
27 157
27 158
27 159
27 161
27 162
27 163
27 174
27 176
27 177
28 29
28 30
28 31
28 32
28 34
28 35
28 36
28 38
28 39
28 41
28 42
28 43
28 44
28 45
28 47
28 48
28 49
28 50
28 52
28 53
28 56
28 57
28 58
28 59
28 61
28 62
28 63
28 65
28 67
28 71
28 72
28 73
28 74
28 77
28 78
28 79
28 80
28 81
28 85
28 87
28 88
28 92
28 93
28 94
28 95
28 96
28 98
28 100
28 102
28 103
28 107
28 108
28 113
28 114
28 116
28 119
28 120
28 124
28 125
28 129
28 132
28 133
28 134
28 138
28 139
28 143
28 144
28 148
28 154
28 155
28 159
28 160
28 163
28 164
28 175
28 178
28 182
28 188
28 195
28 203
28 212
29 30
29 31
29 32
29 33
29 35
29 36
29 37
29 39
29 40
29 42
29 43
29 45
29 46
29 48
29 49
29 51
29 52
29 54
29 55
29 57
29 58
29 59
29 60
29 62
29 64
29 65
29 66
29 68
29 69
29 70
29 72
29 73
29 74
29 76
29 78
29 79
29 80
29 81
29 86
29 87
29 88
29 89
29 93
29 95
29 96
29 98
29 101
29 102
29 103
29 107
29 108
29 113
29 114
29 117
29 118
29 119
29 120
29 121
29 124
29 125
29 129
29 132
29 133
29 134
29 138
29 139
29 143
29 144
29 148
29 154
29 155
29 159
29 160
29 163
29 164
29 175
29 178
29 182
29 188
29 195
29 203
29 212
30 31
30 32
30 33
30 34
30 36
30 37
30 38
30 39
30 40
30 41
30 42
30 43
30 44
30 45
30 46
30 47
30 49
30 50
30 52
30 53
30 55
30 56
30 58
30 59
30 60
30 61
30 62
30 63
30 65
30 67
30 70
30 71
30 73
30 76
30 77
30 79
30 80
30 85
30 87
30 88
30 92
30 93
30 94
30 95
30 96
30 98
30 100
30 102
30 103
30 107
30 108
30 113
30 114
30 116
30 119
30 120
30 124
30 125
30 129
30 132
30 133
30 134
30 138
30 139
30 143
30 144
30 148
30 154
30 155
30 159
30 160
30 163
30 164
30 175
30 178
30 182
30 188
30 195
30 203
30 212
31 32
31 33
31 34
31 35
31 37
31 38
31 40
31 41
31 43
31 44
31 46
31 47
31 48
31 50
31 51
31 53
31 55
31 56
31 57
31 59
31 60
31 61
31 62
31 63
31 64
31 66
31 67
31 70
31 71
31 72
31 74
31 76
31 77
31 78
31 80
31 81
31 85
31 86
31 88
31 89
31 92
31 93
31 94
31 96
31 97
31 99
31 100
31 101
31 103
31 108
31 112
31 114
31 115
31 116
31 117
31 118
31 120
31 121
31 122
31 123
31 125
31 126
31 127
31 128
31 130
31 131
31 133
31 134
31 135
31 136
31 137
31 139
31 140
31 141
31 142
31 144
31 145
31 146
31 147
31 149
31 153
31 155
31 156
31 157
31 158
31 160
31 161
31 162
31 164
31 175
31 178
31 179
31 180
31 181
31 186
31 187
31 192
31 193
31 194
31 199
31 200
31 201
31 202
31 208
31 209
31 210
31 211
31 213
32 33
32 34
32 35
32 36
32 37
32 38
32 39
32 40
32 41
32 42
32 44
32 45
32 46
32 47
32 49
32 50
32 52
32 53
32 55
32 56
32 57
32 58
32 60
32 61
32 63
32 65
32 67
32 70
32 71
32 73
32 76
32 77
32 78
32 79
32 81
32 85
32 86
32 87
32 89
32 92
32 94
32 95
32 98
32 100
32 101
32 102
32 107
32 112
32 113
32 115
32 116
32 117
32 118
32 119
32 121
32 122
32 123
32 124
32 126
32 129
32 131
32 132
32 135
32 136
32 137
32 138
32 140
32 141
32 142
32 143
32 148
32 153
32 154
32 156
32 157
32 158
32 159
32 161
32 162
32 163
32 174
32 176
32 177
32 182
32 188
32 195
32 203
32 212
33 34
33 35
33 36
33 38
33 39
33 41
33 42
33 43
33 44
33 45
33 47
33 48
33 49
33 50
33 52
33 53
33 56
33 57
33 58
33 59
33 61
33 62
33 63
33 65
33 67
33 71
33 72
33 73
33 74
33 77
33 78
33 79
33 80
33 81
33 85
33 87
33 92
33 94
33 95
33 98
33 100
33 102
33 107
33 113
33 116
33 119
33 124
33 129
33 132
33 138
33 143
33 148
33 154
33 159
33 163
33 182
33 188
33 195
33 203
33 212
34 35
34 36
34 37
34 39
34 40
34 42
34 43
34 45
34 46
34 48
34 49
34 51
34 52
34 54
34 55
34 57
34 58
34 59
34 60
34 62
34 64
34 65
34 66
34 68
34 69
34 70
34 72
34 73
34 74
34 76
34 78
34 79
34 80
34 81
34 86
34 87
34 88
34 89
34 93
34 95
34 96
34 98
34 101
34 102
34 103
34 107
34 113
34 117
34 118
34 119
34 120
34 121
34 124
34 129
34 132
34 138
34 143
34 148
34 154
34 159
34 163
34 182
34 188
34 195
34 203
34 212
35 36
35 37
35 38
35 39
35 40
35 41
35 42
35 44
35 45
35 46
35 47
35 49
35 50
35 52
35 53
35 55
35 56
35 58
35 60
35 61
35 63
35 65
35 67
35 70
35 71
35 73
35 76
35 77
35 79
35 85
35 87
35 92
35 94
35 95
35 98
35 100
35 102
35 107
35 113
35 116
35 119
35 124
35 129
35 132
35 138
35 143
35 148
35 154
35 159
35 163
35 182
35 188
35 195
35 203
35 212
36 37
36 38
36 40
36 41
36 43
36 44
36 46
36 47
36 48
36 50
36 51
36 53
36 55
36 56
36 57
36 59
36 60
36 61
36 63
36 64
36 66
36 67
36 70
36 71
36 72
36 74
36 76
36 77
36 78
36 80
36 81
36 85
36 86
36 88
36 89
36 92
36 94
36 96
36 97
36 99
36 100
36 101
36 103
36 108
36 112
36 114
36 115
36 116
36 117
36 118
36 120
36 121
36 122
36 123
36 125
36 126
36 127
36 128
36 130
36 131
36 133
36 135
36 136
36 137
36 139
36 140
36 141
36 142
36 144
36 145
36 146
36 147
36 149
36 153
36 155
36 156
36 157
36 158
36 160
36 161
36 162
36 164
36 179
36 180
36 181
36 186
36 187
36 192
36 193
36 194
36 199
36 200
36 201
36 202
36 208
36 209
36 210
36 211
36 213
37 38
37 39
37 41
37 42
37 43
37 44
37 45
37 47
37 48
37 49
37 50
37 52
37 53
37 56
37 57
37 58
37 59
37 61
37 62
37 63
37 65
37 67
37 71
37 72
37 73
37 74
37 77
37 78
37 79
37 80
37 81
37 85
37 87
37 92
37 94
37 95
37 98
37 100
37 102
37 107
37 113
37 116
37 119
37 124
37 129
37 132
37 138
37 143
37 148
37 154
37 159
37 163
37 182
37 188
37 195
37 203
37 212
38 39
38 40
38 42
38 43
38 45
38 46
38 48
38 49
38 51
38 52
38 54
38 55
38 57
38 58
38 59
38 60
38 62
38 64
38 65
38 66
38 68
38 69
38 70
38 72
38 73
38 74
38 76
38 78
38 79
38 80
38 81
38 86
38 87
38 88
38 89
38 93
38 95
38 96
38 98
38 101
38 102
38 103
38 107
38 113
38 117
38 118
38 119
38 120
38 121
38 124
38 129
38 132
38 138
38 143
38 148
38 154
38 159
38 163
38 182
38 188
38 195
38 203
38 212
39 40
39 41
39 43
39 44
39 46
39 47
39 48
39 50
39 51
39 53
39 55
39 56
39 57
39 59
39 60
39 61
39 63
39 64
39 66
39 67
39 70
39 71
39 72
39 74
39 76
39 77
39 78
39 80
39 81
39 85
39 86
39 88
39 89
39 92
39 94
39 96
39 97
39 99
39 100
39 101
39 103
39 108
39 112
39 114
39 115
39 116
39 117
39 118
39 120
39 121
39 122
39 123
39 125
39 126
39 127
39 128
39 130
39 131
39 133
39 135
39 136
39 137
39 139
39 140
39 141
39 142
39 144
39 145
39 146
39 147
39 149
39 153
39 155
39 156
39 157
39 158
39 160
39 161
39 162
39 164
39 179
39 180
39 181
39 186
39 187
39 192
39 193
39 194
39 199
39 200
39 201
39 202
39 208
39 209
39 210
39 211
39 213
40 41
40 42
40 43
40 44
40 45
40 47
40 48
40 49
40 50
40 52
40 53
40 56
40 57
40 58
40 59
40 61
40 62
40 63
40 65
40 67
40 71
40 72
40 73
40 74
40 77
40 78
40 79
40 80
40 81
40 85
40 87
40 88
40 92
40 93
40 94
40 95
40 96
40 98
40 100
40 102
40 103
40 107
40 108
40 113
40 114
40 116
40 119
40 120
40 124
40 125
40 129
40 132
40 133
40 134
40 138
40 139
40 143
40 144
40 148
40 154
40 155
40 159
40 160
40 163
40 164
40 175
40 178
40 182
40 188
40 195
40 203
40 212
41 42
41 43
41 45
41 46
41 48
41 49
41 51
41 52
41 54
41 55
41 57
41 58
41 59
41 60
41 62
41 64
41 65
41 66
41 68
41 69
41 70
41 72
41 73
41 74
41 76
41 78
41 79
41 80
41 81
41 86
41 87
41 88
41 89
41 93
41 95
41 96
41 98
41 101
41 102
41 103
41 107
41 108
41 113
41 114
41 117
41 118
41 119
41 120
41 121
41 124
41 125
41 129
41 132
41 133
41 134
41 138
41 139
41 143
41 144
41 148
41 154
41 155
41 159
41 160
41 163
41 164
41 175
41 178
41 182
41 188
41 195
41 203
41 212
42 43
42 44
42 46
42 47
42 48
42 50
42 51
42 53
42 55
42 56
42 57
42 59
42 60
42 61
42 62
42 63
42 64
42 66
42 67
42 70
42 71
42 72
42 74
42 76
42 77
42 78
42 80
42 81
42 85
42 86
42 88
42 89
42 92
42 93
42 94
42 96
42 97
42 99
42 100
42 101
42 103
42 108
42 112
42 114
42 115
42 116
42 117
42 118
42 120
42 121
42 122
42 123
42 125
42 126
42 127
42 128
42 130
42 131
42 133
42 134
42 135
42 136
42 137
42 139
42 140
42 141
42 142
42 144
42 145
42 146
42 147
42 149
42 153
42 155
42 156
42 157
42 158
42 160
42 161
42 162
42 164
42 175
42 178
42 179
42 180
42 181
42 186
42 187
42 192
42 193
42 194
42 199
42 200
42 201
42 202
42 208
42 209
42 210
42 211
42 213
43 44
43 45
43 46
43 47
43 49
43 50
43 52
43 53
43 55
43 56
43 57
43 58
43 60
43 61
43 63
43 65
43 67
43 70
43 71
43 73
43 76
43 77
43 78
43 79
43 81
43 85
43 86
43 87
43 89
43 92
43 94
43 95
43 98
43 100
43 101
43 102
43 107
43 112
43 113
43 115
43 116
43 117
43 118
43 119
43 121
43 122
43 123
43 124
43 126
43 129
43 131
43 132
43 135
43 136
43 137
43 138
43 140
43 141
43 142
43 143
43 148
43 153
43 154
43 156
43 157
43 158
43 159
43 161
43 162
43 163
43 174
43 176
43 177
43 182
43 188
43 195
43 203
43 212
44 45
44 46
44 48
44 49
44 51
44 52
44 54
44 55
44 57
44 58
44 59
44 60
44 62
44 64
44 65
44 66
44 68
44 69
44 70
44 72
44 73
44 74
44 76
44 78
44 79
44 80
44 81
44 86
44 87
44 88
44 89
44 93
44 95
44 96
44 98
44 101
44 102
44 103
44 107
44 113
44 117
44 118
44 119
44 120
44 121
44 124
44 129
44 132
44 138
44 143
44 148
44 154
44 159
44 163
44 182
44 188
44 195
44 203
44 212
45 46
45 47
45 48
45 50
45 51
45 53
45 55
45 56
45 57
45 59
45 61
45 63
45 64
45 66
45 67
45 70
45 71
45 72
45 74
45 76
45 77
45 78
45 80
45 81
45 85
45 86
45 88
45 89
45 92
45 94
45 96
45 97
45 99
45 100
45 101
45 103
45 108
45 112
45 114
45 115
45 116
45 117
45 118
45 120
45 121
45 122
45 123
45 125
45 126
45 127
45 128
45 130
45 131
45 133
45 135
45 136
45 137
45 139
45 140
45 141
45 142
45 144
45 145
45 146
45 147
45 149
45 153
45 155
45 156
45 157
45 158
45 160
45 161
45 162
45 164
45 179
45 180
45 181
45 186
45 187
45 192
45 193
45 194
45 199
45 200
45 201
45 202
45 208
45 209
45 210
45 211
45 213
46 47
46 48
46 49
46 50
46 51
46 52
46 53
46 54
46 56
46 57
46 58
46 59
46 61
46 62
46 63
46 64
46 65
46 67
46 68
46 71
46 72
46 73
46 74
46 75
46 77
46 78
46 79
46 80
46 81
46 82
46 85
46 86
46 87
46 92
46 94
46 95
46 97
46 98
46 100
46 101
46 102
46 107
46 112
46 113
46 116
46 118
46 119
46 123
46 124
46 128
46 129
46 131
46 132
46 136
46 138
46 142
46 143
46 146
46 148
46 151
46 154
46 157
46 159
46 163
46 171
46 180
46 182
46 188
46 195
46 200
46 203
46 209
46 212
46 215
46 219
47 48
47 49
47 51
47 52
47 54
47 55
47 57
47 58
47 59
47 60
47 62
47 64
47 65
47 66
47 68
47 69
47 70
47 72
47 73
47 74
47 75
47 76
47 78
47 79
47 80
47 81
47 82
47 86
47 87
47 88
47 89
47 93
47 95
47 96
47 97
47 98
47 101
47 102
47 103
47 107
47 112
47 113
47 117
47 118
47 119
47 120
47 121
47 123
47 124
47 128
47 129
47 131
47 132
47 136
47 138
47 142
47 143
47 146
47 148
47 151
47 154
47 157
47 159
47 163
47 171
47 180
47 182
47 188
47 195
47 200
47 203
47 209
47 212
47 215
47 219
48 49
48 50
48 52
48 53
48 55
48 56
48 58
48 59
48 60
48 61
48 63
48 65
48 66
48 67
48 69
48 70
48 71
48 73
48 74
48 76
48 77
48 79
48 80
48 81
48 83
48 85
48 87
48 88
48 89
48 92
48 94
48 95
48 98
48 99
48 100
48 102
48 103
48 107
48 113
48 114
48 115
48 116
48 117
48 119
48 120
48 121
48 122
48 124
48 125
48 126
48 127
48 129
48 130
48 132
48 133
48 135
48 137
48 138
48 139
48 140
48 141
48 143
48 144
48 145
48 147
48 148
48 149
48 150
48 152
48 154
48 156
48 158
48 159
48 160
48 163
48 170
48 172
48 173
48 179
48 181
48 182
48 188
48 195
48 199
48 201
48 202
48 203
48 208
48 210
48 211
48 212
48 213
48 214
48 216
48 217
48 218
48 220
48 221
48 222
49 50
49 51
49 53
49 54
49 55
49 56
49 57
49 59
49 60
49 61
49 63
49 64
49 66
49 67
49 68
49 70
49 71
49 72
49 74
49 75
49 76
49 77
49 78
49 80
49 81
49 82
49 85
49 86
49 88
49 89
49 92
49 94
49 96
49 97
49 99
49 100
49 101
49 103
49 108
49 112
49 114
49 115
49 116
49 117
49 118
49 120
49 121
49 122
49 123
49 125
49 126
49 127
49 128
49 130
49 131
49 133
49 135
49 136
49 137
49 139
49 140
49 141
49 142
49 144
49 145
49 146
49 147
49 149
49 151
49 153
49 155
49 156
49 157
49 158
49 160
49 161
49 162
49 164
49 171
49 179
49 180
49 181
49 186
49 187
49 192
49 193
49 194
49 199
49 200
49 201
49 202
49 208
49 209
49 210
49 211
49 213
49 215
49 219
50 51
50 52
50 54
50 55
50 57
50 58
50 59
50 60
50 62
50 64
50 65
50 66
50 68
50 69
50 70
50 72
50 73
50 74
50 75
50 76
50 78
50 79
50 80
50 81
50 82
50 86
50 87
50 88
50 89
50 93
50 95
50 96
50 97
50 98
50 101
50 102
50 103
50 107
50 112
50 113
50 117
50 118
50 119
50 120
50 121
50 123
50 124
50 128
50 129
50 131
50 132
50 136
50 138
50 142
50 143
50 146
50 148
50 151
50 154
50 157
50 159
50 163
50 171
50 180
50 182
50 188
50 195
50 200
50 203
50 209
50 212
50 215
50 219
51 52
51 53
51 55
51 56
51 58
51 59
51 61
51 63
51 65
51 66
51 67
51 69
51 70
51 71
51 73
51 74
51 76
51 77
51 79
51 80
51 81
51 83
51 85
51 87
51 88
51 89
51 92
51 94
51 95
51 98
51 99
51 100
51 102
51 103
51 107
51 113
51 114
51 115
51 116
51 117
51 119
51 120
51 121
51 122
51 124
51 125
51 126
51 127
51 129
51 130
51 132
51 133
51 135
51 137
51 138
51 139
51 140
51 141
51 143
51 144
51 145
51 147
51 148
51 149
51 150
51 152
51 154
51 156
51 158
51 159
51 160
51 163
51 170
51 172
51 173
51 179
51 181
51 182
51 188
51 195
51 199
51 201
51 202
51 203
51 208
51 210
51 211
51 212
51 213
51 214
51 216
51 217
51 218
51 220
51 221
51 222
52 53
52 54
52 55
52 56
52 57
52 59
52 61
52 63
52 64
52 66
52 67
52 68
52 70
52 71
52 72
52 74
52 75
52 76
52 77
52 78
52 80
52 81
52 82
52 85
52 86
52 88
52 89
52 92
52 94
52 96
52 97
52 99
52 100
52 101
52 103
52 108
52 112
52 114
52 115
52 116
52 117
52 118
52 120
52 121
52 122
52 123
52 125
52 126
52 127
52 128
52 130
52 131
52 133
52 135
52 136
52 137
52 139
52 140
52 141
52 142
52 144
52 145
52 146
52 147
52 149
52 151
52 153
52 155
52 156
52 157
52 158
52 160
52 161
52 162
52 164
52 171
52 179
52 180
52 181
52 186
52 187
52 192
52 193
52 194
52 199
52 200
52 201
52 202
52 208
52 209
52 210
52 211
52 213
52 215
52 219
53 54
53 55
53 57
53 58
53 59
53 60
53 62
53 64
53 65
53 66
53 68
53 69
53 70
53 72
53 73
53 74
53 75
53 76
53 78
53 79
53 80
53 81
53 82
53 86
53 87
53 88
53 89
53 93
53 95
53 96
53 97
53 101
53 102
53 103
53 112
53 117
53 118
53 119
53 120
53 121
53 123
53 128
53 131
53 136
53 142
53 146
53 151
53 157
53 171
53 180
53 200
53 209
53 215
53 219
54 55
54 56
54 58
54 59
54 61
54 63
54 65
54 66
54 67
54 69
54 70
54 71
54 73
54 74
54 76
54 77
54 79
54 80
54 81
54 83
54 85
54 87
54 88
54 89
54 92
54 94
54 98
54 99
54 100
54 102
54 103
54 113
54 114
54 115
54 116
54 117
54 119
54 120
54 121
54 122
54 124
54 125
54 126
54 127
54 129
54 130
54 132
54 133
54 135
54 137
54 138
54 139
54 140
54 141
54 143
54 144
54 145
54 147
54 148
54 149
54 150
54 152
54 156
54 158
54 159
54 160
54 170
54 172
54 173
54 179
54 181
54 182
54 199
54 201
54 202
54 203
54 208
54 210
54 211
54 212
54 213
54 214
54 216
54 217
54 218
54 220
54 221
54 222
55 56
55 57
55 58
55 59
55 61
55 62
55 63
55 64
55 65
55 67
55 68
55 71
55 72
55 73
55 74
55 75
55 77
55 78
55 79
55 80
55 81
55 82
55 85
55 86
55 87
55 88
55 92
55 93
55 94
55 95
55 96
55 97
55 98
55 100
55 101
55 102
55 103
55 107
55 108
55 112
55 113
55 114
55 116
55 118
55 119
55 120
55 123
55 124
55 125
55 128
55 129
55 131
55 132
55 133
55 134
55 136
55 138
55 139
55 142
55 143
55 144
55 146
55 148
55 151
55 154
55 155
55 157
55 159
55 160
55 163
55 164
55 171
55 175
55 178
55 180
55 182
55 188
55 195
55 200
55 203
55 209
55 212
55 215
55 219
56 57
56 58
56 59
56 60
56 62
56 64
56 65
56 66
56 68
56 69
56 70
56 72
56 73
56 74
56 75
56 76
56 78
56 79
56 80
56 81
56 82
56 86
56 87
56 88
56 89
56 93
56 95
56 96
56 97
56 98
56 101
56 102
56 103
56 107
56 108
56 112
56 113
56 114
56 117
56 118
56 119
56 120
56 121
56 123
56 124
56 125
56 128
56 129
56 131
56 132
56 133
56 134
56 136
56 138
56 139
56 142
56 143
56 144
56 146
56 148
56 151
56 154
56 155
56 157
56 159
56 160
56 163
56 164
56 171
56 175
56 178
56 180
56 182
56 188
56 195
56 200
56 203
56 209
56 212
56 215
56 219
57 58
57 59
57 60
57 61
57 62
57 63
57 65
57 66
57 67
57 69
57 70
57 71
57 73
57 74
57 76
57 77
57 79
57 80
57 81
57 83
57 85
57 87
57 88
57 89
57 92
57 93
57 94
57 95
57 96
57 98
57 99
57 100
57 102
57 103
57 107
57 108
57 113
57 114
57 115
57 116
57 117
57 119
57 120
57 121
57 122
57 124
57 125
57 126
57 127
57 129
57 130
57 132
57 133
57 134
57 135
57 137
57 138
57 139
57 140
57 141
57 143
57 144
57 145
57 147
57 148
57 149
57 150
57 152
57 154
57 155
57 156
57 158
57 159
57 160
57 163
57 164
57 170
57 172
57 173
57 175
57 178
57 179
57 181
57 182
57 188
57 195
57 199
57 201
57 202
57 203
57 208
57 210
57 211
57 212
57 213
57 214
57 216
57 217
57 218
57 220
57 221
57 222
58 59
58 60
58 61
58 62
58 63
58 64
58 66
58 67
58 68
58 70
58 71
58 72
58 74
58 75
58 76
58 77
58 78
58 80
58 81
58 82
58 85
58 86
58 88
58 89
58 92
58 93
58 94
58 96
58 97
58 99
58 100
58 101
58 103
58 108
58 112
58 114
58 115
58 116
58 117
58 118
58 120
58 121
58 122
58 123
58 125
58 126
58 127
58 128
58 130
58 131
58 133
58 134
58 135
58 136
58 137
58 139
58 140
58 141
58 142
58 144
58 145
58 146
58 147
58 149
58 151
58 153
58 155
58 156
58 157
58 158
58 160
58 161
58 162
58 164
58 171
58 175
58 178
58 179
58 180
58 181
58 186
58 187
58 192
58 193
58 194
58 199
58 200
58 201
58 202
58 208
58 209
58 210
58 211
58 213
58 215
58 219
59 60
59 61
59 63
59 64
59 65
59 67
59 68
59 70
59 71
59 72
59 73
59 75
59 76
59 77
59 78
59 79
59 81
59 82
59 85
59 86
59 87
59 89
59 92
59 94
59 95
59 97
59 98
59 100
59 101
59 102
59 107
59 112
59 113
59 115
59 116
59 117
59 118
59 119
59 121
59 122
59 123
59 124
59 126
59 128
59 129
59 131
59 132
59 135
59 136
59 137
59 138
59 140
59 141
59 142
59 143
59 146
59 148
59 151
59 153
59 154
59 156
59 157
59 158
59 159
59 161
59 162
59 163
59 171
59 174
59 176
59 177
59 180
59 182
59 188
59 195
59 200
59 203
59 209
59 212
59 215
59 219
60 61
60 62
60 63
60 67
60 71
60 72
60 73
60 74
60 77
60 78
60 79
60 80
60 81
60 85
60 88
60 92
60 93
60 94
60 96
60 100
60 103
60 108
60 114
60 116
60 120
60 125
60 133
60 134
60 139
60 144
60 155
60 160
60 164
60 175
60 178
61 62
61 64
61 65
61 66
61 68
61 69
61 70
61 72
61 73
61 74
61 76
61 78
61 79
61 80
61 81
61 86
61 87
61 88
61 89
61 93
61 95
61 96
61 101
61 102
61 103
61 108
61 114
61 117
61 118
61 119
61 120
61 121
61 125
61 133
61 134
61 139
61 144
61 155
61 160
61 164
61 175
61 178
62 63
62 67
62 70
62 71
62 76
62 77
62 78
62 79
62 81
62 85
62 86
62 87
62 89
62 92
62 94
62 95
62 100
62 101
62 102
62 107
62 112
62 113
62 115
62 116
62 117
62 118
62 119
62 121
62 122
62 123
62 124
62 126
62 131
62 132
62 135
62 136
62 137
62 138
62 140
62 141
62 142
62 143
62 153
62 154
62 156
62 157
62 158
62 159
62 161
62 162
62 163
62 174
62 176
62 177
63 64
63 65
63 66
63 68
63 69
63 70
63 72
63 73
63 74
63 75
63 76
63 78
63 79
63 80
63 81
63 82
63 83
63 84
63 86
63 87
63 88
63 89
63 93
63 95
63 96
63 97
63 98
63 99
63 101
63 102
63 103
63 106
63 107
63 112
63 113
63 115
63 117
63 118
63 119
63 120
63 121
63 123
63 124
63 126
63 128
63 129
63 130
63 131
63 132
63 136
63 138
63 140
63 142
63 143
63 146
63 148
63 149
63 151
63 152
63 154
63 157
63 159
63 163
63 171
63 173
63 180
63 182
63 188
63 195
63 200
63 203
63 205
63 209
63 212
63 213
63 215
63 219
63 222
63 225
63 237
64 65
64 66
64 67
64 69
64 70
64 71
64 73
64 74
64 76
64 77
64 79
64 80
64 81
64 83
64 84
64 85
64 87
64 88
64 89
64 92
64 94
64 95
64 98
64 99
64 100
64 102
64 103
64 106
64 107
64 113
64 114
64 115
64 116
64 117
64 119
64 120
64 121
64 122
64 124
64 125
64 126
64 127
64 129
64 130
64 132
64 133
64 135
64 137
64 138
64 139
64 140
64 141
64 143
64 144
64 145
64 147
64 148
64 149
64 150
64 152
64 154
64 156
64 158
64 159
64 160
64 163
64 170
64 172
64 173
64 179
64 181
64 182
64 188
64 195
64 199
64 201
64 202
64 203
64 205
64 208
64 210
64 211
64 212
64 213
64 214
64 216
64 217
64 218
64 220
64 221
64 222
64 225
64 237
65 66
65 67
65 68
65 69
65 70
65 71
65 72
65 74
65 75
65 76
65 77
65 78
65 80
65 81
65 82
65 83
65 84
65 85
65 86
65 88
65 89
65 92
65 94
65 96
65 97
65 99
65 100
65 101
65 103
65 106
65 108
65 112
65 114
65 115
65 116
65 117
65 118
65 120
65 121
65 122
65 123
65 125
65 126
65 127
65 128
65 130
65 131
65 133
65 135
65 136
65 137
65 139
65 140
65 141
65 142
65 144
65 145
65 146
65 147
65 149
65 151
65 152
65 153
65 155
65 156
65 157
65 158
65 160
65 161
65 162
65 164
65 171
65 173
65 179
65 180
65 181
65 186
65 187
65 192
65 193
65 194
65 199
65 200
65 201
65 202
65 205
65 208
65 209
65 210
65 211
65 213
65 215
65 219
65 222
65 225
65 237
66 67
66 68
66 70
66 71
66 72
66 73
66 75
66 76
66 77
66 78
66 79
66 80
66 82
66 85
66 86
66 87
66 88
66 92
66 94
66 95
66 97
66 98
66 100
66 101
66 102
66 105
66 107
66 112
66 113
66 114
66 116
66 117
66 118
66 119
66 120
66 122
66 123
66 124
66 125
66 127
66 128
66 129
66 131
66 132
66 135
66 136
66 137
66 138
66 139
66 142
66 143
66 145
66 146
66 147
66 148
66 150
66 151
66 154
66 157
66 159
66 163
66 170
66 171
66 172
66 180
66 182
66 188
66 195
66 200
66 203
66 204
66 208
66 209
66 210
66 211
66 212
66 215
66 218
66 219
66 220
66 221
66 223
66 224
66 234
66 235
66 236
67 68
67 69
67 70
67 72
67 73
67 74
67 75
67 76
67 78
67 79
67 80
67 81
67 82
67 83
67 84
67 86
67 87
67 88
67 89
67 93
67 95
67 96
67 97
67 99
67 101
67 102
67 103
67 106
67 112
67 115
67 117
67 118
67 119
67 120
67 121
67 123
67 126
67 128
67 130
67 131
67 136
67 140
67 142
67 146
67 149
67 151
67 152
67 157
67 171
67 173
67 180
67 200
67 205
67 209
67 213
67 215
67 219
67 222
67 225
67 237
68 69
68 70
68 71
68 73
68 74
68 76
68 77
68 79
68 80
68 81
68 83
68 84
68 85
68 87
68 88
68 89
68 92
68 94
68 98
68 99
68 100
68 102
68 103
68 106
68 113
68 114
68 115
68 116
68 117
68 119
68 120
68 121
68 122
68 124
68 125
68 126
68 127
68 129
68 130
68 132
68 133
68 135
68 137
68 138
68 139
68 140
68 141
68 143
68 144
68 145
68 147
68 148
68 149
68 150
68 152
68 156
68 158
68 159
68 160
68 170
68 172
68 173
68 179
68 181
68 182
68 199
68 201
68 202
68 203
68 205
68 208
68 210
68 211
68 212
68 213
68 214
68 216
68 217
68 218
68 220
68 221
68 222
68 225
68 237
69 70
69 71
69 72
69 73
69 75
69 76
69 77
69 78
69 79
69 80
69 82
69 85
69 86
69 87
69 88
69 92
69 94
69 97
69 98
69 100
69 101
69 105
69 112
69 113
69 114
69 116
69 117
69 118
69 119
69 120
69 122
69 123
69 124
69 125
69 127
69 128
69 129
69 131
69 135
69 136
69 137
69 138
69 139
69 142
69 145
69 146
69 147
69 148
69 150
69 151
69 157
69 170
69 171
69 172
69 180
69 200
69 204
69 208
69 209
69 210
69 211
69 212
69 215
69 218
69 219
69 220
69 221
69 223
69 224
69 234
69 235
69 236
70 71
70 72
70 73
70 74
70 75
70 77
70 78
70 79
70 80
70 81
70 82
70 83
70 84
70 85
70 86
70 87
70 89
70 92
70 94
70 95
70 97
70 98
70 99
70 100
70 101
70 102
70 106
70 107
70 112
70 113
70 115
70 116
70 118
70 119
70 121
70 123
70 124
70 126
70 128
70 129
70 130
70 131
70 132
70 136
70 138
70 140
70 142
70 143
70 146
70 148
70 149
70 151
70 152
70 154
70 157
70 159
70 163
70 171
70 173
70 180
70 182
70 188
70 195
70 200
70 203
70 205
70 209
70 212
70 213
70 215
70 219
70 222
70 225
70 237
71 72
71 73
71 74
71 75
71 76
71 78
71 79
71 80
71 81
71 82
71 83
71 84
71 86
71 87
71 88
71 89
71 93
71 95
71 96
71 97
71 98
71 99
71 101
71 102
71 103
71 106
71 107
71 112
71 113
71 115
71 117
71 118
71 119
71 120
71 121
71 123
71 124
71 126
71 128
71 129
71 130
71 131
71 132
71 136
71 138
71 140
71 142
71 143
71 146
71 148
71 149
71 151
71 152
71 154
71 157
71 159
71 163
71 171
71 173
71 180
71 182
71 188
71 195
71 200
71 203
71 205
71 209
71 212
71 213
71 215
71 219
71 222
71 225
71 237
72 73
72 74
72 76
72 77
72 79
72 80
72 81
72 83
72 84
72 85
72 87
72 88
72 89
72 92
72 94
72 95
72 98
72 99
72 100
72 102
72 103
72 106
72 107
72 113
72 114
72 115
72 116
72 117
72 119
72 120
72 121
72 122
72 124
72 125
72 126
72 127
72 129
72 130
72 132
72 133
72 135
72 137
72 138
72 139
72 140
72 141
72 143
72 144
72 145
72 147
72 148
72 149
72 150
72 152
72 154
72 156
72 158
72 159
72 160
72 163
72 170
72 172
72 173
72 179
72 181
72 182
72 188
72 195
72 199
72 201
72 202
72 203
72 205
72 208
72 210
72 211
72 212
72 213
72 214
72 216
72 217
72 218
72 220
72 221
72 222
72 225
72 237
73 74
73 75
73 76
73 77
73 78
73 80
73 81
73 82
73 83
73 84
73 85
73 86
73 88
73 89
73 92
73 94
73 96
73 97
73 99
73 100
73 101
73 103
73 106
73 108
73 112
73 114
73 115
73 116
73 117
73 118
73 120
73 121
73 122
73 123
73 125
73 126
73 127
73 128
73 130
73 131
73 133
73 135
73 136
73 137
73 139
73 140
73 141
73 142
73 144
73 145
73 146
73 147
73 149
73 151
73 152
73 153
73 155
73 156
73 157
73 158
73 160
73 161
73 162
73 164
73 171
73 173
73 179
73 180
73 181
73 186
73 187
73 192
73 193
73 194
73 199
73 200
73 201
73 202
73 205
73 208
73 209
73 210
73 211
73 213
73 215
73 219
73 222
73 225
73 237
74 75
74 76
74 77
74 78
74 79
74 80
74 82
74 85
74 86
74 87
74 88
74 92
74 94
74 95
74 97
74 98
74 100
74 101
74 102
74 105
74 107
74 112
74 113
74 114
74 116
74 117
74 118
74 119
74 120
74 122
74 123
74 124
74 125
74 127
74 128
74 129
74 131
74 132
74 135
74 136
74 137
74 138
74 139
74 142
74 143
74 145
74 146
74 147
74 148
74 150
74 151
74 154
74 157
74 159
74 163
74 170
74 171
74 172
74 180
74 182
74 188
74 195
74 200
74 203
74 204
74 208
74 209
74 210
74 211
74 212
74 215
74 218
74 219
74 220
74 221
74 223
74 224
74 234
74 235
74 236
75 76
75 77
75 79
75 80
75 81
75 83
75 85
75 87
75 88
75 89
75 98
75 99
75 100
75 102
75 103
75 113
75 114
75 115
75 116
75 117
75 119
75 120
75 121
75 122
75 124
75 125
75 126
75 127
75 129
75 130
75 132
75 133
75 135
75 137
75 138
75 139
75 140
75 141
75 143
75 144
75 145
75 147
75 148
75 149
75 150
75 152
75 156
75 158
75 159
75 160
75 170
75 172
75 173
75 179
75 181
75 182
75 199
75 201
75 202
75 203
75 208
75 210
75 211
75 212
75 213
75 214
75 216
75 217
75 218
75 220
75 221
75 222
76 77
76 78
76 79
76 80
76 81
76 82
76 83
76 84
76 85
76 86
76 87
76 88
76 89
76 92
76 93
76 94
76 95
76 96
76 97
76 98
76 99
76 100
76 101
76 102
76 103
76 106
76 107
76 108
76 112
76 113
76 114
76 115
76 116
76 118
76 119
76 120
76 121
76 123
76 124
76 125
76 126
76 128
76 129
76 130
76 131
76 132
76 133
76 134
76 136
76 138
76 139
76 140
76 142
76 143
76 144
76 146
76 148
76 149
76 151
76 152
76 154
76 155
76 157
76 159
76 160
76 163
76 164
76 171
76 173
76 175
76 178
76 180
76 182
76 188
76 195
76 200
76 203
76 205
76 209
76 212
76 213
76 215
76 219
76 222
76 225
76 237
77 78
77 79
77 80
77 81
77 82
77 83
77 84
77 86
77 87
77 88
77 89
77 93
77 95
77 96
77 97
77 98
77 99
77 101
77 102
77 103
77 106
77 107
77 108
77 112
77 113
77 114
77 115
77 117
77 118
77 119
77 120
77 121
77 123
77 124
77 125
77 126
77 128
77 129
77 130
77 131
77 132
77 133
77 134
77 136
77 138
77 139
77 140
77 142
77 143
77 144
77 146
77 148
77 149
77 151
77 152
77 154
77 155
77 157
77 159
77 160
77 163
77 164
77 171
77 173
77 175
77 178
77 180
77 182
77 188
77 195
77 200
77 203
77 205
77 209
77 212
77 213
77 215
77 219
77 222
77 225
77 237
78 79
78 80
78 81
78 83
78 84
78 85
78 87
78 88
78 89
78 92
78 93
78 94
78 95
78 96
78 98
78 99
78 100
78 102
78 103
78 106
78 107
78 108
78 113
78 114
78 115
78 116
78 117
78 119
78 120
78 121
78 122
78 124
78 125
78 126
78 127
78 129
78 130
78 132
78 133
78 134
78 135
78 137
78 138
78 139
78 140
78 141
78 143
78 144
78 145
78 147
78 148
78 149
78 150
78 152
78 154
78 155
78 156
78 158
78 159
78 160
78 163
78 164
78 170
78 172
78 173
78 175
78 178
78 179
78 181
78 182
78 188
78 195
78 199
78 201
78 202
78 203
78 205
78 208
78 210
78 211
78 212
78 213
78 214
78 216
78 217
78 218
78 220
78 221
78 222
78 225
78 237
79 80
79 81
79 82
79 83
79 84
79 85
79 86
79 88
79 89
79 92
79 93
79 94
79 96
79 97
79 99
79 100
79 101
79 103
79 106
79 108
79 112
79 114
79 115
79 116
79 117
79 118
79 120
79 121
79 122
79 123
79 125
79 126
79 127
79 128
79 130
79 131
79 133
79 134
79 135
79 136
79 137
79 139
79 140
79 141
79 142
79 144
79 145
79 146
79 147
79 149
79 151
79 152
79 153
79 155
79 156
79 157
79 158
79 160
79 161
79 162
79 164
79 171
79 173
79 175
79 178
79 179
79 180
79 181
79 186
79 187
79 192
79 193
79 194
79 199
79 200
79 201
79 202
79 205
79 208
79 209
79 210
79 211
79 213
79 215
79 219
79 222
79 225
79 237
80 81
80 82
80 83
80 84
80 85
80 86
80 87
80 89
80 92
80 94
80 95
80 97
80 98
80 99
80 100
80 101
80 102
80 106
80 107
80 112
80 113
80 115
80 116
80 117
80 118
80 119
80 121
80 122
80 123
80 124
80 126
80 128
80 129
80 130
80 131
80 132
80 135
80 136
80 137
80 138
80 140
80 141
80 142
80 143
80 146
80 148
80 149
80 151
80 152
80 153
80 154
80 156
80 157
80 158
80 159
80 161
80 162
80 163
80 171
80 173
80 174
80 176
80 177
80 180
80 182
80 188
80 195
80 200
80 203
80 205
80 209
80 212
80 213
80 215
80 219
80 222
80 225
80 237
81 82
81 85
81 86
81 87
81 88
81 92
81 93
81 94
81 95
81 96
81 97
81 98
81 100
81 101
81 102
81 103
81 105
81 107
81 108
81 112
81 113
81 114
81 116
81 117
81 118
81 119
81 120
81 122
81 123
81 124
81 125
81 127
81 128
81 129
81 131
81 132
81 133
81 134
81 135
81 136
81 137
81 138
81 139
81 142
81 143
81 144
81 145
81 146
81 147
81 148
81 150
81 151
81 154
81 155
81 157
81 159
81 160
81 163
81 164
81 170
81 171
81 172
81 175
81 178
81 180
81 182
81 188
81 195
81 200
81 203
81 204
81 208
81 209
81 210
81 211
81 212
81 215
81 218
81 219
81 220
81 221
81 223
81 224
81 234
81 235
81 236
82 83
82 84
82 85
82 87
82 88
82 89
82 98
82 99
82 100
82 102
82 103
82 106
82 113
82 114
82 115
82 116
82 117
82 119
82 120
82 121
82 122
82 124
82 125
82 126
82 127
82 129
82 130
82 132
82 133
82 135
82 137
82 138
82 139
82 140
82 141
82 143
82 144
82 145
82 147
82 148
82 149
82 150
82 152
82 156
82 158
82 159
82 160
82 170
82 172
82 173
82 179
82 181
82 182
82 199
82 201
82 202
82 203
82 205
82 208
82 210
82 211
82 212
82 213
82 214
82 216
82 217
82 218
82 220
82 221
82 222
82 225
82 237
83 85
83 86
83 87
83 88
83 97
83 98
83 101
83 105
83 112
83 113
83 114
83 116
83 117
83 118
83 119
83 120
83 122
83 123
83 124
83 125
83 127
83 128
83 129
83 131
83 135
83 136
83 137
83 138
83 139
83 142
83 145
83 146
83 147
83 148
83 150
83 151
83 157
83 170
83 171
83 172
83 180
83 200
83 204
83 208
83 209
83 210
83 211
83 212
83 215
83 218
83 219
83 220
83 221
83 223
83 224
83 234
83 235
83 236
84 85
84 86
84 87
84 88
84 97
84 98
84 105
84 112
84 113
84 114
84 116
84 117
84 118
84 119
84 120
84 122
84 123
84 124
84 125
84 127
84 128
84 129
84 135
84 136
84 137
84 138
84 139
84 145
84 146
84 147
84 148
84 150
84 151
84 170
84 171
84 172
84 204
84 208
84 209
84 210
84 211
84 212
84 218
84 219
84 220
84 221
84 223
84 224
84 234
84 235
84 236
85 86
85 87
85 88
85 89
85 93
85 95
85 96
85 97
85 98
85 99
85 101
85 102
85 103
85 106
85 107
85 108
85 112
85 113
85 114
85 115
85 117
85 118
85 119
85 120
85 121
85 123
85 124
85 125
85 126
85 128
85 129
85 130
85 131
85 132
85 133
85 134
85 136
85 138
85 139
85 140
85 142
85 143
85 144
85 146
85 148
85 149
85 151
85 152
85 154
85 155
85 157
85 159
85 160
85 163
85 164
85 171
85 173
85 175
85 178
85 180
85 182
85 188
85 195
85 200
85 203
85 205
85 209
85 212
85 213
85 215
85 219
85 222
85 225
85 237
86 87
86 88
86 89
86 92
86 93
86 94
86 95
86 96
86 98
86 99
86 100
86 102
86 103
86 106
86 107
86 108
86 113
86 114
86 115
86 116
86 117
86 119
86 120
86 121
86 122
86 124
86 125
86 126
86 127
86 129
86 130
86 132
86 133
86 134
86 135
86 137
86 138
86 139
86 140
86 141
86 143
86 144
86 145
86 147
86 148
86 149
86 150
86 152
86 154
86 155
86 156
86 158
86 159
86 160
86 163
86 164
86 170
86 172
86 173
86 175
86 178
86 179
86 181
86 182
86 188
86 195
86 199
86 201
86 202
86 203
86 205
86 208
86 210
86 211
86 212
86 213
86 214
86 216
86 217
86 218
86 220
86 221
86 222
86 225
86 237
87 88
87 89
87 92
87 93
87 94
87 96
87 97
87 99
87 100
87 101
87 103
87 106
87 108
87 112
87 114
87 115
87 116
87 117
87 118
87 120
87 121
87 122
87 123
87 125
87 126
87 127
87 128
87 130
87 131
87 133
87 134
87 135
87 136
87 137
87 139
87 140
87 141
87 142
87 144
87 145
87 146
87 147
87 149
87 151
87 152
87 153
87 155
87 156
87 157
87 158
87 160
87 161
87 162
87 164
87 171
87 173
87 175
87 178
87 179
87 180
87 181
87 186
87 187
87 192
87 193
87 194
87 199
87 200
87 201
87 202
87 205
87 208
87 209
87 210
87 211
87 213
87 215
87 219
87 222
87 225
87 237
88 89
88 92
88 94
88 95
88 97
88 98
88 99
88 100
88 101
88 102
88 106
88 107
88 112
88 113
88 115
88 116
88 117
88 118
88 119
88 121
88 122
88 123
88 124
88 126
88 128
88 129
88 130
88 131
88 132
88 135
88 136
88 137
88 138
88 140
88 141
88 142
88 143
88 146
88 148
88 149
88 151
88 152
88 153
88 154
88 156
88 157
88 158
88 159
88 161
88 162
88 163
88 171
88 173
88 174
88 176
88 177
88 180
88 182
88 188
88 195
88 200
88 203
88 205
88 209
88 212
88 213
88 215
88 219
88 222
88 225
88 237
89 92
89 93
89 94
89 95
89 96
89 97
89 98
89 100
89 101
89 102
89 103
89 105
89 107
89 108
89 112
89 113
89 114
89 116
89 117
89 118
89 119
89 120
89 122
89 123
89 124
89 125
89 127
89 128
89 129
89 131
89 132
89 133
89 134
89 135
89 136
89 137
89 138
89 139
89 142
89 143
89 144
89 145
89 146
89 147
89 148
89 150
89 151
89 154
89 155
89 157
89 159
89 160
89 163
89 164
89 170
89 171
89 172
89 175
89 178
89 180
89 182
89 188
89 195
89 200
89 203
89 204
89 208
89 209
89 210
89 211
89 212
89 215
89 218
89 219
89 220
89 221
89 223
89 224
89 234
89 235
89 236
90 91
90 104
90 105
90 110
90 167
90 207
90 230
90 248
90 252
91 106
91 109
91 165
91 166
91 206
91 227
91 228
91 229
91 245
91 246
91 247
91 249
91 250
91 251
92 93
92 95
92 96
92 101
92 102
92 103
92 108
92 114
92 117
92 118
92 119
92 120
92 121
92 125
92 133
92 134
92 139
92 144
92 155
92 160
92 164
92 175
92 178
93 94
93 95
93 100
93 101
93 102
93 107
93 112
93 113
93 115
93 116
93 117
93 118
93 119
93 121
93 122
93 123
93 124
93 126
93 131
93 132
93 135
93 136
93 137
93 138
93 140
93 141
93 142
93 143
93 153
93 154
93 156
93 157
93 158
93 159
93 161
93 162
93 163
93 174
93 176
93 177
94 95
94 96
94 98
94 101
94 102
94 103
94 107
94 108
94 113
94 114
94 117
94 118
94 119
94 120
94 121
94 124
94 125
94 129
94 132
94 133
94 134
94 138
94 139
94 143
94 144
94 148
94 154
94 155
94 159
94 160
94 163
94 164
94 175
94 178
94 182
94 188
94 195
94 203
94 212
95 96
95 97
95 99
95 100
95 101
95 103
95 108
95 112
95 114
95 115
95 116
95 117
95 118
95 120
95 121
95 122
95 123
95 125
95 126
95 127
95 128
95 130
95 131
95 133
95 134
95 135
95 136
95 137
95 139
95 140
95 141
95 142
95 144
95 145
95 146
95 147
95 149
95 153
95 155
95 156
95 157
95 158
95 160
95 161
95 162
95 164
95 175
95 178
95 179
95 180
95 181
95 186
95 187
95 192
95 193
95 194
95 199
95 200
95 201
95 202
95 208
95 209
95 210
95 211
95 213
96 98
96 100
96 101
96 102
96 107
96 112
96 113
96 115
96 116
96 117
96 118
96 119
96 121
96 122
96 123
96 124
96 126
96 129
96 131
96 132
96 135
96 136
96 137
96 138
96 140
96 141
96 142
96 143
96 148
96 153
96 154
96 156
96 157
96 158
96 159
96 161
96 162
96 163
96 174
96 176
96 177
96 182
96 188
96 195
96 203
96 212
97 98
97 99
97 100
97 102
97 103
97 106
97 107
97 113
97 114
97 115
97 116
97 117
97 119
97 120
97 121
97 122
97 124
97 125
97 126
97 127
97 129
97 130
97 132
97 133
97 135
97 137
97 138
97 139
97 140
97 141
97 143
97 144
97 145
97 147
97 148
97 149
97 150
97 152
97 154
97 156
97 158
97 159
97 160
97 163
97 170
97 172
97 173
97 179
97 181
97 182
97 188
97 195
97 199
97 201
97 202
97 203
97 205
97 208
97 210
97 211
97 212
97 213
97 214
97 216
97 217
97 218
97 220
97 221
97 222
97 225
97 237
98 99
98 100
98 101
98 103
98 106
98 108
98 112
98 114
98 115
98 116
98 117
98 118
98 120
98 121
98 122
98 123
98 125
98 126
98 127
98 128
98 130
98 131
98 133
98 135
98 136
98 137
98 139
98 140
98 141
98 142
98 144
98 145
98 146
98 147
98 149
98 151
98 152
98 153
98 155
98 156
98 157
98 158
98 160
98 161
98 162
98 164
98 171
98 173
98 179
98 180
98 181
98 186
98 187
98 192
98 193
98 194
98 199
98 200
98 201
98 202
98 205
98 208
98 209
98 210
98 211
98 213
98 215
98 219
98 222
98 225
98 237
99 101
99 102
99 105
99 107
99 112
99 113
99 114
99 116
99 117
99 118
99 119
99 120
99 122
99 123
99 124
99 125
99 127
99 128
99 129
99 131
99 132
99 135
99 136
99 137
99 138
99 139
99 142
99 143
99 145
99 146
99 147
99 148
99 150
99 151
99 154
99 157
99 159
99 163
99 170
99 171
99 172
99 180
99 182
99 188
99 195
99 200
99 203
99 204
99 208
99 209
99 210
99 211
99 212
99 215
99 218
99 219
99 220
99 221
99 223
99 224
99 234
99 235
99 236
100 101
100 102
100 103
100 107
100 108
100 112
100 113
100 114
100 117
100 118
100 119
100 120
100 121
100 123
100 124
100 125
100 128
100 129
100 131
100 132
100 133
100 134
100 136
100 138
100 139
100 142
100 143
100 144
100 146
100 148
100 151
100 154
100 155
100 157
100 159
100 160
100 163
100 164
100 171
100 175
100 178
100 180
100 182
100 188
100 195
100 200
100 203
100 209
100 212
100 215
100 219
101 102
101 103
101 107
101 108
101 113
101 114
101 115
101 116
101 117
101 119
101 120
101 121
101 122
101 124
101 125
101 126
101 127
101 129
101 130
101 132
101 133
101 134
101 135
101 137
101 138
101 139
101 140
101 141
101 143
101 144
101 145
101 147
101 148
101 149
101 150
101 152
101 154
101 155
101 156
101 158
101 159
101 160
101 163
101 164
101 170
101 172
101 173
101 175
101 178
101 179
101 181
101 182
101 188
101 195
101 199
101 201
101 202
101 203
101 208
101 210
101 211
101 212
101 213
101 214
101 216
101 217
101 218
101 220
101 221
101 222
102 103
102 108
102 112
102 114
102 115
102 116
102 117
102 118
102 120
102 121
102 122
102 123
102 125
102 126
102 127
102 128
102 130
102 131
102 133
102 134
102 135
102 136
102 137
102 139
102 140
102 141
102 142
102 144
102 145
102 146
102 147
102 149
102 151
102 153
102 155
102 156
102 157
102 158
102 160
102 161
102 162
102 164
102 171
102 175
102 178
102 179
102 180
102 181
102 186
102 187
102 192
102 193
102 194
102 199
102 200
102 201
102 202
102 208
102 209
102 210
102 211
102 213
102 215
102 219
103 107
103 112
103 113
103 115
103 116
103 117
103 118
103 119
103 121
103 122
103 123
103 124
103 126
103 128
103 129
103 131
103 132
103 135
103 136
103 137
103 138
103 140
103 141
103 142
103 143
103 146
103 148
103 151
103 153
103 154
103 156
103 157
103 158
103 159
103 161
103 162
103 163
103 171
103 174
103 176
103 177
103 180
103 182
103 188
103 195
103 200
103 203
103 209
103 212
103 215
103 219
104 106
104 109
104 165
104 166
104 206
104 227
104 228
104 229
104 245
104 246
104 247
104 249
104 250
104 251
105 106
105 109
105 115
105 121
105 126
105 130
105 140
105 149
105 152
105 165
105 166
105 173
105 205
105 206
105 213
105 222
105 225
105 227
105 228
105 229
105 237
105 245
105 246
105 247
105 249
105 250
105 251
106 110
106 112
106 113
106 114
106 116
106 117
106 118
106 119
106 120
106 122
106 123
106 124
106 125
106 127
106 128
106 129
106 135
106 136
106 137
106 138
106 139
106 145
106 146
106 147
106 148
106 150
106 151
106 167
106 170
106 171
106 172
106 204
106 207
106 208
106 209
106 210
106 211
106 212
106 218
106 219
106 220
106 221
106 223
106 224
106 230
106 234
106 235
106 236
106 248
106 252
107 108
107 112
107 114
107 115
107 116
107 117
107 118
107 120
107 121
107 122
107 123
107 125
107 126
107 127
107 128
107 130
107 131
107 133
107 134
107 135
107 136
107 137
107 139
107 140
107 141
107 142
107 144
107 145
107 146
107 147
107 149
107 153
107 155
107 156
107 157
107 158
107 160
107 161
107 162
107 164
107 175
107 178
107 179
107 180
107 181
107 186
107 187
107 192
107 193
107 194
107 199
107 200
107 201
107 202
107 208
107 209
107 210
107 211
107 213
108 112
108 113
108 115
108 116
108 117
108 118
108 119
108 121
108 122
108 123
108 124
108 126
108 129
108 131
108 132
108 135
108 136
108 137
108 138
108 140
108 141
108 142
108 143
108 148
108 153
108 154
108 156
108 157
108 158
108 159
108 161
108 162
108 163
108 174
108 176
108 177
108 182
108 188
108 195
108 203
108 212
109 110
109 165
109 167
109 168
109 207
109 227
109 228
109 230
109 231
109 232
109 238
109 239
109 241
109 242
109 244
109 245
109 246
109 248
109 249
109 252
110 111
110 165
110 166
110 169
110 206
110 227
110 228
110 229
110 233
110 240
110 243
110 245
110 246
110 247
110 249
110 250
110 251
111 165
111 167
111 168
111 227
111 228
111 230
111 231
111 232
111 238
111 239
111 241
111 242
111 244
111 245
111 246
111 248
111 249
112 113
112 114
112 115
112 116
112 117
112 119
112 120
112 121
112 122
112 124
112 125
112 126
112 127
112 129
112 130
112 132
112 133
112 134
112 135
112 137
112 138
112 139
112 140
112 141
112 143
112 144
112 145
112 147
112 148
112 149
112 150
112 152
112 154
112 155
112 156
112 158
112 159
112 160
112 163
112 164
112 170
112 172
112 173
112 175
112 178
112 179
112 181
112 182
112 188
112 195
112 199
112 201
112 202
112 203
112 205
112 208
112 210
112 211
112 212
112 213
112 214
112 216
112 217
112 218
112 220
112 221
112 222
112 225
112 237
113 114
113 115
113 116
113 117
113 118
113 120
113 121
113 122
113 123
113 125
113 126
113 127
113 128
113 130
113 131
113 133
113 134
113 135
113 136
113 137
113 139
113 140
113 141
113 142
113 144
113 145
113 146
113 147
113 149
113 151
113 152
113 153
113 155
113 156
113 157
113 158
113 160
113 161
113 162
113 164
113 171
113 173
113 175
113 178
113 179
113 180
113 181
113 186
113 187
113 192
113 193
113 194
113 199
113 200
113 201
113 202
113 205
113 208
113 209
113 210
113 211
113 213
113 215
113 219
113 222
113 225
113 237
114 115
114 116
114 117
114 118
114 119
114 121
114 122
114 123
114 124
114 126
114 128
114 129
114 130
114 131
114 132
114 135
114 136
114 137
114 138
114 140
114 141
114 142
114 143
114 146
114 148
114 149
114 151
114 152
114 153
114 154
114 156
114 157
114 158
114 159
114 161
114 162
114 163
114 171
114 173
114 174
114 176
114 177
114 180
114 182
114 188
114 195
114 200
114 203
114 205
114 209
114 212
114 213
114 215
114 219
114 222
114 225
114 237
115 116
115 117
115 118
115 119
115 120
115 122
115 123
115 124
115 125
115 127
115 128
115 129
115 131
115 132
115 133
115 134
115 135
115 136
115 137
115 138
115 139
115 142
115 143
115 144
115 145
115 146
115 147
115 148
115 150
115 151
115 154
115 155
115 157
115 159
115 160
115 163
115 164
115 170
115 171
115 172
115 175
115 178
115 180
115 182
115 188
115 195
115 200
115 203
115 204
115 208
115 209
115 210
115 211
115 212
115 215
115 218
115 219
115 220
115 221
115 223
115 224
115 234
115 235
115 236
116 117
116 118
116 119
116 120
116 121
116 122
116 123
116 124
116 125
116 126
116 127
116 128
116 129
116 130
116 131
116 132
116 133
116 134
116 135
116 136
116 138
116 139
116 140
116 141
116 142
116 143
116 144
116 145
116 146
116 148
116 149
116 150
116 151
116 152
116 153
116 154
116 155
116 156
116 157
116 159
116 160
116 161
116 163
116 164
116 170
116 171
116 173
116 175
116 176
116 178
116 179
116 180
116 182
116 184
116 186
116 188
116 189
116 192
116 195
116 199
116 200
116 203
116 204
116 205
116 208
116 209
116 212
116 213
116 214
116 215
116 218
116 219
116 222
116 223
116 225
116 226
116 234
116 237
117 118
117 119
117 120
117 121
117 123
117 124
117 125
117 126
117 128
117 129
117 130
117 131
117 132
117 133
117 134
117 136
117 137
117 138
117 139
117 140
117 142
117 143
117 144
117 146
117 147
117 148
117 149
117 151
117 152
117 154
117 155
117 157
117 158
117 159
117 160
117 162
117 163
117 164
117 171
117 172
117 173
117 175
117 177
117 178
117 180
117 181
117 182
117 185
117 187
117 188
117 190
117 191
117 193
117 194
117 195
117 200
117 201
117 202
117 203
117 205
117 209
117 210
117 211
117 212
117 213
117 215
117 216
117 217
117 219
117 220
117 221
117 222
117 224
117 225
117 235
117 236
117 237
118 119
118 120
118 121
118 122
118 124
118 125
118 126
118 127
118 129
118 130
118 132
118 133
118 134
118 135
118 137
118 138
118 139
118 140
118 141
118 143
118 144
118 145
118 147
118 148
118 149
118 150
118 152
118 153
118 154
118 155
118 156
118 158
118 159
118 160
118 161
118 163
118 164
118 170
118 172
118 173
118 175
118 176
118 178
118 179
118 181
118 182
118 184
118 186
118 188
118 189
118 192
118 195
118 199
118 201
118 202
118 203
118 204
118 205
118 208
118 210
118 211
118 212
118 213
118 214
118 216
118 217
118 218
118 220
118 221
118 222
118 223
118 225
118 226
118 234
118 237
119 120
119 121
119 122
119 123
119 125
119 126
119 127
119 128
119 130
119 131
119 133
119 134
119 135
119 136
119 137
119 139
119 140
119 141
119 142
119 144
119 145
119 146
119 147
119 149
119 150
119 151
119 152
119 153
119 155
119 156
119 157
119 158
119 160
119 161
119 162
119 164
119 170
119 171
119 173
119 175
119 176
119 178
119 179
119 180
119 181
119 184
119 186
119 187
119 189
119 192
119 193
119 194
119 199
119 200
119 201
119 202
119 204
119 205
119 208
119 209
119 210
119 211
119 213
119 214
119 215
119 218
119 219
119 222
119 223
119 225
119 226
119 234
119 237
120 121
120 122
120 123
120 124
120 126
120 127
120 128
120 129
120 130
120 131
120 132
120 135
120 136
120 137
120 138
120 140
120 141
120 142
120 143
120 145
120 146
120 148
120 149
120 150
120 151
120 152
120 153
120 154
120 156
120 157
120 158
120 159
120 161
120 162
120 163
120 170
120 171
120 173
120 174
120 176
120 177
120 179
120 180
120 182
120 184
120 186
120 188
120 189
120 192
120 195
120 199
120 200
120 203
120 204
120 205
120 208
120 209
120 212
120 213
120 214
120 215
120 218
120 219
120 222
120 223
120 225
120 226
120 234
120 237
121 122
121 123
121 124
121 125
121 127
121 128
121 129
121 131
121 132
121 133
121 134
121 135
121 136
121 137
121 138
121 139
121 141
121 142
121 143
121 144
121 145
121 146
121 147
121 148
121 150
121 151
121 153
121 154
121 155
121 156
121 157
121 159
121 160
121 161
121 163
121 164
121 170
121 171
121 172
121 175
121 176
121 178
121 179
121 180
121 182
121 184
121 186
121 188
121 189
121 192
121 195
121 199
121 200
121 203
121 204
121 208
121 209
121 210
121 211
121 212
121 214
121 215
121 218
121 219
121 220
121 221
121 223
121 224
121 226
121 234
121 235
121 236
122 123
122 124
122 125
122 126
122 128
122 129
122 130
122 131
122 132
122 133
122 134
122 136
122 137
122 138
122 139
122 140
122 142
122 143
122 144
122 146
122 147
122 148
122 149
122 151
122 152
122 154
122 155
122 157
122 158
122 159
122 160
122 162
122 163
122 164
122 171
122 172
122 173
122 175
122 177
122 178
122 180
122 181
122 182
122 185
122 187
122 188
122 190
122 191
122 193
122 194
122 195
122 200
122 201
122 202
122 203
122 205
122 209
122 210
122 211
122 212
122 213
122 215
122 216
122 217
122 219
122 220
122 221
122 222
122 224
122 225
122 235
122 236
122 237
123 124
123 125
123 126
123 127
123 129
123 130
123 132
123 133
123 134
123 135
123 137
123 138
123 139
123 140
123 141
123 143
123 144
123 145
123 147
123 148
123 149
123 150
123 152
123 153
123 154
123 155
123 156
123 158
123 159
123 160
123 161
123 163
123 164
123 170
123 172
123 173
123 175
123 176
123 178
123 179
123 181
123 182
123 184
123 186
123 188
123 189
123 192
123 195
123 199
123 201
123 202
123 203
123 204
123 205
123 208
123 210
123 211
123 212
123 213
123 214
123 216
123 217
123 218
123 220
123 221
123 222
123 223
123 225
123 226
123 234
123 237
124 125
124 126
124 127
124 128
124 130
124 131
124 133
124 134
124 135
124 136
124 137
124 139
124 140
124 141
124 142
124 144
124 145
124 146
124 147
124 149
124 150
124 151
124 152
124 153
124 155
124 156
124 157
124 158
124 160
124 161
124 162
124 164
124 170
124 171
124 173
124 175
124 176
124 178
124 179
124 180
124 181
124 184
124 186
124 187
124 189
124 192
124 193
124 194
124 199
124 200
124 201
124 202
124 204
124 205
124 208
124 209
124 210
124 211
124 213
124 214
124 215
124 218
124 219
124 222
124 223
124 225
124 226
124 234
124 237
125 126
125 127
125 128
125 129
125 130
125 131
125 132
125 135
125 136
125 137
125 138
125 140
125 141
125 142
125 143
125 145
125 146
125 148
125 149
125 150
125 151
125 152
125 153
125 154
125 156
125 157
125 158
125 159
125 161
125 162
125 163
125 170
125 171
125 173
125 174
125 176
125 177
125 179
125 180
125 182
125 184
125 186
125 188
125 189
125 192
125 195
125 199
125 200
125 203
125 204
125 205
125 208
125 209
125 212
125 213
125 214
125 215
125 218
125 219
125 222
125 223
125 225
125 226
125 234
125 237
126 127
126 128
126 129
126 131
126 132
126 133
126 134
126 135
126 136
126 137
126 138
126 139
126 141
126 142
126 143
126 144
126 145
126 146
126 147
126 148
126 150
126 151
126 153
126 154
126 155
126 156
126 157
126 159
126 160
126 161
126 163
126 164
126 170
126 171
126 172
126 175
126 176
126 178
126 179
126 180
126 182
126 184
126 186
126 188
126 189
126 192
126 195
126 199
126 200
126 203
126 204
126 208
126 209
126 210
126 211
126 212
126 214
126 215
126 218
126 219
126 220
126 221
126 223
126 224
126 226
126 234
126 235
126 236
127 128
127 129
127 130
127 131
127 132
127 136
127 137
127 138
127 139
127 140
127 142
127 143
127 144
127 146
127 147
127 148
127 149
127 151
127 152
127 154
127 155
127 157
127 158
127 159
127 160
127 162
127 163
127 164
127 171
127 172
127 173
127 177
127 178
127 180
127 181
127 182
127 185
127 187
127 188
127 190
127 191
127 193
127 194
127 195
127 200
127 201
127 202
127 203
127 205
127 209
127 210
127 211
127 212
127 213
127 215
127 216
127 217
127 219
127 220
127 221
127 222
127 224
127 225
127 235
127 236
127 237
128 129
128 130
128 132
128 133
128 135
128 137
128 138
128 139
128 140
128 141
128 143
128 144
128 145
128 147
128 148
128 149
128 150
128 152
128 153
128 154
128 156
128 158
128 159
128 160
128 161
128 163
128 170
128 172
128 173
128 176
128 179
128 181
128 182
128 184
128 186
128 188
128 189
128 192
128 195
128 199
128 201
128 202
128 203
128 204
128 205
128 208
128 210
128 211
128 212
128 213
128 214
128 216
128 217
128 218
128 220
128 221
128 222
128 223
128 225
128 226
128 234
128 237
129 130
129 131
129 133
129 135
129 136
129 137
129 139
129 140
129 141
129 142
129 144
129 145
129 146
129 147
129 149
129 150
129 151
129 152
129 153
129 155
129 156
129 157
129 158
129 160
129 161
129 162
129 164
129 170
129 171
129 173
129 176
129 179
129 180
129 181
129 184
129 186
129 187
129 189
129 192
129 193
129 194
129 199
129 200
129 201
129 202
129 204
129 205
129 208
129 209
129 210
129 211
129 213
129 214
129 215
129 218
129 219
129 222
129 223
129 225
129 226
129 234
129 237
130 131
130 132
130 135
130 136
130 137
130 138
130 139
130 141
130 142
130 143
130 145
130 146
130 147
130 148
130 150
130 151
130 153
130 154
130 156
130 157
130 159
130 161
130 163
130 170
130 171
130 172
130 176
130 179
130 180
130 182
130 184
130 186
130 188
130 189
130 192
130 195
130 199
130 200
130 203
130 204
130 208
130 209
130 210
130 211
130 212
130 214
130 215
130 218
130 219
130 220
130 221
130 223
130 224
130 226
130 234
130 235
130 236
131 132
131 133
131 134
131 135
131 137
131 138
131 139
131 140
131 141
131 143
131 144
131 145
131 147
131 148
131 149
131 150
131 152
131 154
131 155
131 156
131 158
131 159
131 160
131 163
131 164
131 170
131 172
131 173
131 175
131 178
131 179
131 181
131 182
131 188
131 195
131 199
131 201
131 202
131 203
131 208
131 210
131 211
131 212
131 213
131 214
131 216
131 217
131 218
131 220
131 221
131 222
132 133
132 134
132 135
132 136
132 137
132 139
132 140
132 141
132 142
132 144
132 145
132 146
132 147
132 149
132 151
132 153
132 155
132 156
132 157
132 158
132 160
132 161
132 162
132 164
132 171
132 175
132 178
132 179
132 180
132 181
132 186
132 187
132 192
132 193
132 194
132 199
132 200
132 201
132 202
132 208
132 209
132 210
132 211
132 213
132 215
132 219
133 135
133 136
133 137
133 138
133 140
133 141
133 142
133 143
133 146
133 148
133 151
133 153
133 154
133 156
133 157
133 158
133 159
133 161
133 162
133 163
133 171
133 174
133 176
133 177
133 180
133 182
133 188
133 195
133 200
133 203
133 209
133 212
133 215
133 219
134 135
134 136
134 137
134 138
134 140
134 141
134 142
134 143
134 153
134 154
134 156
134 157
134 158
134 159
134 161
134 162
134 163
134 174
134 176
134 177
135 136
135 137
135 138
135 139
135 140
135 142
135 143
135 144
135 146
135 147
135 148
135 149
135 151
135 152
135 154
135 155
135 157
135 158
135 159
135 160
135 162
135 163
135 164
135 171
135 172
135 173
135 174
135 175
135 177
135 178
135 180
135 181
135 182
135 183
135 185
135 187
135 188
135 190
135 191
135 193
135 194
135 195
135 196
135 200
135 201
135 202
135 203
135 205
135 209
135 210
135 211
135 212
135 213
135 215
135 216
135 217
135 219
135 220
135 221
135 222
135 224
135 225
135 235
135 236
135 237
136 137
136 138
136 139
136 140
136 141
136 143
136 144
136 145
136 147
136 148
136 149
136 150
136 152
136 153
136 154
136 155
136 156
136 158
136 159
136 160
136 161
136 162
136 163
136 164
136 170
136 172
136 173
136 174
136 175
136 176
136 177
136 178
136 179
136 181
136 182
136 183
136 184
136 185
136 186
136 187
136 188
136 189
136 190
136 192
136 193
136 195
136 196
136 199
136 201
136 202
136 203
136 204
136 205
136 208
136 210
136 211
136 212
136 213
136 214
136 216
136 217
136 218
136 220
136 221
136 222
136 223
136 224
136 225
136 226
136 234
136 235
136 237
137 138
137 139
137 140
137 141
137 142
137 143
137 144
137 145
137 146
137 148
137 149
137 150
137 151
137 152
137 153
137 154
137 155
137 156
137 157
137 159
137 160
137 161
137 163
137 164
137 170
137 171
137 173
137 175
137 176
137 178
137 179
137 180
137 182
137 184
137 186
137 188
137 189
137 191
137 192
137 194
137 195
137 197
137 199
137 200
137 202
137 203
137 204
137 205
137 208
137 209
137 211
137 212
137 213
137 214
137 215
137 217
137 218
137 219
137 221
137 222
137 223
137 225
137 226
137 234
137 236
137 237
138 139
138 140
138 141
138 142
138 144
138 145
138 146
138 147
138 149
138 150
138 151
138 152
138 153
138 155
138 156
138 157
138 158
138 160
138 161
138 162
138 164
138 170
138 171
138 172
138 173
138 174
138 175
138 176
138 177
138 178
138 179
138 180
138 181
138 183
138 184
138 185
138 186
138 187
138 189
138 190
138 192
138 193
138 194
138 196
138 199
138 200
138 201
138 202
138 204
138 205
138 208
138 209
138 210
138 211
138 213
138 214
138 215
138 216
138 218
138 219
138 220
138 222
138 223
138 224
138 225
138 226
138 234
138 235
138 237
139 140
139 141
139 142
139 143
139 145
139 146
139 147
139 148
139 149
139 150
139 151
139 152
139 153
139 154
139 156
139 157
139 158
139 159
139 161
139 162
139 163
139 170
139 171
139 172
139 173
139 174
139 176
139 177
139 179
139 180
139 181
139 182
139 183
139 184
139 185
139 186
139 187
139 188
139 189
139 190
139 192
139 193
139 195
139 196
139 199
139 200
139 201
139 203
139 204
139 205
139 208
139 209
139 210
139 212
139 213
139 214
139 215
139 216
139 218
139 219
139 220
139 222
139 223
139 224
139 225
139 226
139 234
139 235
139 237
140 141
140 142
140 143
140 144
140 145
140 146
140 147
140 148
140 150
140 151
140 153
140 154
140 155
140 156
140 157
140 158
140 159
140 160
140 161
140 162
140 163
140 164
140 170
140 171
140 172
140 174
140 175
140 176
140 177
140 178
140 179
140 180
140 181
140 182
140 183
140 184
140 185
140 186
140 187
140 188
140 189
140 190
140 192
140 193
140 195
140 196
140 199
140 200
140 201
140 203
140 204
140 208
140 209
140 210
140 211
140 212
140 214
140 215
140 216
140 218
140 219
140 220
140 221
140 223
140 224
140 226
140 234
140 235
140 236
141 142
141 143
141 144
141 146
141 147
141 148
141 149
141 151
141 152
141 154
141 155
141 157
141 158
141 159
141 160
141 162
141 163
141 164
141 171
141 172
141 173
141 175
141 177
141 178
141 180
141 181
141 182
141 185
141 187
141 188
141 190
141 191
141 193
141 194
141 195
141 200
141 201
141 202
141 203
141 205
141 209
141 210
141 211
141 212
141 213
141 215
141 216
141 217
141 219
141 220
141 221
141 222
141 224
141 225
141 235
141 236
141 237
142 143
142 144
142 145
142 147
142 148
142 149
142 150
142 152
142 153
142 154
142 155
142 156
142 158
142 159
142 160
142 161
142 163
142 164
142 170
142 172
142 173
142 175
142 176
142 178
142 179
142 181
142 182
142 184
142 186
142 188
142 189
142 192
142 195
142 199
142 201
142 202
142 203
142 204
142 208
142 210
142 211
142 212
142 213
142 214
142 216
142 217
142 218
142 220
142 221
142 222
142 223
142 226
142 234
143 144
143 145
143 146
143 147
143 149
143 150
143 151
143 153
143 155
143 156
143 157
143 158
143 160
143 161
143 162
143 164
143 170
143 171
143 175
143 176
143 178
143 179
143 180
143 181
143 184
143 186
143 187
143 189
143 192
143 193
143 194
143 199
143 200
143 201
143 202
143 204
143 208
143 209
143 210
143 211
143 213
143 214
143 215
143 218
143 219
143 223
143 226
143 234
144 145
144 146
144 148
144 150
144 151
144 153
144 154
144 156
144 157
144 158
144 159
144 161
144 162
144 163
144 170
144 171
144 174
144 176
144 177
144 179
144 180
144 182
144 184
144 186
144 188
144 189
144 192
144 195
144 199
144 200
144 203
144 204
144 208
144 209
144 212
144 214
144 215
144 218
144 219
144 223
144 226
144 234
145 146
145 147
145 148
145 149
145 151
145 152
145 154
145 155
145 157
145 158
145 159
145 160
145 162
145 163
145 164
145 171
145 172
145 173
145 174
145 177
145 178
145 180
145 181
145 182
145 183
145 185
145 187
145 188
145 190
145 191
145 193
145 194
145 195
145 196
145 200
145 201
145 202
145 203
145 205
145 209
145 210
145 211
145 212
145 213
145 215
145 216
145 217
145 219
145 220
145 221
145 222
145 224
145 225
145 235
145 236
145 237
146 147
146 148
146 149
146 150
146 152
146 153
146 154
146 156
146 158
146 159
146 160
146 161
146 162
146 163
146 170
146 172
146 173
146 174
146 176
146 177
146 179
146 181
146 182
146 183
146 184
146 185
146 186
146 187
146 188
146 189
146 190
146 192
146 193
146 195
146 196
146 199
146 201
146 202
146 203
146 204
146 205
146 208
146 210
146 211
146 212
146 213
146 214
146 216
146 217
146 218
146 220
146 221
146 222
146 223
146 224
146 225
146 226
146 234
146 235
146 237
147 148
147 149
147 150
147 151
147 152
147 153
147 154
147 156
147 157
147 159
147 160
147 161
147 163
147 164
147 170
147 171
147 173
147 175
147 176
147 178
147 179
147 180
147 182
147 184
147 186
147 188
147 189
147 191
147 192
147 194
147 195
147 197
147 199
147 200
147 202
147 203
147 204
147 205
147 208
147 209
147 211
147 212
147 213
147 214
147 215
147 217
147 218
147 219
147 221
147 222
147 223
147 225
147 226
147 234
147 236
147 237
148 149
148 150
148 151
148 152
148 153
148 155
148 156
148 157
148 158
148 160
148 161
148 162
148 164
148 170
148 171
148 172
148 173
148 174
148 176
148 177
148 179
148 180
148 181
148 183
148 184
148 185
148 186
148 187
148 189
148 190
148 192
148 193
148 194
148 196
148 199
148 200
148 201
148 202
148 204
148 205
148 208
148 209
148 210
148 211
148 213
148 214
148 215
148 216
148 218
148 219
148 220
148 222
148 223
148 224
148 225
148 226
148 234
148 235
148 237
149 150
149 151
149 153
149 154
149 156
149 157
149 158
149 159
149 161
149 162
149 163
149 170
149 171
149 172
149 174
149 176
149 177
149 179
149 180
149 181
149 182
149 183
149 184
149 185
149 186
149 187
149 188
149 189
149 190
149 192
149 193
149 195
149 196
149 199
149 200
149 201
149 203
149 204
149 208
149 209
149 210
149 211
149 212
149 214
149 215
149 216
149 218
149 219
149 220
149 221
149 223
149 224
149 226
149 234
149 235
149 236
150 151
150 152
150 154
150 155
150 157
150 158
150 159
150 160
150 162
150 163
150 164
150 171
150 172
150 173
150 177
150 178
150 180
150 181
150 182
150 185
150 187
150 188
150 190
150 191
150 193
150 194
150 195
150 200
150 201
150 202
150 203
150 205
150 209
150 210
150 211
150 212
150 213
150 215
150 216
150 217
150 219
150 220
150 221
150 222
150 224
150 225
150 235
150 236
150 237
151 152
151 153
151 156
151 158
151 159
151 160
151 161
151 170
151 172
151 173
151 176
151 179
151 181
151 182
151 184
151 186
151 189
151 192
151 199
151 201
151 202
151 203
151 204
151 205
151 208
151 210
151 211
151 212
151 213
151 214
151 216
151 217
151 218
151 220
151 221
151 222
151 223
151 225
151 226
151 234
151 237
152 153
152 156
152 157
152 161
152 170
152 171
152 172
152 176
152 179
152 180
152 184
152 186
152 189
152 192
152 199
152 200
152 204
152 208
152 209
152 210
152 211
152 212
152 214
152 215
152 218
152 219
152 220
152 221
152 223
152 224
152 226
152 234
152 235
152 236
153 154
153 155
153 157
153 158
153 159
153 160
153 162
153 163
153 164
153 171
153 172
153 173
153 175
153 177
153 178
153 180
153 181
153 182
153 185
153 187
153 188
153 190
153 191
153 193
153 194
153 195
153 200
153 201
153 202
153 203
153 205
153 209
153 210
153 211
153 212
153 213
153 215
153 216
153 217
153 219
153 220
153 221
153 222
153 224
153 225
153 235
153 236
153 237
154 155
154 156
154 157
154 158
154 160
154 161
154 162
154 164
154 170
154 175
154 176
154 178
154 179
154 180
154 181
154 184
154 186
154 187
154 189
154 192
154 193
154 194
154 199
154 200
154 201
154 202
154 204
154 208
154 209
154 210
154 211
154 213
154 214
154 218
154 223
154 226
154 234
155 156
155 157
155 158
155 159
155 161
155 162
155 163
155 170
155 174
155 176
155 177
155 179
155 182
155 184
155 186
155 188
155 189
155 192
155 195
155 199
155 203
155 204
155 208
155 212
155 214
155 218
155 223
155 226
155 234
156 157
156 158
156 159
156 160
156 162
156 163
156 164
156 171
156 172
156 173
156 174
156 175
156 177
156 178
156 180
156 181
156 182
156 183
156 185
156 187
156 188
156 190
156 191
156 193
156 194
156 195
156 196
156 200
156 201
156 202
156 203
156 205
156 209
156 210
156 211
156 212
156 213
156 215
156 216
156 217
156 219
156 220
156 221
156 222
156 224
156 225
156 235
156 236
156 237
157 158
157 159
157 160
157 161
157 162
157 163
157 164
157 170
157 172
157 173
157 174
157 175
157 176
157 177
157 178
157 179
157 181
157 182
157 183
157 184
157 185
157 186
157 187
157 188
157 189
157 190
157 192
157 193
157 195
157 196
157 199
157 201
157 202
157 203
157 204
157 208
157 210
157 211
157 212
157 213
157 214
157 216
157 217
157 218
157 220
157 221
157 222
157 223
157 224
157 226
157 234
157 235
158 159
158 160
158 161
158 163
158 164
158 170
158 171
158 173
158 175
158 176
158 178
158 179
158 180
158 182
158 184
158 186
158 188
158 189
158 191
158 192
158 194
158 195
158 197
158 199
158 200
158 202
158 203
158 204
158 208
158 209
158 211
158 212
158 213
158 214
158 215
158 217
158 218
158 219
158 221
158 222
158 223
158 225
158 226
158 234
158 236
158 237
159 160
159 161
159 162
159 164
159 170
159 171
159 172
159 174
159 175
159 176
159 177
159 178
159 179
159 180
159 181
159 183
159 184
159 185
159 186
159 187
159 189
159 190
159 192
159 193
159 194
159 196
159 199
159 200
159 201
159 202
159 204
159 208
159 209
159 210
159 211
159 213
159 214
159 215
159 216
159 218
159 219
159 220
159 223
159 224
159 226
159 234
159 235
160 161
160 162
160 163
160 170
160 171
160 172
160 174
160 176
160 177
160 179
160 180
160 181
160 182
160 183
160 184
160 185
160 186
160 187
160 188
160 189
160 190
160 192
160 193
160 195
160 196
160 199
160 200
160 201
160 203
160 204
160 208
160 209
160 210
160 212
160 214
160 215
160 216
160 218
160 219
160 220
160 223
160 224
160 226
160 234
160 235
161 162
161 163
161 164
161 171
161 172
161 173
161 174
161 175
161 177
161 178
161 180
161 181
161 182
161 183
161 185
161 187
161 188
161 190
161 191
161 193
161 194
161 195
161 196
161 200
161 201
161 202
161 203
161 205
161 209
161 210
161 211
161 212
161 213
161 215
161 216
161 217
161 219
161 220
161 221
161 222
161 224
161 225
161 235
161 236
161 237
162 163
162 164
162 170
162 171
162 173
162 175
162 176
162 178
162 179
162 180
162 182
162 184
162 186
162 188
162 189
162 191
162 192
162 194
162 195
162 197
162 199
162 200
162 202
162 203
162 204
162 208
162 209
162 211
162 212
162 213
162 214
162 215
162 217
162 218
162 219
162 221
162 222
162 223
162 225
162 226
162 234
162 236
162 237
163 164
163 170
163 172
163 174
163 175
163 176
163 177
163 178
163 179
163 180
163 181
163 183
163 184
163 185
163 186
163 187
163 189
163 190
163 192
163 193
163 194
163 196
163 199
163 200
163 201
163 202
163 204
163 208
163 209
163 210
163 211
163 213
163 214
163 216
163 218
163 220
163 223
163 224
163 226
163 234
163 235
164 170
164 172
164 174
164 176
164 177
164 179
164 181
164 182
164 183
164 184
164 185
164 186
164 187
164 188
164 189
164 190
164 192
164 193
164 195
164 196
164 199
164 201
164 203
164 204
164 208
164 210
164 212
164 214
164 216
164 218
164 220
164 223
164 224
164 226
164 234
164 235
165 166
165 167
165 169
165 207
165 227
165 229
165 230
165 231
165 233
165 238
165 240
165 241
165 243
165 244
165 245
165 247
165 248
165 249
165 250
165 252
165 254
165 256
165 258
165 261
166 167
166 168
166 206
166 207
166 227
166 228
166 230
166 231
166 232
166 238
166 239
166 241
166 242
166 244
166 245
166 246
166 248
166 249
166 251
166 252
166 253
166 255
166 257
166 260
167 168
167 169
167 206
167 227
167 228
167 229
167 232
167 233
167 239
167 240
167 242
167 243
167 245
167 246
167 247
167 249
167 250
167 251
167 253
167 255
167 257
167 260
168 169
168 207
168 227
168 229
168 230
168 231
168 233
168 238
168 240
168 241
168 243
168 244
168 245
168 247
168 248
168 249
168 250
168 252
168 254
168 256
168 258
168 261
169 206
169 227
169 228
169 230
169 231
169 232
169 238
169 239
169 241
169 242
169 244
169 245
169 246
169 248
169 249
169 251
169 253
169 255
169 257
169 260
170 171
170 172
170 173
170 174
170 177
170 178
170 180
170 181
170 182
170 183
170 185
170 187
170 188
170 190
170 191
170 193
170 194
170 195
170 196
170 200
170 201
170 202
170 203
170 205
170 209
170 210
170 211
170 212
170 213
170 215
170 216
170 217
170 219
170 220
170 221
170 222
170 224
170 225
170 235
170 236
170 237
171 172
171 173
171 174
171 176
171 177
171 179
171 181
171 182
171 183
171 184
171 185
171 186
171 187
171 189
171 190
171 192
171 193
171 196
171 199
171 201
171 202
171 203
171 204
171 205
171 208
171 210
171 211
171 212
171 213
171 214
171 216
171 217
171 218
171 220
171 221
171 222
171 223
171 224
171 225
171 226
171 234
171 235
171 237
172 173
172 175
172 176
172 178
172 179
172 180
172 182
172 184
172 186
172 188
172 189
172 191
172 192
172 194
172 195
172 197
172 199
172 200
172 202
172 203
172 204
172 205
172 208
172 209
172 211
172 212
172 213
172 214
172 215
172 217
172 218
172 219
172 221
172 222
172 223
172 225
172 226
172 234
172 236
172 237
173 174
173 176
173 177
173 179
173 180
173 181
173 183
173 184
173 185
173 186
173 187
173 189
173 190
173 192
173 193
173 196
173 199
173 200
173 201
173 204
173 208
173 209
173 210
173 211
173 212
173 214
173 215
173 216
173 218
173 219
173 220
173 221
173 223
173 224
173 226
173 234
173 235
173 236
174 175
174 176
174 178
174 179
174 180
174 182
174 184
174 186
174 188
174 189
174 191
174 192
174 194
174 195
174 197
174 199
174 200
174 202
174 203
174 208
174 209
174 211
174 212
174 213
174 214
174 215
174 217
174 218
174 219
174 221
174 222
174 223
174 225
174 234
174 236
174 237
175 176
175 177
175 181
175 183
175 185
175 187
175 190
175 193
175 196
175 201
175 210
175 216
175 220
175 224
175 235
176 177
176 178
176 180
176 181
176 182
176 183
176 185
176 187
176 188
176 190
176 191
176 193
176 194
176 195
176 196
176 200
176 201
176 202
176 203
176 205
176 209
176 210
176 211
176 212
176 213
176 215
176 216
176 217
176 219
176 220
176 221
176 222
176 224
176 225
176 235
176 236
176 237
177 178
177 179
177 180
177 182
177 184
177 186
177 188
177 189
177 191
177 192
177 194
177 195
177 197
177 199
177 200
177 202
177 203
177 204
177 208
177 209
177 211
177 212
177 213
177 214
177 215
177 217
177 218
177 219
177 221
177 222
177 223
177 225
177 226
177 234
177 236
177 237
178 179
178 181
178 183
178 184
178 185
178 186
178 187
178 189
178 190
178 192
178 193
178 196
178 199
178 201
178 204
178 208
178 210
178 214
178 216
178 218
178 220
178 223
178 224
178 226
178 234
178 235
179 180
179 181
179 182
179 183
179 185
179 187
179 188
179 190
179 191
179 193
179 194
179 195
179 196
179 200
179 201
179 202
179 203
179 205
179 209
179 210
179 211
179 212
179 213
179 215
179 216
179 217
179 219
179 220
179 221
179 222
179 224
179 225
179 235
179 236
179 237
180 181
180 182
180 183
180 184
180 185
180 186
180 187
180 188
180 189
180 190
180 192
180 193
180 195
180 196
180 199
180 201
180 202
180 203
180 204
180 208
180 210
180 211
180 212
180 213
180 214
180 216
180 217
180 218
180 220
180 221
180 222
180 223
180 224
180 226
180 234
180 235
181 182
181 184
181 186
181 188
181 189
181 191
181 192
181 194
181 195
181 197
181 199
181 200
181 202
181 203
181 204
181 208
181 209
181 211
181 212
181 213
181 214
181 215
181 217
181 218
181 219
181 221
181 222
181 223
181 225
181 226
181 234
181 236
181 237
182 183
182 184
182 185
182 186
182 187
182 189
182 190
182 192
182 193
182 194
182 196
182 199
182 200
182 201
182 202
182 204
182 208
182 209
182 210
182 211
182 213
182 214
182 215
182 216
182 218
182 219
182 220
182 223
182 224
182 226
182 234
182 235
183 184
183 186
183 188
183 189
183 191
183 192
183 194
183 195
183 197
183 199
183 200
183 202
183 203
183 208
183 209
183 211
183 212
183 213
183 214
183 215
183 217
183 218
183 219
183 221
183 222
183 223
183 225
183 234
183 236
183 237
184 185
184 187
184 188
184 190
184 191
184 193
184 194
184 195
184 196
184 200
184 201
184 202
184 203
184 205
184 209
184 210
184 211
184 212
184 213
184 215
184 216
184 217
184 219
184 220
184 221
184 222
184 224
184 225
184 235
184 236
184 237
185 186
185 188
185 189
185 191
185 192
185 194
185 195
185 197
185 199
185 200
185 202
185 203
185 204
185 208
185 209
185 211
185 212
185 213
185 214
185 215
185 217
185 218
185 219
185 221
185 222
185 223
185 225
185 226
185 234
185 236
185 237
186 187
186 188
186 190
186 191
186 193
186 194
186 195
186 196
186 200
186 201
186 202
186 203
186 205
186 209
186 210
186 211
186 212
186 213
186 215
186 216
186 217
186 219
186 220
186 221
186 222
186 224
186 225
186 235
186 236
186 237
187 188
187 189
187 191
187 192
187 194
187 195
187 197
187 199
187 200
187 202
187 203
187 204
187 208
187 209
187 211
187 212
187 213
187 214
187 215
187 217
187 218
187 219
187 221
187 222
187 223
187 225
187 226
187 234
187 236
187 237
188 189
188 190
188 192
188 193
188 194
188 196
188 199
188 200
188 201
188 202
188 204
188 208
188 209
188 210
188 211
188 213
188 214
188 216
188 218
188 220
188 223
188 224
188 226
188 234
188 235
189 190
189 191
189 193
189 194
189 195
189 196
189 197
189 198
189 200
189 201
189 202
189 203
189 205
189 209
189 210
189 211
189 212
189 213
189 215
189 216
189 217
189 219
189 220
189 221
189 222
189 224
189 225
189 235
189 236
189 237
190 191
190 192
190 194
190 195
190 197
190 198
190 199
190 200
190 202
190 203
190 204
190 208
190 209
190 211
190 212
190 213
190 214
190 215
190 217
190 218
190 219
190 221
190 222
190 223
190 225
190 226
190 234
190 236
190 237
191 192
191 193
191 195
191 196
191 199
191 200
191 201
191 203
191 204
191 208
191 209
191 210
191 212
191 213
191 214
191 215
191 216
191 218
191 219
191 220
191 222
191 223
191 224
191 226
191 234
191 235
191 237
192 193
192 194
192 195
192 196
192 197
192 198
192 200
192 201
192 202
192 203
192 205
192 209
192 210
192 211
192 212
192 213
192 215
192 216
192 217
192 219
192 220
192 221
192 222
192 224
192 225
192 235
192 236
192 237
193 194
193 195
193 197
193 198
193 199
193 200
193 202
193 203
193 204
193 208
193 209
193 211
193 212
193 213
193 214
193 215
193 217
193 218
193 219
193 221
193 222
193 223
193 225
193 226
193 234
193 236
193 237
194 195
194 196
194 199
194 200
194 201
194 203
194 204
194 208
194 209
194 210
194 212
194 213
194 214
194 215
194 216
194 218
194 219
194 220
194 222
194 223
194 224
194 226
194 234
194 235
194 237
195 196
195 197
195 198
195 199
195 200
195 201
195 202
195 204
195 208
195 209
195 210
195 211
195 213
195 214
195 216
195 217
195 218
195 220
195 221
195 223
195 224
195 226
195 234
195 235
195 236
196 197
196 198
196 199
196 200
196 202
196 203
196 208
196 209
196 211
196 212
196 213
196 214
196 215
196 217
196 218
196 219
196 221
196 222
196 223
196 225
196 234
196 236
196 237
197 199
197 200
197 201
197 203
197 208
197 209
197 210
197 212
197 213
197 214
197 215
197 216
197 218
197 219
197 220
197 222
197 224
197 234
197 235
197 237
198 199
198 200
198 201
198 203
198 208
198 209
198 210
198 212
198 213
198 214
198 215
198 216
198 218
198 219
198 220
198 222
198 234
198 235
198 237
199 200
199 201
199 202
199 203
199 205
199 209
199 210
199 211
199 212
199 213
199 215
199 216
199 217
199 219
199 220
199 221
199 222
199 224
199 225
199 235
199 236
199 237
200 201
200 202
200 203
200 204
200 208
200 210
200 211
200 212
200 213
200 214
200 216
200 217
200 218
200 220
200 221
200 222
200 223
200 224
200 226
200 234
200 235
200 236
201 202
201 203
201 204
201 208
201 209
201 211
201 212
201 213
201 214
201 215
201 217
201 218
201 219
201 221
201 222
201 223
201 225
201 226
201 234
201 236
201 237
202 203
202 204
202 208
202 209
202 210
202 212
202 213
202 214
202 215
202 216
202 218
202 219
202 220
202 222
202 223
202 224
202 226
202 234
202 235
202 237
203 204
203 208
203 209
203 210
203 211
203 213
203 214
203 215
203 216
203 217
203 218
203 219
203 220
203 221
203 223
203 224
203 226
203 234
203 235
203 236
204 205
204 209
204 210
204 211
204 212
204 213
204 215
204 216
204 217
204 219
204 220
204 221
204 222
204 224
204 225
204 235
204 236
204 237
205 208
205 209
205 210
205 211
205 212
205 214
205 218
205 219
205 220
205 221
205 223
205 224
205 226
205 234
205 235
205 236
206 207
206 227
206 229
206 230
206 231
206 233
206 238
206 240
206 241
206 243
206 244
206 245
206 247
206 248
206 249
206 250
206 252
206 254
206 256
206 258
206 261
207 227
207 228
207 229
207 232
207 239
207 242
207 245
207 246
207 247
207 249
207 250
207 251
207 253
207 255
207 257
207 260
208 209
208 210
208 211
208 212
208 213
208 215
208 216
208 217
208 219
208 220
208 221
208 222
208 224
208 225
208 235
208 236
208 237
209 210
209 211
209 212
209 213
209 214
209 216
209 217
209 218
209 220
209 221
209 222
209 223
209 224
209 225
209 226
209 234
209 235
209 236
209 237
210 211
210 212
210 213
210 214
210 215
210 217
210 218
210 219
210 221
210 222
210 223
210 225
210 226
210 234
210 236
210 237
211 212
211 213
211 214
211 215
211 216
211 218
211 219
211 220
211 222
211 223
211 224
211 225
211 226
211 234
211 235
211 237
212 213
212 214
212 215
212 216
212 217
212 218
212 219
212 220
212 221
212 222
212 223
212 224
212 225
212 226
212 234
212 235
212 236
212 237
213 214
213 215
213 216
213 217
213 218
213 219
213 220
213 221
213 223
213 224
213 226
213 234
213 235
213 236
214 215
214 216
214 217
214 219
214 220
214 221
214 222
214 224
214 225
214 235
214 236
214 237
215 216
215 217
215 218
215 220
215 221
215 222
215 223
215 224
215 226
215 234
215 235
215 236
216 217
216 218
216 219
216 221
216 222
216 223
216 225
216 226
216 234
216 236
216 237
217 218
217 219
217 220
217 222
217 223
217 224
217 226
217 234
217 235
217 237
218 219
218 220
218 221
218 222
218 224
218 225
218 235
218 236
218 237
219 220
219 221
219 222
219 223
219 224
219 225
219 226
219 234
219 235
219 236
219 237
220 221
220 222
220 223
220 225
220 226
220 234
220 236
220 237
221 222
221 223
221 224
221 225
221 226
221 234
221 235
221 237
222 223
222 224
222 226
222 234
222 235
222 236
223 224
223 225
223 235
223 236
223 237
224 225
224 226
224 234
224 236
224 237
225 226
225 234
225 235
225 236
226 235
226 236
226 237
227 228
227 229
227 230
227 232
227 233
227 239
227 240
227 241
227 242
227 243
227 246
227 247
227 248
227 249
227 251
227 252
227 253
227 255
227 257
227 258
227 260
227 264
228 229
228 230
228 231
228 233
228 238
228 240
228 241
228 243
228 244
228 245
228 247
228 248
228 249
228 250
228 252
228 254
228 256
228 258
228 259
228 261
228 263
229 230
229 231
229 232
229 238
229 239
229 241
229 242
229 244
229 245
229 246
229 248
229 249
229 250
229 251
229 252
229 253
229 254
229 255
229 256
229 257
229 259
229 260
229 263
230 231
230 232
230 233
230 238
230 239
230 240
230 242
230 243
230 245
230 246
230 247
230 249
230 250
230 251
230 253
230 254
230 255
230 256
230 257
230 259
230 260
230 263
231 232
231 233
231 239
231 240
231 241
231 242
231 243
231 246
231 247
231 248
231 249
231 251
231 252
231 253
231 255
231 257
231 258
231 260
231 264
232 233
232 238
232 240
232 241
232 243
232 244
232 245
232 247
232 248
232 249
232 250
232 252
232 254
232 256
232 258
232 259
232 261
232 263
233 238
233 239
233 241
233 242
233 244
233 245
233 246
233 248
233 249
233 250
233 251
233 253
233 254
233 255
233 256
233 257
233 259
233 260
233 263
234 235
234 236
234 237
235 236
235 237
236 237
238 239
238 240
238 241
238 242
238 243
238 244
238 246
238 247
238 248
238 249
238 251
238 252
238 253
238 255
238 257
238 258
238 260
238 261
238 262
238 264
239 240
239 241
239 243
239 244
239 245
239 247
239 248
239 249
239 250
239 252
239 254
239 256
239 258
239 259
239 261
239 262
239 263
239 264
240 241
240 242
240 244
240 245
240 246
240 248
240 249
240 250
240 251
240 253
240 254
240 255
240 256
240 257
240 258
240 259
240 260
240 261
240 262
240 263
240 264
241 242
241 243
241 245
241 246
241 247
241 248
241 250
241 251
241 253
241 254
241 255
241 256
241 257
241 259
241 260
241 263
242 243
242 244
242 245
242 247
242 248
242 249
242 250
242 252
242 254
242 256
242 258
242 261
242 262
242 264
243 244
243 245
243 246
243 248
243 249
243 251
243 253
243 255
243 257
243 258
243 260
243 261
243 262
243 264
244 245
244 246
244 247
244 248
244 251
244 253
244 255
244 256
244 257
244 260
244 263
245 246
245 247
245 248
245 249
245 251
245 252
245 253
245 255
245 257
245 258
245 260
245 261
245 262
245 264
246 247
246 248
246 249
246 250
246 252
246 254
246 256
246 258
246 259
246 261
246 262
246 263
246 264
247 248
247 249
247 250
247 251
247 252
247 253
247 254
247 255
247 256
247 257
247 258
247 259
247 260
247 261
247 262
247 263
247 264
248 249
248 250
248 251
248 253
248 254
248 255
248 256
248 257
248 258
248 259
248 260
248 261
248 262
248 263
248 264
249 250
249 251
249 252
249 253
249 254
249 255
249 256
249 257
249 259
249 260
249 263
250 251
250 252
250 253
250 255
250 257
250 258
250 260
250 264
251 252
251 254
251 256
251 258
251 259
251 261
251 263
252 253
252 254
252 255
252 256
252 257
252 259
252 260
252 263
253 254
253 256
253 258
253 261
254 255
254 257
254 258
254 260
254 264
255 256
255 258
255 259
255 261
255 263
256 257
256 258
256 260
256 261
256 262
256 264
257 258
257 259
257 261
257 262
257 263
257 264
258 259
258 260
258 263
259 264
260 261
260 262
260 264
261 263
262 263
263 264
