212:5575
0 2
0 27
0 28
0 49
0 51
0 52
0 54
0 55
0 56
0 62
0 63
1 2
1 3
1 5
1 12
1 22
1 27
1 28
1 29
1 32
1 34
1 37
1 40
1 45
1 49
1 51
1 52
1 54
1 55
1 56
1 62
1 63
1 75
2 4
2 10
2 11
2 20
2 21
2 23
2 26
2 28
2 30
2 31
2 33
2 35
2 36
2 38
2 39
2 41
2 42
2 43
2 44
2 46
2 47
2 48
2 50
2 52
2 53
2 55
2 56
2 61
2 76
2 77
3 4
3 10
3 11
3 20
3 21
3 23
3 26
3 28
3 30
3 31
3 33
3 35
3 36
3 38
3 39
3 41
3 42
3 43
3 44
3 46
3 47
3 50
3 52
3 53
3 55
3 56
3 76
3 77
4 5
4 7
4 11
4 12
4 14
4 16
4 17
4 19
4 21
4 22
4 23
4 27
4 29
4 32
4 34
4 37
4 40
4 44
4 45
4 46
4 47
4 51
4 54
4 58
4 59
4 60
4 67
4 69
4 75
5 6
5 8
5 10
5 11
5 13
5 15
5 18
5 20
5 21
5 23
5 26
5 28
5 30
5 31
5 33
5 35
5 36
5 38
5 39
5 41
5 42
5 43
5 44
5 46
5 47
5 50
5 52
5 53
5 55
5 56
5 57
5 68
5 76
5 77
6 7
6 11
6 12
6 14
6 16
6 17
6 19
6 21
6 22
6 23
6 44
6 45
6 46
6 47
6 58
6 59
6 60
6 67
6 69
7 8
7 10
7 13
7 15
7 18
7 20
7 25
7 43
7 57
7 68
7 69
7 73
7 87
7 89
7 90
8 9
8 11
8 12
8 14
8 16
8 17
8 19
8 21
8 22
8 23
8 24
8 44
8 45
8 46
8 47
8 58
8 59
8 60
8 67
8 69
8 72
8 86
8 88
9 25
9 68
9 69
9 73
9 87
9 89
9 90
10 11
10 12
10 14
10 16
10 17
10 19
10 21
10 22
10 23
10 27
10 29
10 31
10 32
10 33
10 34
10 36
10 37
10 39
10 40
10 44
10 45
10 46
10 47
10 51
10 54
10 58
10 59
10 60
10 64
10 67
10 69
10 70
10 75
10 80
10 83
10 91
10 105
10 110
10 114
10 124
10 132
10 136
10 139
10 154
11 12
11 13
11 15
11 17
11 18
11 20
11 22
11 23
11 27
11 29
11 32
11 34
11 35
11 37
11 38
11 40
11 41
11 42
11 43
11 45
11 46
11 47
11 51
11 54
11 57
11 59
11 60
11 65
11 66
11 68
11 71
11 75
11 81
11 84
11 85
11 92
11 93
11 94
11 104
11 106
11 107
11 109
11 111
11 112
11 113
11 115
11 116
11 117
11 122
11 123
11 125
11 126
11 131
11 133
11 134
11 135
11 137
11 138
11 140
11 141
11 153
11 155
12 13
12 14
12 15
12 16
12 18
12 20
12 21
12 23
12 26
12 28
12 30
12 31
12 33
12 35
12 36
12 38
12 39
12 41
12 42
12 43
12 44
12 46
12 47
12 50
12 52
12 53
12 55
12 56
12 57
12 58
12 64
12 68
12 70
12 76
12 77
12 80
12 83
12 91
12 105
12 110
12 114
12 124
12 132
12 136
12 139
12 154
13 14
13 16
13 17
13 19
13 21
13 22
13 23
13 31
13 33
13 36
13 39
13 44
13 45
13 46
13 47
13 58
13 59
13 60
13 64
13 67
13 69
13 70
13 80
13 83
13 91
13 105
13 110
13 114
13 124
13 132
13 136
13 139
13 154
14 15
14 17
14 18
14 20
14 22
14 23
14 32
14 34
14 35
14 37
14 38
14 40
14 41
14 42
14 43
14 45
14 46
14 47
14 57
14 59
14 60
14 65
14 66
14 68
14 71
14 81
14 84
14 85
14 92
14 93
14 94
14 104
14 106
14 107
14 109
14 111
14 112
14 113
14 115
14 116
14 117
14 122
14 123
14 125
14 126
14 131
14 133
14 134
14 135
14 137
14 138
14 140
14 141
14 153
14 155
15 16
15 17
15 19
15 21
15 22
15 23
15 31
15 33
15 36
15 38
15 39
15 42
15 44
15 45
15 46
15 47
15 58
15 59
15 60
15 64
15 66
15 67
15 69
15 70
15 71
15 73
15 74
15 80
15 83
15 85
15 91
15 94
15 97
15 100
15 103
15 105
15 107
15 110
15 112
15 114
15 117
15 124
15 126
15 130
15 132
15 134
15 136
15 139
15 152
15 154
16 17
16 18
16 19
16 20
16 22
16 23
16 32
16 34
16 35
16 37
16 38
16 40
16 41
16 42
16 43
16 45
16 46
16 47
16 57
16 59
16 60
16 65
16 66
16 68
16 69
16 71
16 73
16 74
16 81
16 84
16 85
16 92
16 93
16 94
16 97
16 100
16 103
16 104
16 106
16 107
16 109
16 111
16 112
16 113
16 115
16 116
16 117
16 122
16 123
16 125
16 126
16 130
16 131
16 133
16 134
16 135
16 137
16 138
16 140
16 141
16 152
16 153
16 155
17 18
17 20
17 21
17 22
17 31
17 33
17 36
17 37
17 39
17 40
17 41
17 43
17 44
17 45
17 46
17 57
17 58
17 59
17 64
17 65
17 67
17 68
17 70
17 72
17 80
17 83
17 84
17 91
17 92
17 93
17 96
17 99
17 101
17 102
17 104
17 105
17 106
17 109
17 110
17 111
17 113
17 114
17 115
17 116
17 122
17 123
17 124
17 125
17 127
17 128
17 129
17 131
17 132
17 133
17 136
17 139
17 150
17 151
17 154
18 19
18 21
18 22
18 23
18 38
18 42
18 44
18 45
18 46
18 47
18 58
18 59
18 60
18 66
18 67
18 69
18 71
18 73
18 74
18 85
18 94
18 97
18 100
18 103
18 107
18 112
18 117
18 126
18 130
18 134
18 152
19 20
19 21
19 22
19 36
19 37
19 39
19 40
19 41
19 43
19 44
19 45
19 46
19 57
19 58
19 59
19 64
19 65
19 67
19 68
19 70
19 72
19 83
19 84
19 91
19 92
19 93
19 96
19 99
19 101
19 102
19 104
19 105
19 106
19 109
19 110
19 111
19 113
19 114
19 115
19 116
19 122
19 123
19 124
19 125
19 127
19 128
19 129
19 131
19 132
19 133
19 150
19 151
20 21
20 22
20 23
20 27
20 29
20 31
20 32
20 33
20 34
20 36
20 37
20 38
20 39
20 40
20 42
20 44
20 45
20 46
20 47
20 51
20 54
20 58
20 59
20 60
20 64
20 66
20 67
20 69
20 70
20 71
20 73
20 74
20 75
20 80
20 83
20 85
20 91
20 94
20 97
20 100
20 103
20 105
20 107
20 110
20 112
20 114
20 117
20 124
20 126
20 130
20 132
20 134
20 136
20 139
20 152
20 154
21 22
21 23
21 27
21 29
21 32
21 34
21 35
21 37
21 38
21 40
21 41
21 42
21 43
21 45
21 46
21 47
21 51
21 54
21 57
21 59
21 60
21 65
21 66
21 68
21 69
21 71
21 73
21 74
21 75
21 81
21 84
21 85
21 92
21 93
21 94
21 97
21 100
21 103
21 104
21 106
21 107
21 109
21 111
21 112
21 113
21 115
21 116
21 117
21 122
21 123
21 125
21 126
21 130
21 131
21 133
21 134
21 135
21 137
21 138
21 140
21 141
21 152
21 153
21 155
22 23
22 26
22 28
22 30
22 31
22 33
22 35
22 36
22 38
22 39
22 41
22 42
22 43
22 44
22 46
22 47
22 50
22 52
22 53
22 55
22 56
22 57
22 58
22 60
22 64
22 66
22 68
22 69
22 70
22 71
22 73
22 74
22 76
22 77
22 80
22 83
22 85
22 91
22 94
22 97
22 100
22 103
22 105
22 107
22 110
22 112
22 114
22 117
22 124
22 126
22 130
22 132
22 134
22 136
22 139
22 152
22 154
23 27
23 29
23 31
23 32
23 33
23 34
23 36
23 37
23 39
23 40
23 41
23 43
23 44
23 45
23 46
23 51
23 54
23 57
23 58
23 59
23 64
23 65
23 67
23 68
23 70
23 72
23 75
23 80
23 83
23 84
23 91
23 92
23 93
23 96
23 99
23 101
23 102
23 104
23 105
23 106
23 109
23 110
23 111
23 113
23 114
23 115
23 116
23 122
23 123
23 124
23 125
23 127
23 128
23 129
23 131
23 132
23 133
23 136
23 139
23 150
23 151
23 154
24 25
24 68
24 69
24 73
24 87
24 89
24 90
24 98
24 121
25 67
25 72
25 86
25 88
25 89
25 120
26 27
26 28
26 29
26 30
26 32
26 34
26 35
26 37
26 40
26 41
26 45
26 46
26 49
26 51
26 52
26 54
26 55
26 56
26 59
26 62
26 63
26 65
26 75
26 76
26 78
26 81
26 82
26 93
26 116
26 133
26 137
26 141
26 146
26 149
27 28
27 30
27 31
27 33
27 35
27 36
27 38
27 39
27 41
27 42
27 43
27 44
27 46
27 47
27 48
27 50
27 52
27 53
27 55
27 56
27 59
27 61
27 62
27 65
27 76
27 77
27 78
27 81
27 82
27 93
27 116
27 133
27 137
27 141
27 146
27 149
28 29
28 32
28 33
28 34
28 37
28 39
28 40
28 42
28 43
28 44
28 45
28 47
28 48
28 50
28 51
28 53
28 54
28 56
28 57
28 58
28 60
28 61
28 63
28 64
28 66
28 75
28 77
28 79
28 80
28 91
28 92
28 94
28 113
28 114
28 115
28 117
28 131
28 132
28 134
28 135
28 136
28 138
28 139
28 140
28 145
28 147
28 148
29 30
29 31
29 33
29 35
29 36
29 38
29 39
29 41
29 42
29 43
29 44
29 46
29 47
29 50
29 52
29 53
29 55
29 56
29 59
29 62
29 65
29 76
29 77
29 78
29 81
29 82
29 93
29 116
29 133
29 137
29 141
29 146
29 149
30 32
30 33
30 34
30 37
30 39
30 40
30 42
30 43
30 44
30 45
30 47
30 51
30 53
30 54
30 56
30 57
30 58
30 60
30 61
30 63
30 64
30 66
30 75
30 77
30 79
30 80
30 91
30 92
30 94
30 113
30 114
30 115
30 117
30 131
30 132
30 134
30 135
30 136
30 138
30 139
30 140
30 145
30 147
30 148
31 32
31 34
31 35
31 37
31 38
31 40
31 41
31 42
31 43
31 45
31 46
31 47
31 51
31 54
31 57
31 59
31 60
31 65
31 66
31 71
31 75
31 81
31 84
31 85
31 92
31 93
31 94
31 104
31 106
31 107
31 109
31 111
31 112
31 113
31 115
31 116
31 117
31 122
31 123
31 125
31 126
31 131
31 133
31 134
31 135
31 137
31 138
31 140
31 141
31 153
31 155
32 33
32 35
32 36
32 38
32 39
32 41
32 42
32 43
32 44
32 46
32 47
32 50
32 52
32 53
32 55
32 56
32 58
32 64
32 70
32 76
32 77
32 80
32 83
32 91
32 105
32 110
32 114
32 124
32 132
32 136
32 139
32 154
33 34
33 35
33 37
33 38
33 40
33 41
33 42
33 43
33 45
33 46
33 47
33 51
33 54
33 55
33 57
33 59
33 60
33 62
33 65
33 66
33 71
33 75
33 76
33 78
33 81
33 82
33 84
33 85
33 92
33 93
33 94
33 104
33 106
33 107
33 109
33 111
33 112
33 113
33 115
33 116
33 117
33 122
33 123
33 125
33 126
33 131
33 133
33 134
33 135
33 137
33 138
33 140
33 141
33 146
33 149
33 153
33 155
34 35
34 36
34 38
34 39
34 41
34 42
34 43
34 44
34 46
34 47
34 50
34 52
34 53
34 55
34 56
34 58
34 59
34 62
34 64
34 65
34 70
34 76
34 77
34 78
34 80
34 81
34 82
34 83
34 91
34 93
34 105
34 110
34 114
34 116
34 124
34 132
34 133
34 136
34 137
34 139
34 141
34 146
34 149
34 154
35 36
35 37
35 39
35 40
35 42
35 43
35 44
35 45
35 47
35 51
35 53
35 54
35 56
35 57
35 58
35 60
35 61
35 63
35 64
35 66
35 70
35 75
35 77
35 79
35 80
35 83
35 91
35 92
35 94
35 105
35 110
35 113
35 114
35 115
35 117
35 124
35 131
35 132
35 134
35 135
35 136
35 138
35 139
35 140
35 145
35 147
35 148
35 154
36 37
36 38
36 40
36 41
36 42
36 43
36 45
36 46
36 47
36 51
36 54
36 57
36 59
36 60
36 65
36 66
36 69
36 71
36 73
36 74
36 75
36 81
36 84
36 85
36 92
36 93
36 94
36 97
36 100
36 103
36 104
36 106
36 107
36 109
36 111
36 112
36 113
36 115
36 116
36 117
36 122
36 123
36 125
36 126
36 130
36 131
36 133
36 134
36 135
36 137
36 138
36 140
36 141
36 152
36 153
36 155
37 38
37 39
37 41
37 42
37 43
37 44
37 46
37 47
37 50
37 52
37 53
37 55
37 56
37 58
37 60
37 64
37 66
37 69
37 70
37 71
37 73
37 74
37 76
37 77
37 80
37 83
37 85
37 91
37 94
37 97
37 100
37 103
37 105
37 107
37 110
37 112
37 114
37 117
37 124
37 126
37 130
37 132
37 134
37 136
37 139
37 152
37 154
38 39
38 40
38 41
38 43
38 44
38 45
38 46
38 51
38 54
38 57
38 58
38 59
38 64
38 65
38 67
38 68
38 70
38 72
38 75
38 80
38 83
38 84
38 91
38 92
38 93
38 96
38 99
38 101
38 102
38 104
38 105
38 106
38 109
38 110
38 111
38 113
38 114
38 115
38 116
38 122
38 123
38 124
38 125
38 127
38 128
38 129
38 131
38 132
38 133
38 136
38 139
38 150
38 151
38 154
39 40
39 41
39 42
39 43
39 45
39 46
39 47
39 51
39 54
39 55
39 57
39 59
39 60
39 62
39 65
39 66
39 69
39 71
39 73
39 74
39 75
39 76
39 78
39 81
39 82
39 84
39 85
39 92
39 93
39 94
39 97
39 100
39 103
39 104
39 106
39 107
39 109
39 111
39 112
39 113
39 115
39 116
39 117
39 122
39 123
39 125
39 126
39 130
39 131
39 133
39 134
39 135
39 137
39 138
39 140
39 141
39 146
39 149
39 152
39 153
39 155
40 41
40 42
40 43
40 44
40 46
40 47
40 50
40 52
40 53
40 55
40 56
40 58
40 59
40 60
40 62
40 64
40 65
40 66
40 69
40 70
40 71
40 73
40 74
40 76
40 77
40 78
40 80
40 81
40 82
40 83
40 85
40 91
40 93
40 94
40 97
40 100
40 103
40 105
40 107
40 110
40 112
40 114
40 116
40 117
40 124
40 126
40 130
40 132
40 133
40 134
40 136
40 137
40 139
40 141
40 146
40 149
40 152
40 154
41 42
41 43
41 44
41 45
41 47
41 51
41 53
41 54
41 56
41 57
41 58
41 60
41 61
41 63
41 64
41 66
41 69
41 70
41 71
41 73
41 74
41 75
41 77
41 79
41 80
41 83
41 85
41 91
41 92
41 94
41 97
41 100
41 103
41 105
41 107
41 110
41 112
41 113
41 114
41 115
41 117
41 124
41 126
41 130
41 131
41 132
41 134
41 135
41 136
41 138
41 139
41 140
41 145
41 147
41 148
41 152
41 154
42 43
42 44
42 45
42 46
42 51
42 54
42 55
42 57
42 58
42 59
42 62
42 64
42 65
42 67
42 68
42 70
42 72
42 75
42 76
42 78
42 80
42 81
42 82
42 83
42 84
42 91
42 92
42 93
42 96
42 99
42 101
42 102
42 104
42 105
42 106
42 109
42 110
42 111
42 113
42 114
42 115
42 116
42 122
42 123
42 124
42 125
42 127
42 128
42 129
42 131
42 132
42 133
42 136
42 137
42 139
42 141
42 146
42 149
42 150
42 151
42 154
43 44
43 45
43 46
43 47
43 51
43 54
43 55
43 58
43 59
43 60
43 62
43 64
43 65
43 66
43 67
43 69
43 70
43 71
43 73
43 74
43 75
43 76
43 78
43 80
43 81
43 82
43 83
43 85
43 91
43 93
43 94
43 97
43 100
43 103
43 105
43 107
43 110
43 112
43 114
43 116
43 117
43 124
43 126
43 130
43 132
43 133
43 134
43 136
43 137
43 139
43 141
43 146
43 149
43 152
43 154
44 45
44 46
44 47
44 51
44 54
44 55
44 57
44 59
44 60
44 62
44 65
44 66
44 68
44 69
44 71
44 73
44 74
44 75
44 76
44 78
44 81
44 82
44 84
44 85
44 92
44 93
44 94
44 97
44 100
44 103
44 104
44 106
44 107
44 109
44 111
44 112
44 113
44 115
44 116
44 117
44 122
44 123
44 125
44 126
44 130
44 131
44 133
44 134
44 135
44 137
44 138
44 140
44 141
44 146
44 149
44 152
44 153
44 155
45 46
45 47
45 50
45 52
45 53
45 55
45 56
45 57
45 58
45 59
45 60
45 62
45 64
45 65
45 66
45 68
45 69
45 70
45 71
45 73
45 74
45 76
45 77
45 78
45 80
45 81
45 82
45 83
45 85
45 91
45 93
45 94
45 97
45 100
45 103
45 105
45 107
45 110
45 112
45 114
45 116
45 117
45 124
45 126
45 130
45 132
45 133
45 134
45 136
45 137
45 139
45 141
45 146
45 149
45 152
45 154
46 47
46 51
46 53
46 54
46 56
46 57
46 58
46 60
46 61
46 63
46 64
46 66
46 68
46 69
46 70
46 71
46 73
46 74
46 75
46 77
46 79
46 80
46 83
46 85
46 91
46 92
46 94
46 97
46 100
46 103
46 105
46 107
46 110
46 112
46 113
46 114
46 115
46 117
46 124
46 126
46 130
46 131
46 132
46 134
46 135
46 136
46 138
46 139
46 140
46 145
46 147
46 148
46 152
46 154
47 51
47 54
47 55
47 57
47 58
47 59
47 62
47 64
47 65
47 67
47 68
47 70
47 72
47 75
47 76
47 78
47 80
47 81
47 82
47 83
47 84
47 91
47 92
47 93
47 96
47 99
47 101
47 102
47 104
47 105
47 106
47 109
47 110
47 111
47 113
47 114
47 115
47 116
47 122
47 123
47 124
47 125
47 127
47 128
47 129
47 131
47 132
47 133
47 136
47 137
47 139
47 141
47 146
47 149
47 150
47 151
47 154
48 49
48 51
48 52
48 54
48 55
48 56
48 62
48 63
48 77
48 79
48 108
49 50
49 51
49 53
49 54
49 55
49 61
49 62
49 75
49 76
49 78
50 51
50 52
50 54
50 55
50 56
50 62
50 63
50 75
50 77
50 79
50 108
51 52
51 53
51 55
51 56
51 61
51 63
51 76
51 77
51 79
51 108
52 53
52 54
52 55
52 61
52 62
52 75
52 76
52 78
53 54
53 55
53 56
53 59
53 62
53 63
53 65
53 75
53 76
53 77
53 78
53 79
53 81
53 82
53 93
53 108
53 116
53 133
53 137
53 141
53 146
53 149
54 55
54 56
54 59
54 61
54 62
54 63
54 65
54 76
54 77
54 78
54 79
54 81
54 82
54 93
54 108
54 116
54 133
54 137
54 141
54 146
54 149
55 56
55 57
55 58
55 60
55 61
55 63
55 64
55 66
55 75
55 77
55 79
55 80
55 91
55 92
55 94
55 108
55 113
55 114
55 115
55 117
55 131
55 132
55 134
55 135
55 136
55 138
55 139
55 140
55 145
55 147
55 148
56 59
56 61
56 62
56 65
56 75
56 76
56 78
56 81
56 82
56 93
56 116
56 133
56 137
56 141
56 146
56 149
57 58
57 59
57 60
57 62
57 64
57 65
57 66
57 67
57 69
57 70
57 71
57 73
57 74
57 76
57 78
57 80
57 81
57 82
57 83
57 85
57 91
57 93
57 94
57 97
57 100
57 103
57 105
57 107
57 110
57 112
57 114
57 116
57 117
57 124
57 126
57 130
57 132
57 133
57 134
57 136
57 137
57 139
57 141
57 146
57 149
57 152
57 154
58 59
58 60
58 62
58 65
58 66
58 68
58 69
58 71
58 73
58 74
58 76
58 78
58 81
58 82
58 84
58 85
58 92
58 93
58 94
58 97
58 100
58 103
58 104
58 106
58 107
58 109
58 111
58 112
58 113
58 115
58 116
58 117
58 122
58 123
58 125
58 126
58 130
58 131
58 133
58 134
58 135
58 137
58 138
58 140
58 141
58 146
58 149
58 152
58 153
58 155
59 60
59 61
59 63
59 64
59 66
59 68
59 69
59 70
59 71
59 73
59 74
59 75
59 77
59 79
59 80
59 83
59 85
59 91
59 92
59 94
59 97
59 100
59 103
59 105
59 107
59 110
59 112
59 113
59 114
59 115
59 117
59 124
59 126
59 130
59 131
59 132
59 134
59 135
59 136
59 138
59 139
59 140
59 145
59 147
59 148
59 152
59 154
60 62
60 64
60 65
60 67
60 68
60 70
60 72
60 76
60 78
60 80
60 81
60 82
60 83
60 84
60 91
60 92
60 93
60 96
60 99
60 101
60 102
60 104
60 105
60 106
60 109
60 110
60 111
60 113
60 114
60 115
60 116
60 122
60 123
60 124
60 125
60 127
60 128
60 129
60 131
60 132
60 133
60 136
60 137
60 139
60 141
60 146
60 149
60 150
60 151
60 154
61 62
61 63
61 65
61 76
61 77
61 78
61 79
61 81
61 82
61 93
61 108
61 116
61 133
61 137
61 141
61 146
61 149
62 63
62 64
62 66
62 75
62 77
62 79
62 80
62 91
62 92
62 94
62 108
62 113
62 114
62 115
62 117
62 131
62 132
62 134
62 135
62 136
62 138
62 139
62 140
62 145
62 147
62 148
63 65
63 75
63 76
63 78
63 81
63 82
63 93
63 116
63 133
63 137
63 141
63 146
63 149
64 65
64 66
64 69
64 71
64 73
64 74
64 76
64 78
64 81
64 82
64 84
64 85
64 92
64 93
64 94
64 97
64 100
64 103
64 104
64 106
64 107
64 109
64 111
64 112
64 113
64 115
64 116
64 117
64 122
64 123
64 125
64 126
64 130
64 131
64 133
64 134
64 135
64 137
64 138
64 140
64 141
64 146
64 149
64 152
64 153
64 155
65 66
65 69
65 70
65 71
65 73
65 74
65 75
65 77
65 79
65 80
65 83
65 85
65 91
65 92
65 94
65 97
65 100
65 103
65 105
65 107
65 110
65 112
65 113
65 114
65 115
65 117
65 124
65 126
65 130
65 131
65 132
65 134
65 135
65 136
65 138
65 139
65 140
65 145
65 147
65 148
65 152
65 154
66 67
66 68
66 70
66 72
66 76
66 78
66 80
66 81
66 82
66 83
66 84
66 91
66 92
66 93
66 96
66 99
66 101
66 102
66 104
66 105
66 106
66 109
66 110
66 111
66 113
66 114
66 115
66 116
66 122
66 123
66 124
66 125
66 127
66 128
66 129
66 131
66 132
66 133
66 136
66 137
66 139
66 141
66 146
66 149
66 150
66 151
66 154
67 68
67 69
67 71
67 73
67 74
67 85
67 87
67 89
67 90
67 94
67 97
67 100
67 103
67 107
67 112
67 117
67 126
67 130
67 134
67 152
68 69
68 71
68 72
68 73
68 74
68 85
68 86
68 88
68 94
68 97
68 100
68 103
68 107
68 112
68 117
68 126
68 130
68 134
68 152
69 70
69 72
69 83
69 84
69 86
69 88
69 91
69 92
69 93
69 96
69 99
69 101
69 102
69 104
69 105
69 106
69 109
69 110
69 111
69 113
69 114
69 115
69 116
69 122
69 123
69 124
69 125
69 127
69 128
69 129
69 131
69 132
69 133
69 150
69 151
70 71
70 73
70 74
70 81
70 84
70 85
70 92
70 93
70 94
70 97
70 100
70 103
70 104
70 106
70 107
70 109
70 111
70 112
70 113
70 115
70 116
70 117
70 122
70 123
70 125
70 126
70 130
70 131
70 133
70 134
70 135
70 137
70 138
70 140
70 141
70 152
70 153
70 155
71 72
71 80
71 83
71 84
71 91
71 92
71 93
71 96
71 99
71 101
71 102
71 104
71 105
71 106
71 109
71 110
71 111
71 113
71 114
71 115
71 116
71 122
71 123
71 124
71 125
71 127
71 128
71 129
71 131
71 132
71 133
71 136
71 139
71 150
71 151
71 154
72 73
72 74
72 85
72 87
72 89
72 90
72 94
72 97
72 100
72 103
72 107
72 112
72 117
72 126
72 130
72 134
72 152
73 83
73 84
73 86
73 88
73 91
73 92
73 93
73 96
73 99
73 101
73 102
73 104
73 105
73 106
73 109
73 110
73 111
73 113
73 114
73 115
73 116
73 122
73 123
73 124
73 125
73 127
73 128
73 129
73 131
73 132
73 133
73 150
73 151
74 83
74 84
74 91
74 92
74 93
74 96
74 99
74 101
74 102
74 104
74 105
74 106
74 109
74 110
74 111
74 113
74 114
74 115
74 116
74 122
74 123
74 124
74 125
74 127
74 128
74 129
74 131
74 132
74 133
74 150
74 151
75 76
75 77
75 78
75 79
75 81
75 82
75 93
75 108
75 116
75 133
75 137
75 141
75 146
75 149
76 77
76 79
76 80
76 91
76 92
76 94
76 108
76 113
76 114
76 115
76 117
76 131
76 132
76 134
76 135
76 136
76 138
76 139
76 140
76 145
76 147
76 148
77 78
77 81
77 82
77 93
77 116
77 133
77 137
77 141
77 146
77 149
78 79
78 80
78 91
78 92
78 94
78 108
78 113
78 114
78 115
78 117
78 131
78 132
78 134
78 135
78 136
78 138
78 139
78 140
78 145
78 147
78 148
79 81
79 82
79 93
79 116
79 133
79 137
79 141
79 146
79 149
80 81
80 82
80 84
80 85
80 92
80 93
80 94
80 104
80 106
80 107
80 109
80 111
80 112
80 113
80 115
80 116
80 117
80 122
80 123
80 125
80 126
80 131
80 133
80 134
80 135
80 137
80 138
80 140
80 141
80 146
80 149
80 153
80 155
81 83
81 91
81 92
81 94
81 105
81 110
81 113
81 114
81 115
81 117
81 124
81 131
81 132
81 134
81 135
81 136
81 138
81 139
81 140
81 145
81 147
81 148
81 154
82 91
82 92
82 94
82 113
82 114
82 115
82 117
82 131
82 132
82 134
82 135
82 136
82 138
82 139
82 140
82 145
82 147
82 148
83 84
83 85
83 92
83 93
83 94
83 97
83 99
83 100
83 102
83 103
83 104
83 106
83 107
83 109
83 111
83 112
83 113
83 115
83 116
83 117
83 119
83 122
83 123
83 125
83 126
83 129
83 130
83 131
83 133
83 134
83 135
83 137
83 138
83 140
83 141
83 144
83 148
83 151
83 152
83 153
83 155
83 157
83 163
83 168
83 178
84 85
84 91
84 93
84 94
84 97
84 100
84 101
84 103
84 104
84 105
84 107
84 109
84 110
84 112
84 113
84 114
84 116
84 117
84 118
84 122
84 123
84 124
84 126
84 127
84 128
84 130
84 132
84 134
84 136
84 138
84 139
84 141
84 142
84 143
84 147
84 149
84 150
84 152
84 153
84 154
84 156
84 161
84 162
84 165
84 166
84 167
84 176
84 177
85 91
85 92
85 93
85 96
85 99
85 101
85 102
85 104
85 105
85 106
85 109
85 110
85 111
85 113
85 114
85 115
85 116
85 119
85 122
85 123
85 124
85 125
85 127
85 128
85 129
85 131
85 132
85 133
85 136
85 139
85 140
85 144
85 148
85 150
85 151
85 154
85 155
85 157
85 163
85 168
85 178
86 87
86 89
86 90
86 95
86 96
86 101
86 104
86 118
86 120
86 123
86 128
86 143
86 160
86 162
86 167
86 175
87 88
87 90
87 97
87 102
87 103
87 105
87 106
87 107
87 119
87 121
87 122
87 124
87 125
87 126
87 127
87 129
87 130
87 142
87 144
87 159
87 161
87 163
87 165
87 166
87 168
87 173
87 174
88 89
88 90
88 95
88 96
88 98
88 101
88 104
88 118
88 120
88 121
88 123
88 128
88 143
88 160
88 162
88 167
88 175
89 90
89 97
89 98
89 102
89 103
89 105
89 106
89 107
89 119
89 121
89 122
89 124
89 125
89 126
89 127
89 129
89 130
89 142
89 144
89 159
89 161
89 163
89 165
89 166
89 168
89 173
89 174
90 95
90 96
90 101
90 104
90 118
90 120
90 123
90 128
90 143
90 160
90 162
90 167
90 175
91 92
91 93
91 94
91 97
91 99
91 100
91 102
91 103
91 104
91 106
91 107
91 109
91 111
91 112
91 113
91 115
91 116
91 117
91 119
91 122
91 123
91 125
91 126
91 129
91 130
91 131
91 133
91 134
91 135
91 137
91 138
91 140
91 141
91 144
91 146
91 148
91 149
91 151
91 152
91 153
91 155
91 157
91 163
91 168
91 178
92 93
92 94
92 97
92 100
92 101
92 103
92 104
92 105
92 107
92 109
92 110
92 112
92 113
92 114
92 116
92 117
92 118
92 122
92 123
92 124
92 126
92 127
92 128
92 130
92 132
92 133
92 134
92 136
92 137
92 138
92 139
92 141
92 142
92 143
92 146
92 147
92 149
92 150
92 152
92 153
92 154
92 156
92 161
92 162
92 165
92 166
92 167
92 176
92 177
93 94
93 97
93 99
93 100
93 102
93 103
93 105
93 106
93 107
93 110
93 111
93 112
93 113
93 114
93 115
93 117
93 119
93 124
93 125
93 126
93 129
93 130
93 131
93 132
93 134
93 135
93 136
93 138
93 139
93 140
93 144
93 145
93 147
93 148
93 151
93 152
93 154
93 155
93 157
93 163
93 168
93 178
94 96
94 99
94 101
94 102
94 104
94 105
94 106
94 109
94 110
94 111
94 113
94 114
94 115
94 116
94 119
94 122
94 123
94 124
94 125
94 127
94 128
94 129
94 131
94 132
94 133
94 136
94 137
94 139
94 140
94 141
94 144
94 146
94 148
94 149
94 150
94 151
94 154
94 155
94 157
94 163
94 168
94 178
95 97
95 102
95 103
95 105
95 106
95 107
95 119
95 121
95 122
95 124
95 125
95 126
95 127
95 129
95 130
95 142
95 144
95 159
95 161
95 163
95 165
95 166
95 168
95 173
95 174
96 97
96 100
96 102
96 103
96 105
96 106
96 107
96 112
96 117
96 119
96 121
96 122
96 124
96 125
96 126
96 127
96 129
96 130
96 134
96 142
96 144
96 152
96 159
96 161
96 163
96 165
96 166
96 168
96 173
96 174
97 99
97 101
97 102
97 104
97 105
97 106
97 109
97 110
97 111
97 113
97 114
97 115
97 116
97 118
97 120
97 122
97 123
97 124
97 125
97 127
97 128
97 129
97 131
97 132
97 133
97 143
97 150
97 151
97 160
97 162
97 167
97 175
98 120
99 100
99 101
99 103
99 104
99 105
99 107
99 109
99 110
99 112
99 113
99 114
99 116
99 117
99 118
99 122
99 123
99 124
99 126
99 127
99 128
99 130
99 134
99 138
99 139
99 141
99 142
99 143
99 147
99 149
99 150
99 152
99 153
99 154
99 156
99 161
99 162
99 165
99 166
99 167
99 176
99 177
100 101
100 102
100 104
100 105
100 106
100 109
100 110
100 111
100 113
100 114
100 115
100 116
100 119
100 122
100 123
100 124
100 125
100 127
100 128
100 129
100 131
100 132
100 133
100 140
100 144
100 148
100 150
100 151
100 155
100 157
100 163
100 168
100 178
101 102
101 103
101 105
101 106
101 107
101 111
101 112
101 115
101 117
101 119
101 121
101 122
101 124
101 125
101 126
101 127
101 129
101 130
101 134
101 140
101 142
101 144
101 148
101 151
101 152
101 155
101 157
101 159
101 161
101 163
101 165
101 166
101 168
101 173
101 174
101 178
102 103
102 104
102 105
102 107
102 109
102 110
102 112
102 113
102 114
102 116
102 117
102 118
102 120
102 122
102 123
102 124
102 126
102 127
102 128
102 130
102 134
102 138
102 139
102 141
102 142
102 143
102 147
102 149
102 150
102 152
102 153
102 154
102 156
102 160
102 161
102 162
102 165
102 166
102 167
102 175
102 176
102 177
103 104
103 105
103 106
103 109
103 110
103 111
103 113
103 114
103 115
103 116
103 118
103 119
103 120
103 122
103 123
103 124
103 125
103 127
103 128
103 129
103 131
103 132
103 133
103 140
103 143
103 144
103 148
103 150
103 151
103 155
103 157
103 160
103 162
103 163
103 167
103 168
103 175
103 178
104 105
104 106
104 107
104 110
104 111
104 112
104 114
104 115
104 117
104 119
104 121
104 122
104 124
104 125
104 126
104 127
104 129
104 130
104 132
104 134
104 136
104 139
104 140
104 142
104 144
104 148
104 151
104 152
104 154
104 155
104 157
104 159
104 161
104 163
104 165
104 166
104 168
104 173
104 174
104 178
105 106
105 107
105 109
105 111
105 112
105 113
105 115
105 116
105 117
105 118
105 119
105 120
105 122
105 123
105 125
105 126
105 128
105 129
105 130
105 131
105 133
105 134
105 135
105 137
105 138
105 140
105 141
105 143
105 144
105 148
105 151
105 152
105 153
105 155
105 157
105 160
105 162
105 163
105 167
105 168
105 175
105 178
106 107
106 109
106 110
106 112
106 113
106 114
106 116
106 117
106 118
106 120
106 122
106 123
106 124
106 126
106 127
106 128
106 130
106 132
106 134
106 136
106 138
106 139
106 141
106 142
106 143
106 147
106 149
106 150
106 152
106 153
106 154
106 156
106 160
106 161
106 162
106 165
106 166
106 167
106 175
106 176
106 177
107 109
107 110
107 111
107 113
107 114
107 115
107 116
107 118
107 119
107 120
107 122
107 123
107 124
107 125
107 127
107 128
107 129
107 131
107 132
107 133
107 136
107 139
107 140
107 143
107 144
107 148
107 150
107 151
107 154
107 155
107 157
107 160
107 162
107 163
107 167
107 168
107 175
107 178
109 110
109 111
109 112
109 114
109 115
109 116
109 117
109 119
109 123
109 124
109 125
109 126
109 128
109 129
109 130
109 132
109 133
109 134
109 136
109 137
109 139
109 140
109 141
109 143
109 144
109 146
109 148
109 149
109 151
109 152
109 154
109 155
109 157
109 163
109 166
109 167
109 168
109 171
109 174
109 175
109 177
109 178
109 180
109 184
109 185
109 187
110 111
110 112
110 113
110 115
110 116
110 117
110 119
110 122
110 123
110 125
110 126
110 127
110 129
110 130
110 131
110 133
110 134
110 135
110 137
110 138
110 140
110 141
110 142
110 144
110 145
110 147
110 148
110 150
110 151
110 152
110 153
110 155
110 156
110 157
110 158
110 163
110 165
110 168
110 172
110 173
110 176
110 178
110 179
110 183
110 186
111 112
111 113
111 114
111 116
111 117
111 118
111 122
111 123
111 124
111 126
111 127
111 128
111 130
111 131
111 132
111 134
111 135
111 136
111 138
111 139
111 141
111 142
111 143
111 145
111 147
111 149
111 150
111 152
111 153
111 154
111 156
111 158
111 161
111 162
111 165
111 166
111 167
111 172
111 173
111 176
111 177
111 179
111 183
111 186
112 113
112 114
112 115
112 116
112 119
112 122
112 123
112 124
112 125
112 127
112 128
112 129
112 131
112 132
112 133
112 135
112 136
112 138
112 139
112 140
112 142
112 144
112 145
112 147
112 148
112 150
112 151
112 153
112 154
112 155
112 156
112 157
112 158
112 163
112 165
112 168
112 172
112 173
112 176
112 178
112 179
112 183
112 186
113 114
113 115
113 116
113 117
113 119
113 123
113 124
113 125
113 126
113 128
113 129
113 130
113 132
113 133
113 134
113 136
113 137
113 139
113 140
113 141
113 143
113 144
113 146
113 148
113 149
113 151
113 152
113 154
113 155
113 157
113 163
113 166
113 167
113 168
113 171
113 174
113 175
113 177
113 178
113 180
113 184
113 185
113 187
114 115
114 116
114 117
114 119
114 122
114 123
114 125
114 126
114 127
114 129
114 130
114 131
114 133
114 134
114 135
114 137
114 138
114 140
114 141
114 142
114 144
114 145
114 146
114 147
114 148
114 149
114 150
114 151
114 152
114 153
114 155
114 156
114 157
114 158
114 163
114 165
114 168
114 172
114 173
114 176
114 178
114 179
114 183
114 186
115 116
115 117
115 118
115 122
115 123
115 124
115 126
115 127
115 128
115 130
115 131
115 132
115 133
115 134
115 135
115 136
115 137
115 138
115 139
115 141
115 142
115 143
115 145
115 146
115 147
115 149
115 150
115 152
115 153
115 154
115 156
115 158
115 161
115 162
115 165
115 166
115 167
115 172
115 173
115 176
115 177
115 179
115 183
115 186
116 117
116 119
116 122
116 124
116 125
116 126
116 127
116 129
116 130
116 131
116 132
116 134
116 135
116 136
116 138
116 139
116 140
116 142
116 144
116 145
116 147
116 148
116 150
116 151
116 152
116 153
116 154
116 155
116 156
116 157
116 158
116 163
116 165
116 168
116 172
116 173
116 176
116 178
116 179
116 183
116 186
117 119
117 122
117 123
117 124
117 125
117 127
117 128
117 129
117 131
117 132
117 133
117 135
117 136
117 137
117 138
117 139
117 140
117 141
117 142
117 144
117 145
117 146
117 147
117 148
117 149
117 150
117 151
117 153
117 154
117 155
117 156
117 157
117 158
117 163
117 165
117 168
117 172
117 173
117 176
117 178
117 179
117 183
117 186
118 119
118 121
118 122
118 124
118 125
118 126
118 127
118 129
118 130
118 140
118 142
118 144
118 148
118 151
118 155
118 157
118 159
118 161
118 163
118 165
118 166
118 168
118 173
118 174
118 178
119 120
119 122
119 123
119 124
119 126
119 127
119 128
119 130
119 138
119 139
119 141
119 142
119 143
119 147
119 149
119 150
119 152
119 153
119 154
119 156
119 160
119 161
119 162
119 165
119 166
119 167
119 175
119 176
119 177
120 121
120 122
120 124
120 125
120 126
120 127
120 129
120 130
120 142
120 144
120 159
120 161
120 163
120 165
120 166
120 168
120 173
120 174
121 123
121 128
121 143
121 160
121 162
121 167
121 175
122 123
122 124
122 125
122 126
122 128
122 129
122 130
122 132
122 133
122 134
122 136
122 137
122 139
122 140
122 141
122 143
122 144
122 146
122 148
122 149
122 151
122 152
122 154
122 155
122 157
122 160
122 162
122 163
122 166
122 167
122 168
122 171
122 174
122 175
122 177
122 178
122 180
122 184
122 185
122 187
123 124
123 125
123 126
123 127
123 129
123 130
123 131
123 132
123 134
123 135
123 136
123 138
123 139
123 140
123 142
123 144
123 145
123 147
123 148
123 150
123 151
123 152
123 153
123 154
123 155
123 156
123 157
123 158
123 159
123 161
123 163
123 165
123 166
123 168
123 172
123 173
123 174
123 176
123 178
123 179
123 183
123 186
124 125
124 126
124 127
124 128
124 129
124 130
124 131
124 133
124 134
124 135
124 137
124 138
124 140
124 141
124 142
124 143
124 144
124 145
124 147
124 148
124 150
124 151
124 152
124 153
124 155
124 156
124 157
124 158
124 160
124 162
124 163
124 165
124 167
124 168
124 172
124 173
124 175
124 176
124 178
124 179
124 183
124 186
125 126
125 127
125 128
125 130
125 131
125 132
125 134
125 135
125 136
125 138
125 139
125 141
125 142
125 143
125 145
125 147
125 149
125 150
125 152
125 153
125 154
125 156
125 158
125 160
125 161
125 162
125 165
125 166
125 167
125 172
125 173
125 175
125 176
125 177
125 179
125 183
125 186
126 127
126 128
126 129
126 131
126 132
126 133
126 135
126 136
126 138
126 139
126 140
126 142
126 143
126 144
126 145
126 147
126 148
126 150
126 151
126 153
126 154
126 155
126 156
126 157
126 158
126 160
126 162
126 163
126 165
126 167
126 168
126 172
126 173
126 175
126 176
126 178
126 179
126 183
126 186
127 128
127 129
127 130
127 132
127 133
127 134
127 136
127 137
127 139
127 140
127 141
127 143
127 144
127 146
127 148
127 149
127 151
127 152
127 154
127 155
127 157
127 160
127 162
127 163
127 166
127 167
127 168
127 171
127 174
127 175
127 177
127 178
127 180
127 184
127 185
127 187
128 129
128 130
128 131
128 134
128 135
128 138
128 140
128 142
128 144
128 145
128 147
128 148
128 150
128 151
128 152
128 153
128 155
128 156
128 157
128 158
128 159
128 161
128 163
128 165
128 166
128 168
128 172
128 173
128 174
128 176
128 178
128 179
128 183
128 186
129 130
129 131
129 134
129 135
129 138
129 139
129 141
129 142
129 143
129 145
129 147
129 149
129 150
129 152
129 153
129 154
129 156
129 158
129 160
129 161
129 162
129 165
129 166
129 167
129 172
129 173
129 175
129 176
129 177
129 179
129 183
129 186
130 131
130 132
130 133
130 135
130 138
130 140
130 142
130 143
130 144
130 145
130 147
130 148
130 150
130 151
130 153
130 155
130 156
130 157
130 158
130 160
130 162
130 163
130 165
130 167
130 168
130 172
130 173
130 175
130 176
130 178
130 179
130 183
130 186
131 132
131 133
131 134
131 136
131 137
131 139
131 140
131 141
131 143
131 144
131 146
131 148
131 149
131 151
131 152
131 154
131 155
131 157
131 166
131 167
131 168
131 171
131 174
131 175
131 177
131 178
131 180
131 184
131 185
131 187
132 133
132 134
132 135
132 137
132 138
132 140
132 141
132 142
132 145
132 146
132 147
132 149
132 150
132 152
132 153
132 155
132 156
132 158
132 165
132 172
132 173
132 176
132 179
132 183
132 186
133 134
133 135
133 136
133 138
133 139
133 140
133 142
133 145
133 147
133 148
133 150
133 152
133 153
133 154
133 156
133 158
133 165
133 172
133 173
133 176
133 179
133 183
133 186
134 135
134 136
134 137
134 138
134 139
134 141
134 142
134 145
134 146
134 147
134 149
134 150
134 151
134 153
134 154
134 156
134 158
134 165
134 172
134 173
134 176
134 179
134 183
134 186
135 136
135 137
135 139
135 140
135 141
135 143
135 144
135 146
135 148
135 149
135 151
135 152
135 154
135 155
135 157
135 166
135 167
135 168
135 171
135 174
135 175
135 177
135 178
135 180
135 184
135 185
135 187
136 137
136 138
136 140
136 141
136 142
136 145
136 146
136 147
136 149
136 150
136 153
136 155
136 156
136 158
136 165
136 172
136 173
136 176
136 179
136 183
136 186
137 138
137 139
137 140
137 142
137 145
137 147
137 148
137 150
137 153
137 154
137 156
137 158
137 165
137 172
137 173
137 176
137 179
137 183
137 186
138 139
138 140
138 141
138 143
138 144
138 146
138 148
138 149
138 151
138 152
138 154
138 155
138 157
138 163
138 166
138 167
138 168
138 171
138 174
138 175
138 177
138 178
138 180
138 184
138 185
138 187
139 140
139 141
139 142
139 144
139 145
139 146
139 147
139 148
139 149
139 150
139 151
139 153
139 155
139 156
139 157
139 158
139 163
139 165
139 168
139 172
139 173
139 176
139 178
139 179
139 183
139 186
140 141
140 142
140 143
140 145
140 146
140 147
140 149
140 150
140 152
140 153
140 154
140 156
140 158
140 161
140 162
140 165
140 166
140 167
140 172
140 173
140 176
140 177
140 179
140 183
140 186
141 142
141 144
141 145
141 147
141 148
141 150
141 151
141 153
141 154
141 155
141 156
141 157
141 158
141 163
141 165
141 168
141 172
141 173
141 176
141 178
141 179
141 183
141 186
142 143
142 144
142 146
142 148
142 149
142 151
142 152
142 154
142 155
142 157
142 160
142 162
142 163
142 166
142 167
142 168
142 171
142 174
142 175
142 177
142 178
142 180
142 184
142 185
142 187
143 144
143 145
143 147
143 148
143 150
143 151
143 153
143 155
143 156
143 157
143 158
143 159
143 161
143 163
143 165
143 166
143 168
143 172
143 173
143 174
143 176
143 178
143 179
143 183
143 186
144 145
144 147
144 149
144 150
144 152
144 153
144 154
144 156
144 158
144 160
144 161
144 162
144 165
144 166
144 167
144 172
144 173
144 175
144 176
144 177
144 179
144 183
144 186
145 146
145 148
145 149
145 151
145 152
145 154
145 155
145 157
145 166
145 167
145 168
145 171
145 174
145 175
145 177
145 178
145 180
145 184
145 185
145 187
146 147
146 148
146 150
146 153
146 156
146 158
146 165
146 172
146 173
146 176
146 179
146 183
146 186
147 148
147 149
147 151
147 152
147 154
147 155
147 157
147 163
147 166
147 167
147 168
147 171
147 174
147 175
147 177
147 178
147 180
147 184
147 185
147 187
148 149
148 150
148 152
148 153
148 154
148 156
148 158
148 161
148 162
148 165
148 166
148 167
148 172
148 173
148 176
148 177
148 179
148 183
148 186
149 150
149 151
149 153
149 155
149 156
149 157
149 158
149 163
149 165
149 168
149 172
149 173
149 176
149 178
149 179
149 183
149 186
150 151
150 152
150 154
150 155
150 157
150 163
150 166
150 167
150 168
150 171
150 174
150 175
150 177
150 178
150 180
150 184
150 185
150 187
151 152
151 153
151 154
151 156
151 158
151 161
151 162
151 165
151 166
151 167
151 172
151 173
151 176
151 177
151 179
151 183
151 186
152 153
152 155
152 156
152 157
152 158
152 163
152 165
152 168
152 172
152 173
152 176
152 178
152 179
152 183
152 186
153 154
153 155
153 157
153 163
153 166
153 167
153 168
153 171
153 174
153 175
153 177
153 178
153 180
153 184
153 185
153 187
154 155
154 156
154 157
154 158
154 163
154 165
154 168
154 172
154 173
154 176
154 178
154 179
154 183
154 186
155 156
155 158
155 161
155 162
155 165
155 166
155 167
155 172
155 173
155 176
155 177
155 179
155 183
155 186
156 157
156 163
156 166
156 167
156 168
156 171
156 174
156 175
156 177
156 178
156 180
156 184
156 185
156 187
157 158
157 161
157 162
157 165
157 166
157 167
157 172
157 173
157 176
157 177
157 179
157 183
157 186
158 166
158 167
158 168
158 171
158 174
158 175
158 177
158 178
158 180
158 184
158 185
158 187
159 160
159 162
159 163
159 165
159 167
159 168
159 173
159 175
159 176
159 178
159 179
160 161
160 163
160 164
160 165
160 166
160 168
160 173
160 174
160 177
160 180
161 162
161 163
161 165
161 167
161 168
161 173
161 175
161 176
161 178
161 179
162 163
162 164
162 165
162 166
162 168
162 173
162 174
162 177
162 178
162 180
163 164
163 165
163 166
163 167
163 174
163 175
163 176
163 177
163 180
164 165
164 167
164 168
164 173
164 175
164 176
164 178
164 179
165 166
165 167
165 168
165 171
165 174
165 175
165 177
165 178
165 180
165 184
165 185
165 187
166 167
166 168
166 172
166 173
166 175
166 176
166 178
166 179
166 183
166 186
167 168
167 172
167 173
167 174
167 176
167 177
167 178
167 179
167 180
167 183
167 186
168 172
168 173
168 174
168 175
168 176
168 177
168 179
168 180
168 183
168 186
169 181
169 192
169 193
169 195
170 172
170 182
170 186
170 187
170 189
170 194
170 195
170 197
170 198
170 202
170 204
170 206
170 207
171 172
171 173
171 176
171 179
171 182
171 183
171 186
171 187
171 189
171 194
171 195
171 197
171 198
171 202
171 204
171 206
171 207
172 174
172 175
172 177
172 178
172 180
172 181
172 184
172 185
172 187
172 188
172 193
172 196
172 201
172 203
172 205
173 174
173 175
173 177
173 178
173 180
173 184
173 185
173 187
174 175
174 176
174 178
174 179
174 183
174 186
175 176
175 177
175 179
175 180
175 183
175 186
176 177
176 178
176 180
176 184
176 185
176 187
177 178
177 179
177 183
177 186
178 179
178 180
178 183
178 186
179 180
179 184
179 185
179 187
180 183
180 186
181 182
181 186
181 187
181 189
181 191
181 194
181 195
181 197
181 198
181 202
181 204
181 206
181 207
182 185
182 188
182 192
182 193
182 195
182 196
182 201
182 203
182 205
183 184
183 185
183 187
183 189
183 190
183 197
183 199
184 185
184 186
184 188
184 196
184 198
184 200
185 186
185 187
185 189
185 190
185 194
185 195
185 197
185 198
185 199
185 202
185 204
185 206
185 207
186 187
186 188
186 189
186 190
186 193
186 196
186 197
186 199
186 201
186 203
186 205
187 188
187 193
187 196
187 198
187 200
187 201
187 203
187 205
188 189
188 190
188 194
188 195
188 197
188 198
188 199
188 202
188 204
188 206
188 207
189 193
189 196
189 198
189 200
189 201
189 203
189 205
190 196
190 198
190 200
191 192
191 193
191 195
191 202
191 206
191 208
191 209
192 193
192 194
192 201
192 205
192 207
192 210
193 194
193 195
193 197
193 198
193 202
193 204
193 206
193 207
193 208
193 209
194 195
194 196
194 201
194 202
194 203
194 205
194 206
194 208
194 209
195 196
195 201
195 203
195 205
195 207
195 210
196 197
196 198
196 199
196 200
196 202
196 204
196 206
196 207
196 210
196 211
197 198
197 200
197 201
197 203
197 204
197 205
197 207
197 210
197 211
198 199
198 201
198 203
198 205
198 206
198 209
199 200
199 204
199 207
199 210
199 211
200 203
200 205
200 206
200 209
201 202
201 204
201 206
201 207
201 208
201 209
202 203
202 205
202 207
202 210
203 204
203 206
203 207
203 210
203 211
204 205
204 206
204 209
205 206
205 207
205 208
205 209
205 210
205 211
206 207
206 210
206 211
207 208
207 209
208 210
209 210
209 211
