288:15097
0 1
0 4
0 5
0 7
0 8
0 9
0 11
0 12
0 14
0 16
0 17
1 2
1 3
1 5
1 6
1 8
1 9
1 10
1 12
1 13
1 15
2 4
2 5
2 7
2 8
2 9
2 11
2 12
2 14
2 16
2 17
3 4
3 5
3 7
3 8
3 9
3 11
3 12
3 14
3 16
3 17
3 20
3 31
3 49
3 68
3 76
3 84
4 5
4 6
4 8
4 9
4 10
4 12
4 13
4 15
4 16
4 20
4 31
4 49
4 68
4 76
4 84
5 6
5 7
5 9
5 10
5 11
5 13
5 15
5 17
5 21
5 30
5 32
5 47
5 48
5 50
5 65
5 66
5 67
5 69
5 74
5 75
5 77
5 83
5 85
6 7
6 8
6 9
6 11
6 12
6 14
6 16
6 17
6 18
6 20
6 21
6 24
6 26
6 29
6 31
6 32
6 38
6 44
6 49
6 50
6 68
6 69
6 73
6 76
6 77
6 82
6 84
6 85
6 93
6 102
6 129
6 133
6 139
6 151
6 155
6 167
6 170
7 8
7 9
7 10
7 12
7 13
7 14
7 15
7 16
7 17
7 18
7 20
7 21
7 24
7 26
7 29
7 31
7 32
7 38
7 44
7 49
7 50
7 68
7 69
7 73
7 76
7 77
7 82
7 84
7 85
7 93
7 102
7 129
7 133
7 139
7 151
7 155
7 167
7 170
8 9
8 10
8 11
8 12
8 13
8 14
8 15
8 17
8 18
8 21
8 24
8 26
8 29
8 30
8 32
8 38
8 44
8 47
8 48
8 50
8 65
8 66
8 67
8 69
8 73
8 74
8 75
8 77
8 82
8 83
8 85
8 93
8 102
8 129
8 133
8 139
8 151
8 155
8 167
8 170
9 10
9 11
9 13
9 15
9 16
9 20
9 23
9 25
9 27
9 28
9 30
9 31
9 35
9 36
9 37
9 42
9 43
9 47
9 48
9 49
9 65
9 66
9 67
9 68
9 70
9 71
9 72
9 74
9 75
9 76
9 78
9 79
9 80
9 81
9 83
9 84
9 91
9 92
9 101
9 124
9 125
9 126
9 127
9 128
9 130
9 131
9 132
9 134
9 135
9 136
9 137
9 138
9 140
9 146
9 147
9 148
9 149
9 150
9 152
9 153
9 154
9 156
9 163
9 164
9 165
9 166
9 168
9 169
9 171
10 11
10 12
10 14
10 16
10 17
10 18
10 21
10 24
10 26
10 29
10 32
10 38
10 44
10 50
10 69
10 73
10 77
10 82
10 85
10 93
10 102
10 129
10 133
10 139
10 151
10 155
10 167
10 170
11 12
11 13
11 14
11 15
11 17
11 18
11 21
11 24
11 26
11 29
11 32
11 38
11 44
11 50
11 69
11 73
11 77
11 82
11 85
11 93
11 102
11 129
11 133
11 139
11 151
11 155
11 167
11 170
12 13
12 15
12 16
12 20
12 23
12 25
12 27
12 28
12 30
12 31
12 35
12 36
12 37
12 42
12 43
12 47
12 48
12 49
12 65
12 66
12 67
12 68
12 70
12 71
12 72
12 74
12 75
12 76
12 78
12 79
12 80
12 81
12 83
12 84
12 91
12 92
12 101
12 124
12 125
12 126
12 127
12 128
12 130
12 131
12 132
12 134
12 135
12 136
12 137
12 138
12 140
12 146
12 147
12 148
12 149
12 150
12 152
12 153
12 154
12 156
12 163
12 164
12 165
12 166
12 168
12 169
12 171
13 14
13 16
13 17
13 18
13 21
13 24
13 26
13 29
13 32
13 38
13 44
13 50
13 69
13 73
13 77
13 82
13 85
13 93
13 102
13 129
13 133
13 139
13 151
13 155
13 167
13 170
14 15
14 16
14 20
14 23
14 25
14 27
14 28
14 30
14 31
14 35
14 36
14 37
14 42
14 43
14 47
14 48
14 49
14 65
14 66
14 67
14 68
14 70
14 71
14 72
14 74
14 75
14 76
14 78
14 79
14 80
14 81
14 83
14 84
14 91
14 92
14 101
14 124
14 125
14 126
14 127
14 128
14 130
14 131
14 132
14 134
14 135
14 136
14 137
14 138
14 140
14 146
14 147
14 148
14 149
14 150
14 152
14 153
14 154
14 156
14 163
14 164
14 165
14 166
14 168
14 169
14 171
15 16
15 17
15 18
15 20
15 21
15 24
15 26
15 29
15 31
15 32
15 38
15 44
15 49
15 50
15 68
15 69
15 73
15 76
15 77
15 82
15 84
15 85
15 93
15 102
15 129
15 133
15 139
15 151
15 155
15 167
15 170
16 17
16 18
16 21
16 24
16 26
16 29
16 30
16 32
16 38
16 44
16 47
16 48
16 50
16 65
16 66
16 67
16 69
16 73
16 74
16 75
16 77
16 82
16 83
16 85
16 93
16 102
16 129
16 133
16 139
16 151
16 155
16 167
16 170
17 20
17 23
17 25
17 27
17 28
17 30
17 31
17 35
17 36
17 37
17 42
17 43
17 47
17 48
17 49
17 65
17 66
17 67
17 68
17 70
17 71
17 72
17 74
17 75
17 76
17 78
17 79
17 80
17 81
17 83
17 84
17 91
17 92
17 101
17 124
17 125
17 126
17 127
17 128
17 130
17 131
17 132
17 134
17 135
17 136
17 137
17 138
17 140
17 146
17 147
17 148
17 149
17 150
17 152
17 153
17 154
17 156
17 163
17 164
17 165
17 166
17 168
17 169
17 171
18 20
18 23
18 25
18 27
18 28
18 30
18 31
18 35
18 36
18 37
18 42
18 43
18 47
18 48
18 49
18 65
18 66
18 67
18 68
18 70
18 71
18 72
18 74
18 75
18 76
18 78
18 79
18 80
18 81
18 83
18 84
18 91
18 92
18 101
18 124
18 125
18 126
18 127
18 128
18 130
18 131
18 132
18 134
18 135
18 136
18 137
18 138
18 140
18 146
18 147
18 148
18 149
18 150
18 152
18 153
18 154
18 156
18 163
18 164
18 165
18 166
18 168
18 169
18 171
19 52
19 64
19 94
19 96
19 117
19 192
19 194
20 21
20 24
20 26
20 29
20 30
20 32
20 38
20 44
20 47
20 48
20 50
20 65
20 66
20 67
20 69
20 73
20 74
20 75
20 77
20 82
20 83
20 85
20 93
20 102
20 129
20 133
20 139
20 151
20 155
20 167
20 170
21 23
21 25
21 27
21 28
21 30
21 31
21 35
21 36
21 37
21 42
21 43
21 47
21 48
21 49
21 65
21 66
21 67
21 68
21 70
21 71
21 72
21 74
21 75
21 76
21 78
21 79
21 80
21 81
21 83
21 84
21 91
21 92
21 101
21 124
21 125
21 126
21 127
21 128
21 130
21 131
21 132
21 134
21 135
21 136
21 137
21 138
21 140
21 146
21 147
21 148
21 149
21 150
21 152
21 153
21 154
21 156
21 163
21 164
21 165
21 166
21 168
21 169
21 171
22 26
22 28
22 29
22 34
22 36
22 37
22 38
22 40
22 41
22 46
22 54
22 57
22 58
22 60
22 61
22 62
22 78
22 80
22 81
22 82
22 88
22 90
22 97
22 99
22 100
22 103
22 105
22 106
22 107
22 109
22 110
22 111
22 112
22 113
22 115
22 116
22 119
22 121
22 122
22 124
22 125
22 127
22 128
22 129
22 135
22 137
22 138
22 139
22 140
22 141
22 143
22 144
22 145
22 146
22 147
22 149
22 150
22 151
22 152
22 157
22 158
22 160
22 161
22 162
22 177
22 178
22 180
22 181
22 182
22 195
22 196
22 198
22 199
22 208
22 209
22 211
22 212
22 214
22 215
22 216
22 220
22 222
22 223
22 227
22 229
22 231
22 233
22 234
23 24
23 26
23 27
23 29
23 31
23 32
23 33
23 35
23 37
23 38
23 39
23 41
23 43
23 44
23 48
23 49
23 50
23 59
23 61
23 62
23 65
23 67
23 68
23 69
23 70
23 72
23 73
23 74
23 76
23 77
23 78
23 79
23 81
23 82
23 85
23 91
23 93
23 102
23 103
23 104
23 106
23 107
23 108
23 110
23 111
23 112
23 113
23 114
23 116
23 119
23 120
23 122
23 124
23 125
23 126
23 128
23 129
23 130
23 132
23 133
23 134
23 135
23 136
23 138
23 139
23 140
23 141
23 142
23 144
23 145
23 146
23 147
23 148
23 150
23 151
23 152
23 153
23 155
23 156
23 157
23 158
23 159
23 161
23 162
23 163
23 164
23 166
23 167
23 168
23 170
23 172
23 173
23 175
23 176
23 177
23 178
23 179
23 181
23 182
23 185
23 187
23 188
23 190
23 191
23 203
23 204
23 206
23 212
23 213
23 215
23 216
24 25
24 27
24 28
24 30
24 31
24 34
24 35
24 36
24 37
24 40
24 42
24 43
24 47
24 48
24 49
24 60
24 65
24 66
24 67
24 68
24 70
24 71
24 72
24 74
24 75
24 76
24 78
24 79
24 80
24 81
24 83
24 84
24 91
24 92
24 101
24 105
24 109
24 115
24 121
24 124
24 125
24 126
24 127
24 128
24 130
24 131
24 132
24 134
24 135
24 136
24 137
24 138
24 140
24 143
24 146
24 147
24 148
24 149
24 150
24 152
24 153
24 154
24 156
24 160
24 163
24 164
24 165
24 166
24 168
24 169
24 171
24 174
24 180
24 186
24 189
24 205
24 214
25 26
25 28
25 29
25 32
25 34
25 36
25 37
25 38
25 40
25 41
25 44
25 46
25 50
25 54
25 57
25 58
25 60
25 61
25 62
25 69
25 73
25 77
25 78
25 80
25 81
25 82
25 85
25 88
25 90
25 93
25 97
25 99
25 100
25 102
25 103
25 105
25 106
25 107
25 109
25 110
25 111
25 112
25 113
25 115
25 116
25 119
25 121
25 122
25 124
25 125
25 127
25 128
25 129
25 133
25 135
25 137
25 138
25 139
25 140
25 141
25 143
25 144
25 145
25 146
25 147
25 149
25 150
25 151
25 152
25 155
25 157
25 158
25 160
25 161
25 162
25 167
25 170
25 177
25 178
25 180
25 181
25 182
25 195
25 196
25 198
25 199
25 208
25 209
25 211
25 212
25 214
25 215
25 216
25 220
25 222
25 223
25 227
25 229
25 231
25 233
25 234
26 27
26 28
26 30
26 31
26 33
26 35
26 36
26 37
26 39
26 42
26 43
26 45
26 47
26 48
26 49
26 53
26 56
26 59
26 65
26 66
26 67
26 68
26 70
26 71
26 72
26 74
26 75
26 76
26 78
26 79
26 80
26 81
26 83
26 84
26 89
26 91
26 92
26 98
26 101
26 104
26 108
26 114
26 120
26 124
26 125
26 126
26 127
26 128
26 130
26 131
26 132
26 134
26 135
26 136
26 137
26 138
26 140
26 142
26 146
26 147
26 148
26 149
26 150
26 152
26 153
26 154
26 156
26 159
26 163
26 164
26 165
26 166
26 168
26 169
26 171
26 179
26 197
26 210
26 213
26 221
26 228
26 232
27 28
27 29
27 30
27 32
27 34
27 36
27 37
27 38
27 40
27 41
27 42
27 44
27 46
27 47
27 50
27 54
27 57
27 58
27 60
27 61
27 62
27 66
27 69
27 71
27 73
27 75
27 77
27 78
27 80
27 81
27 82
27 85
27 88
27 90
27 92
27 93
27 97
27 99
27 100
27 102
27 103
27 105
27 106
27 107
27 109
27 110
27 111
27 112
27 113
27 115
27 116
27 119
27 121
27 122
27 124
27 125
27 127
27 128
27 129
27 131
27 133
27 135
27 137
27 138
27 139
27 140
27 141
27 143
27 144
27 145
27 146
27 147
27 149
27 150
27 151
27 152
27 154
27 155
27 157
27 158
27 160
27 161
27 162
27 165
27 167
27 170
27 174
27 177
27 178
27 180
27 181
27 182
27 186
27 189
27 195
27 196
27 198
27 199
27 205
27 208
27 209
27 211
27 212
27 214
27 215
27 216
27 220
27 222
27 223
27 227
27 229
27 231
27 233
27 234
28 29
28 31
28 32
28 33
28 35
28 37
28 38
28 39
28 41
28 43
28 44
28 45
28 48
28 49
28 50
28 53
28 56
28 59
28 61
28 62
28 65
28 67
28 68
28 69
28 70
28 72
28 73
28 74
28 76
28 77
28 78
28 79
28 81
28 82
28 85
28 89
28 91
28 93
28 98
28 102
28 103
28 104
28 106
28 107
28 108
28 110
28 111
28 112
28 113
28 114
28 116
28 119
28 120
28 122
28 124
28 125
28 126
28 128
28 129
28 130
28 132
28 133
28 134
28 135
28 136
28 138
28 139
28 140
28 141
28 142
28 144
28 145
28 146
28 147
28 148
28 150
28 151
28 152
28 153
28 155
28 156
28 157
28 158
28 159
28 161
28 162
28 163
28 164
28 166
28 167
28 168
28 170
28 172
28 173
28 175
28 176
28 177
28 178
28 179
28 181
28 182
28 185
28 187
28 188
28 190
28 191
28 197
28 203
28 204
28 206
28 210
28 212
28 213
28 215
28 216
28 221
28 228
28 232
29 30
29 31
29 33
29 34
29 35
29 36
29 37
29 39
29 40
29 42
29 43
29 45
29 47
29 48
29 49
29 53
29 56
29 59
29 60
29 65
29 66
29 67
29 68
29 70
29 71
29 72
29 74
29 75
29 76
29 78
29 79
29 80
29 81
29 83
29 84
29 89
29 91
29 92
29 98
29 101
29 104
29 105
29 108
29 109
29 114
29 115
29 120
29 121
29 124
29 125
29 126
29 127
29 128
29 130
29 131
29 132
29 134
29 135
29 136
29 137
29 138
29 140
29 142
29 143
29 146
29 147
29 148
29 149
29 150
29 152
29 153
29 154
29 156
29 159
29 160
29 163
29 164
29 165
29 166
29 168
29 169
29 171
29 174
29 179
29 180
29 186
29 189
29 197
29 205
29 210
29 213
29 214
29 221
29 228
29 232
30 31
30 32
30 33
30 35
30 37
30 38
30 39
30 41
30 43
30 44
30 48
30 49
30 50
30 59
30 61
30 62
30 65
30 67
30 68
30 69
30 70
30 72
30 73
30 74
30 76
30 77
30 78
30 79
30 81
30 82
30 84
30 85
30 91
30 93
30 102
30 103
30 104
30 106
30 107
30 108
30 110
30 111
30 112
30 113
30 114
30 116
30 119
30 120
30 122
30 124
30 125
30 126
30 128
30 129
30 130
30 132
30 133
30 134
30 135
30 136
30 138
30 139
30 140
30 141
30 142
30 144
30 145
30 146
30 147
30 148
30 150
30 151
30 152
30 153
30 155
30 156
30 157
30 158
30 159
30 161
30 162
30 163
30 164
30 166
30 167
30 168
30 170
30 172
30 173
30 175
30 176
30 177
30 178
30 179
30 181
30 182
30 185
30 187
30 188
30 190
30 191
30 203
30 204
30 206
30 212
30 213
30 215
30 216
31 32
31 34
31 36
31 38
31 40
31 42
31 44
31 47
31 48
31 50
31 60
31 65
31 66
31 67
31 69
31 71
31 73
31 74
31 75
31 77
31 80
31 82
31 83
31 85
31 92
31 93
31 102
31 105
31 109
31 115
31 121
31 127
31 129
31 131
31 133
31 137
31 139
31 143
31 149
31 151
31 154
31 155
31 160
31 165
31 167
31 170
31 174
31 180
31 186
31 189
31 205
31 214
32 34
32 35
32 36
32 37
32 40
32 42
32 43
32 47
32 48
32 49
32 60
32 65
32 66
32 67
32 68
32 70
32 71
32 72
32 74
32 75
32 76
32 78
32 79
32 80
32 81
32 83
32 84
32 91
32 92
32 101
32 105
32 109
32 115
32 121
32 124
32 125
32 126
32 127
32 128
32 130
32 131
32 132
32 134
32 135
32 136
32 137
32 138
32 140
32 143
32 146
32 147
32 148
32 149
32 150
32 152
32 153
32 154
32 156
32 160
32 163
32 164
32 165
32 166
32 168
32 169
32 171
32 174
32 180
32 186
32 189
32 205
32 214
33 34
33 36
33 37
33 38
33 40
33 41
33 42
33 46
33 47
33 54
33 57
33 58
33 60
33 61
33 62
33 66
33 71
33 75
33 78
33 80
33 81
33 82
33 88
33 90
33 92
33 97
33 99
33 100
33 103
33 105
33 106
33 107
33 109
33 110
33 111
33 112
33 113
33 115
33 116
33 119
33 121
33 122
33 124
33 125
33 127
33 128
33 129
33 131
33 135
33 137
33 138
33 139
33 140
33 141
33 143
33 144
33 145
33 146
33 147
33 149
33 150
33 151
33 152
33 154
33 157
33 158
33 160
33 161
33 162
33 165
33 174
33 177
33 178
33 180
33 181
33 182
33 186
33 189
33 195
33 196
33 198
33 199
33 205
33 208
33 209
33 211
33 212
33 214
33 215
33 216
33 220
33 222
33 223
33 227
33 229
33 231
33 233
33 234
34 35
34 37
34 38
34 39
34 41
34 43
34 44
34 45
34 48
34 49
34 50
34 53
34 56
34 59
34 61
34 62
34 65
34 67
34 68
34 69
34 70
34 72
34 73
34 74
34 76
34 77
34 78
34 79
34 81
34 82
34 89
34 91
34 93
34 98
34 103
34 104
34 106
34 107
34 108
34 110
34 111
34 112
34 113
34 114
34 116
34 119
34 120
34 122
34 124
34 125
34 126
34 128
34 129
34 130
34 132
34 133
34 134
34 135
34 136
34 138
34 139
34 140
34 141
34 142
34 144
34 145
34 146
34 147
34 148
34 150
34 151
34 152
34 153
34 155
34 156
34 157
34 158
34 159
34 161
34 162
34 163
34 164
34 166
34 167
34 168
34 172
34 173
34 175
34 176
34 177
34 178
34 179
34 181
34 182
34 185
34 187
34 188
34 190
34 191
34 197
34 203
34 204
34 206
34 210
34 212
34 213
34 215
34 216
34 221
34 228
34 232
35 36
35 37
35 38
35 40
35 41
35 42
35 43
35 44
35 46
35 47
35 48
35 50
35 54
35 57
35 58
35 60
35 61
35 62
35 66
35 67
35 69
35 71
35 72
35 73
35 75
35 77
35 78
35 80
35 81
35 82
35 85
35 88
35 90
35 92
35 93
35 97
35 99
35 100
35 102
35 103
35 105
35 106
35 107
35 109
35 110
35 111
35 112
35 113
35 115
35 116
35 119
35 121
35 122
35 124
35 125
35 127
35 128
35 129
35 131
35 132
35 133
35 135
35 137
35 138
35 139
35 140
35 141
35 143
35 144
35 145
35 146
35 147
35 149
35 150
35 151
35 152
35 154
35 155
35 157
35 158
35 160
35 161
35 162
35 165
35 166
35 167
35 170
35 174
35 175
35 177
35 178
35 180
35 181
35 182
35 186
35 189
35 190
35 195
35 196
35 198
35 199
35 205
35 208
35 209
35 211
35 212
35 214
35 215
35 216
35 220
35 222
35 223
35 227
35 229
35 231
35 233
35 234
35 237
35 240
35 244
35 247
35 249
36 37
36 38
36 39
36 41
36 43
36 44
36 45
36 46
36 48
36 49
36 50
36 53
36 56
36 57
36 59
36 61
36 62
36 65
36 67
36 68
36 69
36 70
36 72
36 73
36 74
36 76
36 77
36 78
36 79
36 81
36 82
36 85
36 89
36 91
36 93
36 98
36 99
36 102
36 103
36 104
36 106
36 107
36 108
36 110
36 111
36 112
36 113
36 114
36 116
36 119
36 120
36 122
36 124
36 125
36 126
36 128
36 129
36 130
36 132
36 133
36 134
36 135
36 136
36 138
36 139
36 140
36 141
36 142
36 144
36 145
36 146
36 147
36 148
36 150
36 151
36 152
36 153
36 155
36 156
36 157
36 158
36 159
36 161
36 162
36 163
36 164
36 166
36 167
36 168
36 170
36 172
36 173
36 175
36 176
36 177
36 178
36 179
36 181
36 182
36 185
36 187
36 188
36 190
36 191
36 197
36 198
36 203
36 204
36 206
36 210
36 212
36 213
36 215
36 216
36 221
36 222
36 228
36 229
36 232
36 233
36 237
36 240
36 244
36 247
36 249
37 38
37 39
37 40
37 42
37 44
37 45
37 47
37 49
37 50
37 53
37 56
37 58
37 59
37 60
37 62
37 65
37 66
37 68
37 69
37 70
37 71
37 73
37 75
37 77
37 78
37 79
37 80
37 82
37 85
37 89
37 92
37 93
37 97
37 98
37 100
37 102
37 103
37 104
37 105
37 107
37 108
37 109
37 111
37 112
37 113
37 114
37 115
37 119
37 120
37 121
37 124
37 125
37 126
37 127
37 129
37 130
37 131
37 133
37 134
37 135
37 136
37 137
37 139
37 140
37 141
37 142
37 143
37 145
37 146
37 147
37 148
37 149
37 151
37 152
37 154
37 155
37 157
37 158
37 159
37 160
37 162
37 163
37 164
37 165
37 167
37 168
37 170
37 172
37 173
37 174
37 176
37 177
37 178
37 179
37 180
37 182
37 186
37 188
37 189
37 191
37 195
37 196
37 197
37 199
37 205
37 210
37 212
37 213
37 214
37 216
37 220
37 221
37 223
37 227
37 228
37 231
37 232
37 234
37 235
37 236
37 238
37 239
37 241
37 242
37 243
37 245
37 246
37 248
37 250
38 39
38 40
38 41
38 42
38 43
38 45
38 46
38 47
38 48
38 49
38 53
38 56
38 57
38 59
38 60
38 61
38 65
38 66
38 67
38 68
38 70
38 71
38 72
38 74
38 75
38 76
38 78
38 79
38 80
38 81
38 83
38 84
38 89
38 91
38 92
38 98
38 99
38 101
38 104
38 105
38 106
38 108
38 109
38 110
38 114
38 115
38 116
38 120
38 121
38 122
38 124
38 125
38 126
38 127
38 128
38 130
38 131
38 132
38 134
38 135
38 136
38 137
38 138
38 140
38 142
38 143
38 144
38 146
38 147
38 148
38 149
38 150
38 152
38 153
38 154
38 156
38 159
38 160
38 161
38 163
38 164
38 165
38 166
38 168
38 169
38 171
38 174
38 175
38 179
38 180
38 181
38 186
38 189
38 190
38 197
38 198
38 205
38 210
38 213
38 214
38 215
38 221
38 222
38 228
38 229
38 232
38 233
38 237
38 240
38 244
38 247
38 249
39 40
39 41
39 42
39 43
39 46
39 47
39 48
39 54
39 57
39 58
39 60
39 61
39 62
39 66
39 67
39 71
39 72
39 75
39 78
39 80
39 81
39 82
39 88
39 90
39 92
39 97
39 99
39 100
39 103
39 105
39 106
39 107
39 109
39 110
39 111
39 112
39 113
39 115
39 116
39 119
39 121
39 122
39 124
39 125
39 127
39 128
39 129
39 131
39 132
39 135
39 137
39 138
39 139
39 140
39 141
39 143
39 144
39 145
39 146
39 147
39 149
39 150
39 151
39 152
39 154
39 157
39 158
39 160
39 161
39 162
39 165
39 166
39 174
39 175
39 177
39 178
39 180
39 181
39 182
39 186
39 189
39 190
39 195
39 196
39 198
39 199
39 205
39 208
39 209
39 211
39 212
39 214
39 215
39 216
39 220
39 222
39 223
39 227
39 229
39 231
39 233
39 234
39 237
39 240
39 244
39 247
39 249
40 41
40 43
40 44
40 45
40 46
40 48
40 49
40 50
40 53
40 56
40 57
40 59
40 61
40 62
40 65
40 67
40 68
40 69
40 70
40 72
40 73
40 74
40 76
40 77
40 78
40 79
40 81
40 82
40 89
40 91
40 93
40 98
40 99
40 103
40 104
40 106
40 107
40 108
40 110
40 111
40 112
40 113
40 114
40 116
40 119
40 120
40 122
40 124
40 125
40 126
40 128
40 129
40 130
40 132
40 133
40 134
40 135
40 136
40 138
40 139
40 140
40 141
40 142
40 144
40 145
40 146
40 147
40 148
40 150
40 151
40 152
40 153
40 155
40 156
40 157
40 158
40 159
40 161
40 162
40 163
40 164
40 166
40 167
40 168
40 172
40 173
40 175
40 176
40 177
40 178
40 179
40 181
40 182
40 185
40 187
40 188
40 190
40 191
40 197
40 198
40 203
40 204
40 206
40 210
40 212
40 213
40 215
40 216
40 221
40 222
40 228
40 229
40 232
40 233
40 237
40 240
40 244
40 247
40 249
41 42
41 44
41 45
41 47
41 49
41 50
41 53
41 56
41 58
41 59
41 60
41 62
41 65
41 66
41 68
41 69
41 70
41 71
41 73
41 75
41 78
41 79
41 80
41 82
41 89
41 92
41 97
41 98
41 100
41 103
41 104
41 105
41 107
41 108
41 109
41 111
41 112
41 113
41 114
41 115
41 119
41 120
41 121
41 124
41 125
41 126
41 127
41 129
41 130
41 131
41 133
41 134
41 135
41 136
41 137
41 139
41 140
41 141
41 142
41 143
41 145
41 146
41 147
41 148
41 149
41 151
41 152
41 154
41 157
41 158
41 159
41 160
41 162
41 163
41 164
41 165
41 167
41 168
41 172
41 173
41 174
41 176
41 177
41 178
41 179
41 180
41 182
41 186
41 188
41 189
41 191
41 195
41 196
41 197
41 199
41 205
41 210
41 212
41 213
41 214
41 216
41 220
41 221
41 223
41 227
41 228
41 231
41 232
41 234
41 235
41 236
41 238
41 239
41 241
41 242
41 243
41 245
41 246
41 248
41 250
42 43
42 44
42 46
42 48
42 49
42 50
42 57
42 59
42 61
42 62
42 65
42 67
42 68
42 69
42 70
42 72
42 73
42 74
42 76
42 77
42 78
42 79
42 81
42 82
42 85
42 91
42 93
42 99
42 102
42 103
42 104
42 106
42 107
42 108
42 110
42 111
42 112
42 113
42 114
42 116
42 119
42 120
42 122
42 124
42 125
42 126
42 128
42 129
42 130
42 132
42 133
42 134
42 135
42 136
42 138
42 139
42 140
42 141
42 142
42 144
42 145
42 146
42 147
42 148
42 150
42 151
42 152
42 153
42 155
42 156
42 157
42 158
42 159
42 161
42 162
42 163
42 164
42 166
42 167
42 168
42 170
42 172
42 173
42 175
42 176
42 177
42 178
42 179
42 181
42 182
42 185
42 187
42 188
42 190
42 191
42 198
42 203
42 204
42 206
42 212
42 213
42 215
42 216
42 222
42 229
42 233
42 237
42 240
42 244
42 247
42 249
43 44
43 45
43 47
43 49
43 50
43 56
43 58
43 59
43 60
43 62
43 65
43 66
43 68
43 69
43 70
43 71
43 73
43 75
43 77
43 78
43 79
43 80
43 82
43 85
43 92
43 93
43 97
43 98
43 100
43 102
43 103
43 104
43 105
43 107
43 108
43 109
43 111
43 112
43 113
43 114
43 115
43 119
43 120
43 121
43 124
43 125
43 126
43 127
43 129
43 130
43 131
43 133
43 134
43 135
43 136
43 137
43 139
43 140
43 141
43 142
43 143
43 145
43 146
43 147
43 148
43 149
43 151
43 152
43 154
43 155
43 157
43 158
43 159
43 160
43 162
43 163
43 164
43 165
43 167
43 168
43 170
43 172
43 173
43 174
43 176
43 177
43 178
43 179
43 180
43 182
43 186
43 188
43 189
43 191
43 195
43 196
43 197
43 199
43 205
43 212
43 213
43 214
43 216
43 220
43 221
43 223
43 227
43 228
43 231
43 232
43 234
43 235
43 236
43 238
43 239
43 241
43 242
43 243
43 245
43 246
43 248
43 250
44 46
44 47
44 48
44 49
44 57
44 60
44 61
44 65
44 66
44 67
44 68
44 70
44 71
44 72
44 74
44 75
44 76
44 78
44 79
44 80
44 81
44 83
44 84
44 91
44 92
44 99
44 101
44 105
44 106
44 109
44 110
44 115
44 116
44 121
44 122
44 124
44 125
44 126
44 127
44 128
44 130
44 131
44 132
44 134
44 135
44 136
44 137
44 138
44 140
44 143
44 144
44 146
44 147
44 148
44 149
44 150
44 152
44 153
44 154
44 156
44 160
44 161
44 163
44 164
44 165
44 166
44 168
44 169
44 171
44 174
44 175
44 180
44 181
44 186
44 189
44 190
44 198
44 205
44 214
44 215
44 222
44 229
44 233
44 237
44 240
44 244
44 247
44 249
45 46
45 48
45 54
45 57
45 58
45 60
45 61
45 62
45 67
45 72
45 78
45 80
45 81
45 82
45 88
45 90
45 97
45 99
45 100
45 103
45 105
45 106
45 107
45 109
45 110
45 111
45 112
45 113
45 115
45 116
45 119
45 121
45 122
45 124
45 125
45 127
45 128
45 129
45 132
45 135
45 137
45 138
45 139
45 140
45 141
45 143
45 144
45 145
45 146
45 147
45 149
45 150
45 151
45 152
45 157
45 158
45 160
45 161
45 162
45 166
45 175
45 177
45 178
45 180
45 181
45 182
45 190
45 195
45 196
45 198
45 199
45 208
45 209
45 211
45 212
45 214
45 215
45 216
45 220
45 222
45 223
45 227
45 229
45 231
45 233
45 234
45 237
45 240
45 244
45 247
45 249
46 47
46 49
46 50
46 53
46 56
46 58
46 59
46 60
46 62
46 65
46 66
46 68
46 69
46 70
46 71
46 73
46 78
46 79
46 80
46 82
46 89
46 97
46 98
46 100
46 103
46 104
46 105
46 107
46 108
46 109
46 111
46 112
46 113
46 114
46 115
46 119
46 120
46 121
46 124
46 125
46 126
46 127
46 129
46 130
46 131
46 133
46 134
46 135
46 136
46 137
46 139
46 140
46 141
46 142
46 143
46 145
46 146
46 147
46 148
46 149
46 151
46 152
46 157
46 158
46 159
46 160
46 162
46 163
46 164
46 165
46 167
46 168
46 172
46 173
46 174
46 176
46 177
46 178
46 179
46 180
46 182
46 188
46 189
46 191
46 195
46 196
46 197
46 199
46 210
46 212
46 213
46 214
46 216
46 220
46 221
46 223
46 227
46 228
46 231
46 232
46 234
46 235
46 236
46 238
46 239
46 241
46 242
46 243
46 245
46 246
46 248
46 250
47 48
47 49
47 50
47 57
47 59
47 61
47 62
47 65
47 67
47 68
47 69
47 70
47 72
47 73
47 74
47 76
47 77
47 78
47 79
47 81
47 82
47 84
47 85
47 91
47 93
47 99
47 102
47 103
47 104
47 106
47 107
47 108
47 110
47 111
47 112
47 113
47 114
47 116
47 119
47 120
47 122
47 124
47 125
47 126
47 128
47 129
47 130
47 132
47 133
47 134
47 135
47 136
47 138
47 139
47 140
47 141
47 142
47 144
47 145
47 146
47 147
47 148
47 150
47 151
47 152
47 153
47 155
47 156
47 157
47 158
47 159
47 161
47 162
47 163
47 164
47 166
47 167
47 168
47 170
47 172
47 173
47 175
47 176
47 177
47 178
47 179
47 181
47 182
47 185
47 187
47 188
47 190
47 191
47 198
47 203
47 204
47 206
47 212
47 213
47 215
47 216
47 222
47 229
47 233
47 237
47 240
47 244
47 247
47 249
48 49
48 50
48 56
48 58
48 59
48 60
48 62
48 65
48 66
48 68
48 69
48 70
48 71
48 73
48 75
48 76
48 77
48 78
48 79
48 80
48 82
48 84
48 85
48 92
48 93
48 97
48 98
48 100
48 102
48 103
48 104
48 105
48 107
48 108
48 109
48 111
48 112
48 113
48 114
48 115
48 119
48 120
48 121
48 124
48 125
48 126
48 127
48 129
48 130
48 131
48 133
48 134
48 135
48 136
48 137
48 139
48 140
48 141
48 142
48 143
48 145
48 146
48 147
48 148
48 149
48 151
48 152
48 154
48 155
48 157
48 158
48 159
48 160
48 162
48 163
48 164
48 165
48 167
48 168
48 170
48 172
48 173
48 174
48 176
48 177
48 178
48 179
48 180
48 182
48 186
48 188
48 189
48 191
48 195
48 196
48 197
48 199
48 205
48 212
48 213
48 214
48 216
48 220
48 221
48 223
48 227
48 228
48 231
48 232
48 234
48 235
48 236
48 238
48 239
48 241
48 242
48 243
48 245
48 246
48 248
48 250
49 50
49 57
49 60
49 61
49 65
49 66
49 67
49 69
49 71
49 72
49 73
49 74
49 75
49 77
49 80
49 81
49 82
49 83
49 85
49 92
49 93
49 99
49 102
49 105
49 106
49 109
49 110
49 115
49 116
49 121
49 122
49 127
49 128
49 129
49 131
49 132
49 133
49 137
49 138
49 139
49 143
49 144
49 149
49 150
49 151
49 154
49 155
49 160
49 161
49 165
49 166
49 167
49 170
49 174
49 175
49 180
49 181
49 186
49 189
49 190
49 198
49 205
49 214
49 215
49 222
49 229
49 233
49 237
49 240
49 244
49 247
49 249
50 57
50 60
50 61
50 65
50 66
50 67
50 68
50 70
50 71
50 72
50 74
50 75
50 76
50 78
50 79
50 80
50 81
50 83
50 84
50 91
50 92
50 99
50 101
50 105
50 106
50 109
50 110
50 115
50 116
50 121
50 122
50 124
50 125
50 126
50 127
50 128
50 130
50 131
50 132
50 134
50 135
50 136
50 137
50 138
50 140
50 143
50 144
50 146
50 147
50 148
50 149
50 150
50 152
50 153
50 154
50 156
50 160
50 161
50 163
50 164
50 165
50 166
50 168
50 169
50 171
50 174
50 175
50 180
50 181
50 186
50 189
50 190
50 198
50 205
50 214
50 215
50 222
50 229
50 233
50 237
50 240
50 244
50 247
50 249
51 52
51 64
51 94
51 96
51 117
51 192
51 194
51 202
51 207
52 63
52 95
52 118
52 192
52 193
52 201
53 54
53 55
53 57
53 58
53 60
53 61
53 62
53 64
53 78
53 80
53 81
53 82
53 87
53 88
53 90
53 96
53 97
53 99
53 100
53 103
53 105
53 106
53 107
53 109
53 110
53 111
53 112
53 113
53 115
53 116
53 119
53 121
53 122
53 124
53 125
53 127
53 128
53 129
53 135
53 137
53 138
53 139
53 140
53 141
53 143
53 144
53 145
53 146
53 147
53 149
53 150
53 151
53 152
53 157
53 158
53 160
53 161
53 162
53 177
53 178
53 180
53 181
53 182
53 195
53 196
53 198
53 199
53 208
53 209
53 211
53 212
53 214
53 215
53 216
53 220
53 222
53 223
53 226
53 227
53 229
53 231
53 233
53 234
53 245
53 250
53 253
53 257
54 56
54 57
54 59
54 60
54 61
54 63
54 79
54 86
54 88
54 89
54 94
54 95
54 97
54 98
54 99
54 104
54 107
54 108
54 109
54 110
54 114
54 120
54 126
54 136
54 141
54 142
54 143
54 144
54 148
54 159
54 177
54 178
54 179
54 180
54 181
54 195
54 196
54 197
54 198
54 208
54 209
54 210
54 213
54 220
54 221
54 222
54 224
54 225
54 228
54 232
54 242
54 243
54 244
54 248
54 249
54 251
54 252
54 256
55 56
55 57
55 59
55 60
55 61
55 63
55 86
55 88
55 89
55 94
55 95
55 97
55 98
55 99
55 107
55 108
55 109
55 110
55 141
55 142
55 143
55 144
55 177
55 178
55 179
55 180
55 181
55 195
55 196
55 197
55 198
55 208
55 209
55 210
55 220
55 221
55 222
55 224
55 225
55 242
55 243
55 244
55 248
55 249
55 251
55 252
55 256
56 57
56 58
56 60
56 61
56 62
56 64
56 67
56 72
56 78
56 80
56 81
56 82
56 87
56 88
56 90
56 96
56 97
56 99
56 100
56 103
56 105
56 106
56 107
56 109
56 110
56 111
56 112
56 113
56 115
56 116
56 119
56 121
56 122
56 124
56 125
56 127
56 128
56 129
56 132
56 135
56 137
56 138
56 139
56 140
56 141
56 143
56 144
56 145
56 146
56 147
56 149
56 150
56 151
56 152
56 157
56 158
56 160
56 161
56 162
56 166
56 175
56 177
56 178
56 180
56 181
56 182
56 190
56 195
56 196
56 198
56 199
56 208
56 209
56 211
56 212
56 214
56 215
56 216
56 220
56 222
56 223
56 226
56 227
56 229
56 231
56 233
56 234
56 237
56 240
56 244
56 245
56 247
56 249
56 250
56 253
56 257
57 58
57 59
57 60
57 62
57 64
57 65
57 66
57 68
57 69
57 70
57 71
57 73
57 78
57 79
57 80
57 82
57 87
57 89
57 90
57 96
57 97
57 98
57 100
57 103
57 104
57 105
57 107
57 108
57 109
57 111
57 112
57 113
57 114
57 115
57 119
57 120
57 121
57 124
57 125
57 126
57 127
57 129
57 130
57 131
57 133
57 134
57 135
57 136
57 137
57 139
57 140
57 141
57 142
57 143
57 145
57 146
57 147
57 148
57 149
57 151
57 152
57 157
57 158
57 159
57 160
57 162
57 163
57 164
57 165
57 167
57 168
57 172
57 173
57 174
57 176
57 177
57 178
57 179
57 180
57 182
57 188
57 189
57 191
57 195
57 196
57 197
57 199
57 210
57 211
57 212
57 213
57 214
57 216
57 220
57 221
57 223
57 226
57 227
57 228
57 231
57 232
57 234
57 235
57 236
57 238
57 239
57 241
57 242
57 243
57 245
57 246
57 248
57 250
57 253
57 257
58 59
58 60
58 61
58 63
58 67
58 72
58 79
58 81
58 86
58 88
58 89
58 94
58 95
58 97
58 98
58 99
58 104
58 106
58 107
58 108
58 109
58 110
58 114
58 116
58 120
58 122
58 126
58 128
58 132
58 136
58 138
58 141
58 142
58 143
58 144
58 148
58 150
58 159
58 161
58 166
58 175
58 177
58 178
58 179
58 180
58 181
58 190
58 195
58 196
58 197
58 198
58 208
58 209
58 210
58 213
58 215
58 220
58 221
58 222
58 224
58 225
58 228
58 229
58 232
58 233
58 237
58 240
58 242
58 243
58 244
58 247
58 248
58 249
58 251
58 252
58 256
59 60
59 61
59 62
59 64
59 66
59 67
59 71
59 72
59 75
59 78
59 80
59 81
59 82
59 87
59 88
59 90
59 92
59 96
59 97
59 99
59 100
59 103
59 105
59 106
59 107
59 109
59 110
59 111
59 112
59 113
59 115
59 116
59 119
59 121
59 122
59 124
59 125
59 127
59 128
59 129
59 131
59 132
59 135
59 137
59 138
59 139
59 140
59 141
59 143
59 144
59 145
59 146
59 147
59 149
59 150
59 151
59 152
59 154
59 157
59 158
59 160
59 161
59 162
59 165
59 166
59 174
59 175
59 177
59 178
59 180
59 181
59 182
59 186
59 189
59 190
59 195
59 196
59 198
59 199
59 205
59 208
59 209
59 211
59 212
59 214
59 215
59 216
59 220
59 222
59 223
59 226
59 227
59 229
59 231
59 233
59 234
59 237
59 240
59 244
59 245
59 247
59 249
59 250
59 253
59 257
60 61
60 62
60 64
60 65
60 67
60 68
60 69
60 70
60 72
60 73
60 74
60 76
60 77
60 78
60 79
60 81
60 82
60 87
60 89
60 90
60 91
60 93
60 96
60 98
60 99
60 100
60 103
60 104
60 106
60 107
60 108
60 110
60 111
60 112
60 113
60 114
60 116
60 119
60 120
60 122
60 124
60 125
60 126
60 128
60 129
60 130
60 132
60 133
60 134
60 135
60 136
60 138
60 139
60 140
60 141
60 142
60 144
60 145
60 146
60 147
60 148
60 150
60 151
60 152
60 153
60 155
60 156
60 157
60 158
60 159
60 161
60 162
60 163
60 164
60 166
60 167
60 168
60 172
60 173
60 175
60 176
60 177
60 178
60 179
60 181
60 182
60 185
60 187
60 188
60 190
60 191
60 197
60 198
60 199
60 203
60 204
60 206
60 210
60 211
60 212
60 213
60 215
60 216
60 221
60 222
60 223
60 226
60 228
60 229
60 232
60 233
60 237
60 240
60 244
60 245
60 247
60 249
60 250
60 253
60 257
61 62
61 64
61 65
61 66
61 68
61 69
61 70
61 71
61 73
61 75
61 78
61 79
61 80
61 82
61 87
61 89
61 90
61 92
61 96
61 97
61 98
61 100
61 103
61 104
61 105
61 107
61 108
61 109
61 111
61 112
61 113
61 114
61 115
61 119
61 120
61 121
61 124
61 125
61 126
61 127
61 129
61 130
61 131
61 133
61 134
61 135
61 136
61 137
61 139
61 140
61 141
61 142
61 143
61 145
61 146
61 147
61 148
61 149
61 151
61 152
61 154
61 157
61 158
61 159
61 160
61 162
61 163
61 164
61 165
61 167
61 168
61 172
61 173
61 174
61 176
61 177
61 178
61 179
61 180
61 182
61 186
61 188
61 189
61 191
61 195
61 196
61 197
61 199
61 205
61 210
61 211
61 212
61 213
61 214
61 216
61 220
61 221
61 223
61 226
61 227
61 228
61 231
61 232
61 234
61 235
61 236
61 238
61 239
61 241
61 242
61 243
61 245
61 246
61 248
61 250
61 253
61 257
62 63
62 66
62 67
62 71
62 72
62 75
62 79
62 80
62 81
62 86
62 88
62 89
62 92
62 94
62 95
62 97
62 98
62 99
62 104
62 105
62 106
62 107
62 108
62 109
62 110
62 114
62 115
62 116
62 120
62 121
62 122
62 126
62 127
62 128
62 131
62 132
62 136
62 137
62 138
62 141
62 142
62 143
62 144
62 148
62 149
62 150
62 154
62 159
62 160
62 161
62 165
62 166
62 174
62 175
62 177
62 178
62 179
62 180
62 181
62 186
62 189
62 190
62 195
62 196
62 197
62 198
62 205
62 208
62 209
62 210
62 213
62 214
62 215
62 220
62 221
62 222
62 224
62 225
62 228
62 229
62 232
62 233
62 237
62 240
62 242
62 243
62 244
62 247
62 248
62 249
62 251
62 252
62 256
63 64
63 87
63 90
63 94
63 96
63 100
63 111
63 117
63 145
63 182
63 192
63 194
63 199
63 211
63 223
63 226
63 245
63 250
63 253
63 257
64 86
64 88
64 89
64 94
64 95
64 97
64 98
64 99
64 107
64 108
64 109
64 110
64 118
64 141
64 142
64 143
64 144
64 177
64 178
64 179
64 180
64 181
64 193
64 195
64 196
64 197
64 198
64 208
64 209
64 210
64 220
64 221
64 222
64 224
64 225
64 242
64 243
64 244
64 248
64 249
64 251
64 252
64 256
65 66
65 67
65 68
65 69
65 71
65 72
65 73
65 75
65 76
65 77
65 79
65 80
65 81
65 82
65 84
65 85
65 92
65 93
65 99
65 102
65 104
65 105
65 106
65 109
65 110
65 112
65 114
65 115
65 116
65 121
65 122
65 124
65 126
65 127
65 128
65 129
65 131
65 132
65 133
65 134
65 136
65 137
65 138
65 139
65 140
65 143
65 144
65 146
65 148
65 149
65 150
65 151
65 152
65 154
65 155
65 156
65 157
65 159
65 160
65 161
65 162
65 163
65 165
65 166
65 167
65 168
65 170
65 171
65 172
65 174
65 175
65 176
65 180
65 181
65 184
65 186
65 187
65 189
65 190
65 191
65 198
65 203
65 205
65 206
65 214
65 215
65 217
65 219
65 222
65 229
65 233
65 235
65 237
65 238
65 240
65 244
65 247
65 249
66 67
66 68
66 69
66 70
66 72
66 73
66 74
66 76
66 77
66 78
66 79
66 81
66 82
66 83
66 84
66 85
66 91
66 93
66 99
66 101
66 102
66 103
66 104
66 106
66 107
66 108
66 110
66 111
66 112
66 113
66 114
66 116
66 119
66 120
66 122
66 123
66 124
66 125
66 126
66 128
66 129
66 130
66 132
66 133
66 134
66 135
66 136
66 138
66 139
66 140
66 141
66 142
66 144
66 145
66 146
66 147
66 148
66 150
66 151
66 152
66 153
66 155
66 156
66 157
66 158
66 159
66 161
66 162
66 163
66 164
66 166
66 167
66 168
66 169
66 170
66 172
66 173
66 175
66 176
66 177
66 178
66 179
66 181
66 182
66 183
66 185
66 187
66 188
66 190
66 191
66 198
66 203
66 204
66 206
66 212
66 213
66 215
66 216
66 218
66 222
66 229
66 233
66 236
66 237
66 240
66 244
66 247
66 249
67 68
67 69
67 70
67 71
67 73
67 74
67 75
67 76
67 77
67 78
67 79
67 80
67 82
67 83
67 84
67 85
67 91
67 92
67 93
67 97
67 98
67 100
67 101
67 102
67 103
67 104
67 105
67 107
67 108
67 109
67 111
67 112
67 113
67 114
67 115
67 119
67 120
67 121
67 123
67 124
67 125
67 126
67 127
67 129
67 130
67 131
67 133
67 134
67 135
67 136
67 137
67 139
67 140
67 141
67 142
67 143
67 145
67 146
67 147
67 148
67 149
67 151
67 152
67 153
67 154
67 155
67 157
67 158
67 159
67 160
67 162
67 163
67 164
67 165
67 167
67 168
67 169
67 170
67 172
67 173
67 174
67 176
67 177
67 178
67 179
67 180
67 182
67 183
67 185
67 186
67 188
67 189
67 191
67 195
67 196
67 197
67 199
67 204
67 205
67 212
67 213
67 214
67 216
67 218
67 220
67 221
67 223
67 227
67 228
67 231
67 232
67 234
67 235
67 236
67 238
67 239
67 241
67 242
67 243
67 245
67 246
67 248
67 250
68 69
68 70
68 71
68 72
68 73
68 74
68 75
68 77
68 78
68 80
68 81
68 82
68 83
68 85
68 91
68 92
68 93
68 99
68 101
68 102
68 103
68 105
68 106
68 109
68 110
68 113
68 115
68 116
68 121
68 122
68 123
68 125
68 127
68 128
68 129
68 130
68 131
68 132
68 133
68 135
68 137
68 138
68 139
68 143
68 144
68 147
68 149
68 150
68 151
68 153
68 154
68 155
68 158
68 160
68 161
68 164
68 165
68 166
68 167
68 169
68 170
68 173
68 174
68 175
68 180
68 181
68 183
68 185
68 186
68 188
68 189
68 190
68 198
68 204
68 205
68 214
68 215
68 218
68 222
68 229
68 233
68 236
68 237
68 240
68 244
68 247
68 249
69 70
69 71
69 72
69 74
69 75
69 76
69 78
69 79
69 80
69 81
69 83
69 84
69 91
69 92
69 99
69 101
69 103
69 105
69 106
69 109
69 110
69 113
69 115
69 116
69 121
69 122
69 123
69 124
69 125
69 126
69 127
69 128
69 130
69 131
69 132
69 134
69 135
69 136
69 137
69 138
69 140
69 143
69 144
69 146
69 147
69 148
69 149
69 150
69 152
69 153
69 154
69 156
69 158
69 160
69 161
69 163
69 164
69 165
69 166
69 168
69 169
69 171
69 173
69 174
69 175
69 180
69 181
69 183
69 185
69 186
69 188
69 189
69 190
69 198
69 204
69 205
69 214
69 215
69 218
69 222
69 229
69 233
69 236
69 237
69 240
69 244
69 247
69 249
70 71
70 72
70 73
70 75
70 76
70 77
70 79
70 80
70 81
70 82
70 84
70 85
70 92
70 93
70 99
70 102
70 104
70 105
70 106
70 109
70 110
70 112
70 114
70 115
70 116
70 121
70 122
70 124
70 126
70 127
70 128
70 129
70 131
70 132
70 133
70 134
70 136
70 137
70 138
70 139
70 140
70 143
70 144
70 146
70 148
70 149
70 150
70 151
70 152
70 154
70 155
70 156
70 157
70 159
70 160
70 161
70 162
70 163
70 165
70 166
70 167
70 168
70 170
70 171
70 172
70 174
70 175
70 176
70 180
70 181
70 184
70 186
70 187
70 189
70 190
70 191
70 198
70 203
70 205
70 206
70 214
70 215
70 217
70 219
70 222
70 229
70 233
70 235
70 237
70 238
70 240
70 244
70 247
70 249
71 72
71 73
71 74
71 76
71 77
71 78
71 79
71 81
71 82
71 83
71 85
71 91
71 93
71 99
71 101
71 102
71 103
71 104
71 106
71 107
71 108
71 110
71 111
71 112
71 113
71 114
71 116
71 119
71 120
71 122
71 123
71 124
71 125
71 126
71 128
71 129
71 130
71 132
71 133
71 134
71 135
71 136
71 138
71 139
71 140
71 141
71 142
71 144
71 145
71 146
71 147
71 148
71 150
71 151
71 152
71 153
71 155
71 156
71 157
71 158
71 159
71 161
71 162
71 163
71 164
71 166
71 167
71 168
71 169
71 170
71 172
71 173
71 175
71 176
71 177
71 178
71 179
71 181
71 182
71 183
71 185
71 187
71 188
71 190
71 191
71 198
71 203
71 204
71 206
71 212
71 213
71 215
71 216
71 218
71 222
71 229
71 233
71 236
71 237
71 240
71 244
71 247
71 249
72 73
72 74
72 75
72 77
72 78
72 79
72 80
72 82
72 83
72 85
72 91
72 92
72 93
72 97
72 98
72 100
72 101
72 102
72 103
72 104
72 105
72 107
72 108
72 109
72 111
72 112
72 113
72 114
72 115
72 119
72 120
72 121
72 123
72 124
72 125
72 126
72 127
72 129
72 130
72 131
72 133
72 134
72 135
72 136
72 137
72 139
72 140
72 141
72 142
72 143
72 145
72 146
72 147
72 148
72 149
72 151
72 152
72 153
72 154
72 155
72 157
72 158
72 159
72 160
72 162
72 163
72 164
72 165
72 167
72 168
72 169
72 170
72 172
72 173
72 174
72 176
72 177
72 178
72 179
72 180
72 182
72 183
72 185
72 186
72 188
72 189
72 191
72 195
72 196
72 197
72 199
72 204
72 205
72 212
72 213
72 214
72 216
72 218
72 220
72 221
72 223
72 227
72 228
72 231
72 232
72 234
72 235
72 236
72 238
72 239
72 241
72 242
72 243
72 245
72 246
72 248
72 250
73 74
73 75
73 76
73 78
73 79
73 80
73 81
73 83
73 84
73 91
73 92
73 99
73 101
73 103
73 105
73 106
73 109
73 110
73 113
73 115
73 116
73 121
73 122
73 123
73 124
73 125
73 126
73 127
73 128
73 130
73 131
73 132
73 134
73 135
73 136
73 137
73 138
73 140
73 143
73 144
73 146
73 147
73 148
73 149
73 150
73 152
73 153
73 154
73 156
73 158
73 160
73 161
73 163
73 164
73 165
73 166
73 168
73 169
73 171
73 173
73 174
73 175
73 180
73 181
73 183
73 185
73 186
73 188
73 189
73 190
73 198
73 204
73 205
73 214
73 215
73 218
73 222
73 229
73 233
73 236
73 237
73 240
73 244
73 247
73 249
74 75
74 76
74 77
74 79
74 80
74 81
74 82
74 84
74 85
74 92
74 93
74 102
74 104
74 105
74 106
74 109
74 112
74 114
74 115
74 116
74 121
74 124
74 126
74 127
74 128
74 129
74 131
74 132
74 133
74 134
74 136
74 137
74 138
74 139
74 140
74 143
74 146
74 148
74 149
74 150
74 151
74 152
74 154
74 155
74 156
74 157
74 159
74 160
74 161
74 162
74 163
74 165
74 166
74 167
74 168
74 170
74 171
74 172
74 174
74 175
74 176
74 180
74 184
74 186
74 187
74 189
74 190
74 191
74 203
74 205
74 206
74 214
74 217
74 219
74 235
74 237
74 238
75 76
75 77
75 78
75 79
75 81
75 82
75 83
75 84
75 85
75 91
75 93
75 101
75 102
75 103
75 104
75 106
75 107
75 108
75 110
75 111
75 112
75 113
75 114
75 116
75 119
75 120
75 122
75 123
75 124
75 125
75 126
75 128
75 129
75 130
75 132
75 133
75 134
75 135
75 136
75 138
75 139
75 140
75 141
75 142
75 144
75 145
75 146
75 147
75 148
75 150
75 151
75 152
75 153
75 155
75 156
75 157
75 158
75 159
75 161
75 162
75 163
75 164
75 166
75 167
75 168
75 169
75 170
75 172
75 173
75 175
75 176
75 177
75 178
75 179
75 181
75 182
75 183
75 185
75 187
75 188
75 190
75 191
75 203
75 204
75 206
75 212
75 213
75 215
75 216
75 218
75 236
76 77
76 78
76 80
76 82
76 83
76 85
76 91
76 92
76 93
76 101
76 102
76 103
76 105
76 109
76 113
76 115
76 121
76 123
76 125
76 127
76 129
76 130
76 131
76 133
76 135
76 137
76 139
76 143
76 147
76 149
76 151
76 153
76 154
76 155
76 158
76 160
76 164
76 165
76 167
76 169
76 170
76 173
76 174
76 180
76 183
76 185
76 186
76 188
76 189
76 204
76 205
76 214
76 218
76 236
77 78
77 79
77 80
77 81
77 83
77 84
77 91
77 92
77 101
77 103
77 105
77 109
77 113
77 115
77 121
77 123
77 124
77 125
77 126
77 127
77 128
77 130
77 131
77 132
77 134
77 135
77 136
77 137
77 138
77 140
77 143
77 146
77 147
77 148
77 149
77 150
77 152
77 153
77 154
77 156
77 158
77 160
77 163
77 164
77 165
77 166
77 168
77 169
77 171
77 173
77 174
77 180
77 183
77 185
77 186
77 188
77 189
77 204
77 205
77 214
77 218
77 236
78 79
78 80
78 81
78 82
78 84
78 85
78 89
78 92
78 93
78 98
78 99
78 102
78 104
78 105
78 106
78 108
78 109
78 110
78 112
78 114
78 115
78 116
78 120
78 121
78 122
78 124
78 126
78 127
78 128
78 129
78 131
78 132
78 133
78 134
78 136
78 137
78 138
78 139
78 140
78 142
78 143
78 144
78 146
78 148
78 149
78 150
78 151
78 152
78 154
78 155
78 156
78 157
78 159
78 160
78 161
78 162
78 163
78 165
78 166
78 167
78 168
78 170
78 171
78 172
78 174
78 175
78 176
78 179
78 180
78 181
78 184
78 186
78 187
78 189
78 190
78 191
78 197
78 198
78 203
78 205
78 206
78 210
78 213
78 214
78 215
78 217
78 219
78 221
78 222
78 228
78 229
78 232
78 233
78 235
78 237
78 238
78 240
78 244
78 247
78 249
79 80
79 81
79 82
79 83
79 85
79 88
79 90
79 91
79 92
79 93
79 97
79 99
79 100
79 101
79 102
79 103
79 105
79 106
79 107
79 109
79 110
79 111
79 112
79 113
79 115
79 116
79 119
79 121
79 122
79 123
79 124
79 125
79 127
79 128
79 129
79 130
79 131
79 132
79 133
79 135
79 137
79 138
79 139
79 140
79 141
79 143
79 144
79 145
79 146
79 147
79 149
79 150
79 151
79 152
79 153
79 154
79 155
79 157
79 158
79 160
79 161
79 162
79 164
79 165
79 166
79 167
79 169
79 170
79 173
79 174
79 175
79 177
79 178
79 180
79 181
79 182
79 183
79 185
79 186
79 188
79 189
79 190
79 195
79 196
79 198
79 199
79 204
79 205
79 208
79 209
79 211
79 212
79 214
79 215
79 216
79 218
79 220
79 222
79 223
79 227
79 229
79 231
79 233
79 234
79 236
79 237
79 240
79 244
79 247
79 249
80 81
80 82
80 83
80 85
80 89
80 91
80 93
80 98
80 99
80 101
80 102
80 103
80 104
80 106
80 107
80 108
80 110
80 111
80 112
80 113
80 114
80 116
80 119
80 120
80 122
80 123
80 124
80 125
80 126
80 128
80 129
80 130
80 132
80 133
80 134
80 135
80 136
80 138
80 139
80 140
80 141
80 142
80 144
80 145
80 146
80 147
80 148
80 150
80 151
80 152
80 153
80 155
80 156
80 157
80 158
80 159
80 161
80 162
80 163
80 164
80 166
80 167
80 168
80 169
80 170
80 172
80 173
80 175
80 176
80 177
80 178
80 179
80 181
80 182
80 183
80 185
80 187
80 188
80 190
80 191
80 197
80 198
80 203
80 204
80 206
80 210
80 212
80 213
80 215
80 216
80 218
80 221
80 222
80 228
80 229
80 232
80 233
80 236
80 237
80 240
80 244
80 247
80 249
81 82
81 83
81 85
81 89
81 91
81 92
81 93
81 97
81 98
81 100
81 101
81 102
81 103
81 104
81 105
81 107
81 108
81 109
81 111
81 112
81 113
81 114
81 115
81 119
81 120
81 121
81 123
81 124
81 125
81 126
81 127
81 129
81 130
81 131
81 133
81 134
81 135
81 136
81 137
81 139
81 140
81 141
81 142
81 143
81 145
81 146
81 147
81 148
81 149
81 151
81 152
81 153
81 154
81 155
81 157
81 158
81 159
81 160
81 162
81 163
81 164
81 165
81 167
81 168
81 169
81 170
81 172
81 173
81 174
81 176
81 177
81 178
81 179
81 180
81 182
81 183
81 185
81 186
81 188
81 189
81 191
81 195
81 196
81 197
81 199
81 204
81 205
81 210
81 212
81 213
81 214
81 216
81 218
81 220
81 221
81 223
81 227
81 228
81 231
81 232
81 234
81 235
81 236
81 238
81 239
81 241
81 242
81 243
81 245
81 246
81 248
81 250
82 83
82 84
82 89
82 91
82 92
82 98
82 99
82 101
82 103
82 104
82 105
82 106
82 108
82 109
82 110
82 113
82 114
82 115
82 116
82 120
82 121
82 122
82 123
82 124
82 125
82 126
82 127
82 128
82 130
82 131
82 132
82 134
82 135
82 136
82 137
82 138
82 140
82 142
82 143
82 144
82 146
82 147
82 148
82 149
82 150
82 152
82 153
82 154
82 156
82 158
82 159
82 160
82 161
82 163
82 164
82 165
82 166
82 168
82 169
82 171
82 173
82 174
82 175
82 179
82 180
82 181
82 183
82 185
82 186
82 188
82 189
82 190
82 197
82 198
82 204
82 205
82 210
82 213
82 214
82 215
82 218
82 221
82 222
82 228
82 229
82 232
82 233
82 236
82 237
82 240
82 244
82 247
82 249
83 84
83 85
83 92
83 93
83 102
83 104
83 105
83 106
83 112
83 114
83 115
83 116
83 124
83 126
83 127
83 128
83 129
83 131
83 132
83 133
83 134
83 136
83 137
83 138
83 139
83 140
83 146
83 148
83 149
83 150
83 151
83 152
83 154
83 155
83 156
83 157
83 159
83 160
83 161
83 162
83 163
83 165
83 166
83 167
83 168
83 170
83 171
83 172
83 174
83 175
83 176
83 184
83 186
83 187
83 189
83 190
83 191
83 203
83 205
83 206
83 217
83 219
83 235
83 237
83 238
84 85
84 91
84 93
84 101
84 102
84 103
84 113
84 123
84 125
84 129
84 130
84 133
84 135
84 139
84 147
84 151
84 153
84 155
84 158
84 164
84 167
84 169
84 170
84 173
84 183
84 185
84 188
84 204
84 218
84 236
85 91
85 92
85 101
85 103
85 113
85 123
85 124
85 125
85 126
85 127
85 128
85 130
85 131
85 132
85 134
85 135
85 136
85 137
85 138
85 140
85 146
85 147
85 148
85 149
85 150
85 152
85 153
85 154
85 156
85 158
85 163
85 164
85 165
85 166
85 168
85 169
85 171
85 173
85 183
85 185
85 188
85 204
85 218
85 236
86 87
86 89
86 90
86 95
86 96
86 98
86 99
86 100
86 108
86 109
86 110
86 111
86 118
86 145
86 177
86 179
86 180
86 181
86 182
86 195
86 197
86 198
86 199
86 208
86 210
86 211
86 223
86 224
86 226
86 242
86 244
86 245
86 250
86 251
86 253
86 254
86 257
86 264
86 268
86 269
86 271
86 274
86 276
87 88
87 89
87 94
87 95
87 97
87 98
87 99
87 107
87 108
87 109
87 110
87 117
87 141
87 142
87 143
87 144
87 177
87 178
87 179
87 180
87 181
87 195
87 196
87 197
87 198
87 200
87 208
87 209
87 210
87 220
87 221
87 222
87 224
87 225
87 242
87 243
87 244
87 248
87 249
87 251
87 252
87 255
87 256
87 265
87 267
87 270
87 275
88 89
88 90
88 95
88 96
88 98
88 99
88 100
88 104
88 108
88 109
88 110
88 111
88 114
88 118
88 120
88 126
88 136
88 142
88 145
88 148
88 159
88 177
88 179
88 180
88 181
88 182
88 195
88 197
88 198
88 199
88 208
88 210
88 211
88 213
88 221
88 223
88 224
88 226
88 228
88 232
88 242
88 244
88 245
88 250
88 251
88 253
88 254
88 257
88 264
88 268
88 269
88 271
88 274
88 276
89 90
89 94
89 96
89 97
89 99
89 100
89 103
89 105
89 106
89 107
89 109
89 110
89 111
89 112
89 113
89 115
89 116
89 117
89 119
89 121
89 122
89 124
89 125
89 127
89 128
89 129
89 135
89 137
89 138
89 139
89 140
89 141
89 143
89 144
89 145
89 146
89 147
89 149
89 150
89 151
89 152
89 157
89 158
89 160
89 161
89 162
89 177
89 178
89 180
89 181
89 182
89 195
89 196
89 198
89 199
89 200
89 208
89 209
89 211
89 212
89 214
89 215
89 216
89 220
89 222
89 223
89 225
89 226
89 227
89 229
89 231
89 233
89 234
89 243
89 245
89 250
89 252
89 253
89 255
89 257
89 265
89 267
89 270
89 275
90 94
90 95
90 97
90 98
90 99
90 104
90 107
90 108
90 109
90 110
90 114
90 117
90 120
90 126
90 136
90 141
90 142
90 143
90 144
90 148
90 159
90 177
90 178
90 179
90 180
90 181
90 195
90 196
90 197
90 198
90 200
90 208
90 209
90 210
90 213
90 220
90 221
90 222
90 224
90 225
90 228
90 232
90 242
90 243
90 244
90 248
90 249
90 251
90 252
90 255
90 256
90 265
90 267
90 270
90 275
91 92
91 93
91 102
91 104
91 105
91 106
91 109
91 112
91 114
91 115
91 116
91 121
91 124
91 126
91 127
91 128
91 129
91 131
91 132
91 133
91 134
91 136
91 137
91 138
91 139
91 140
91 143
91 146
91 148
91 149
91 150
91 151
91 152
91 154
91 155
91 156
91 157
91 159
91 160
91 161
91 162
91 163
91 165
91 166
91 167
91 168
91 170
91 171
91 172
91 174
91 175
91 176
91 180
91 184
91 186
91 187
91 189
91 190
91 191
91 203
91 205
91 206
91 214
91 217
91 219
91 235
91 237
91 238
92 93
92 101
92 102
92 103
92 104
92 106
92 107
92 108
92 110
92 111
92 112
92 113
92 114
92 116
92 119
92 120
92 122
92 123
92 124
92 125
92 126
92 128
92 129
92 130
92 132
92 133
92 134
92 135
92 136
92 138
92 139
92 140
92 141
92 142
92 144
92 145
92 146
92 147
92 148
92 150
92 151
92 152
92 153
92 155
92 156
92 157
92 158
92 159
92 161
92 162
92 163
92 164
92 166
92 167
92 168
92 169
92 170
92 172
92 173
92 175
92 176
92 177
92 178
92 179
92 181
92 182
92 183
92 185
92 187
92 188
92 190
92 191
92 203
92 204
92 206
92 212
92 213
92 215
92 216
92 218
92 236
93 101
93 103
93 105
93 109
93 113
93 115
93 121
93 123
93 124
93 125
93 126
93 127
93 128
93 130
93 131
93 132
93 134
93 135
93 136
93 137
93 138
93 140
93 143
93 146
93 147
93 148
93 149
93 150
93 152
93 153
93 154
93 156
93 158
93 160
93 163
93 164
93 165
93 166
93 168
93 169
93 171
93 173
93 174
93 180
93 183
93 185
93 186
93 188
93 189
93 204
93 205
93 214
93 218
93 236
94 95
94 96
94 98
94 99
94 100
94 108
94 109
94 110
94 111
94 118
94 145
94 177
94 179
94 180
94 181
94 182
94 193
94 195
94 197
94 198
94 199
94 208
94 210
94 211
94 223
94 224
94 226
94 242
94 244
94 245
94 250
94 251
94 253
94 254
94 257
94 264
94 268
94 269
94 271
94 274
94 276
95 96
95 97
95 100
95 107
95 111
95 117
95 145
95 178
95 182
95 192
95 194
95 196
95 199
95 200
95 209
95 211
95 223
95 225
95 226
95 243
95 245
95 250
95 252
95 253
95 255
95 257
95 265
95 267
95 270
95 275
96 97
96 98
96 99
96 107
96 108
96 109
96 110
96 117
96 118
96 141
96 142
96 143
96 144
96 177
96 178
96 179
96 180
96 181
96 193
96 195
96 196
96 197
96 198
96 200
96 208
96 209
96 210
96 220
96 221
96 222
96 224
96 225
96 242
96 243
96 244
96 248
96 249
96 251
96 252
96 255
96 256
96 265
96 267
96 270
96 275
97 98
97 99
97 100
97 104
97 106
97 108
97 109
97 110
97 111
97 114
97 116
97 118
97 120
97 122
97 126
97 128
97 132
97 136
97 138
97 142
97 144
97 145
97 148
97 150
97 159
97 161
97 166
97 175
97 177
97 179
97 180
97 181
97 182
97 190
97 195
97 197
97 198
97 199
97 208
97 210
97 211
97 213
97 215
97 221
97 222
97 223
97 224
97 226
97 228
97 229
97 232
97 233
97 237
97 240
97 242
97 244
97 245
97 247
97 249
97 250
97 251
97 253
97 254
97 257
97 264
97 268
97 269
97 271
97 274
97 276
98 99
98 100
98 103
98 105
98 106
98 107
98 109
98 110
98 111
98 112
98 113
98 115
98 116
98 117
98 119
98 121
98 122
98 124
98 125
98 127
98 128
98 129
98 132
98 135
98 137
98 138
98 139
98 140
98 141
98 143
98 144
98 145
98 146
98 147
98 149
98 150
98 151
98 152
98 157
98 158
98 160
98 161
98 162
98 166
98 175
98 177
98 178
98 180
98 181
98 182
98 190
98 195
98 196
98 198
98 199
98 200
98 208
98 209
98 211
98 212
98 214
98 215
98 216
98 220
98 222
98 223
98 225
98 226
98 227
98 229
98 231
98 233
98 234
98 237
98 240
98 243
98 244
98 245
98 247
98 249
98 250
98 252
98 253
98 255
98 257
98 265
98 267
98 270
98 275
99 100
99 103
99 104
99 105
99 107
99 108
99 109
99 111
99 112
99 113
99 114
99 115
99 117
99 119
99 120
99 121
99 124
99 125
99 126
99 127
99 129
99 130
99 131
99 133
99 134
99 135
99 136
99 137
99 139
99 140
99 141
99 142
99 143
99 145
99 146
99 147
99 148
99 149
99 151
99 152
99 157
99 158
99 159
99 160
99 162
99 163
99 164
99 165
99 167
99 168
99 172
99 173
99 174
99 176
99 177
99 178
99 179
99 180
99 182
99 188
99 189
99 191
99 195
99 196
99 197
99 199
99 200
99 209
99 210
99 211
99 212
99 213
99 214
99 216
99 220
99 221
99 223
99 225
99 226
99 227
99 228
99 231
99 232
99 234
99 235
99 236
99 238
99 239
99 241
99 242
99 243
99 245
99 246
99 248
99 250
99 252
99 253
99 255
99 257
99 265
99 267
99 270
99 275
100 104
100 106
100 107
100 108
100 109
100 110
100 114
100 116
100 117
100 120
100 122
100 126
100 128
100 132
100 136
100 138
100 141
100 142
100 143
100 144
100 148
100 150
100 159
100 161
100 166
100 175
100 177
100 178
100 179
100 180
100 181
100 190
100 195
100 196
100 197
100 198
100 200
100 208
100 209
100 210
100 213
100 215
100 220
100 221
100 222
100 224
100 225
100 228
100 229
100 232
100 233
100 237
100 240
100 242
100 243
100 244
100 247
100 248
100 249
100 251
100 252
100 255
100 256
100 265
100 267
100 270
100 275
101 102
101 104
101 105
101 106
101 112
101 114
101 115
101 116
101 124
101 126
101 127
101 128
101 129
101 131
101 132
101 133
101 134
101 136
101 137
101 138
101 139
101 140
101 146
101 148
101 149
101 150
101 151
101 152
101 154
101 155
101 156
101 157
101 159
101 160
101 161
101 162
101 163
101 165
101 166
101 167
101 168
101 170
101 171
101 172
101 174
101 175
101 176
101 184
101 186
101 187
101 189
101 190
101 191
101 203
101 205
101 206
101 217
101 219
101 235
101 237
101 238
102 103
102 113
102 123
102 124
102 125
102 126
102 127
102 128
102 130
102 131
102 132
102 134
102 135
102 136
102 137
102 138
102 140
102 146
102 147
102 148
102 149
102 150
102 152
102 153
102 154
102 156
102 158
102 163
102 164
102 165
102 166
102 168
102 169
102 171
102 173
102 183
102 185
102 188
102 204
102 218
102 236
103 104
103 105
103 106
103 108
103 109
103 110
103 112
103 114
103 115
103 116
103 120
103 121
103 122
103 124
103 126
103 127
103 128
103 129
103 131
103 132
103 133
103 134
103 136
103 137
103 138
103 139
103 140
103 142
103 143
103 144
103 146
103 148
103 149
103 150
103 151
103 152
103 154
103 155
103 156
103 157
103 159
103 160
103 161
103 162
103 163
103 165
103 166
103 167
103 168
103 170
103 171
103 172
103 174
103 175
103 176
103 179
103 180
103 181
103 184
103 186
103 187
103 189
103 190
103 191
103 197
103 198
103 203
103 205
103 206
103 210
103 213
103 214
103 215
103 217
103 219
103 221
103 222
103 228
103 229
103 232
103 233
103 235
103 237
103 238
103 240
103 244
103 247
103 249
104 105
104 106
104 107
104 109
104 110
104 111
104 112
104 113
104 115
104 116
104 119
104 121
104 122
104 123
104 124
104 125
104 127
104 128
104 129
104 130
104 131
104 132
104 135
104 137
104 138
104 139
104 140
104 141
104 143
104 144
104 145
104 146
104 147
104 149
104 150
104 151
104 152
104 153
104 154
104 157
104 158
104 160
104 161
104 162
104 164
104 165
104 166
104 169
104 173
104 174
104 175
104 177
104 178
104 180
104 181
104 182
104 183
104 185
104 186
104 188
104 189
104 190
104 195
104 196
104 198
104 199
104 204
104 205
104 208
104 209
104 211
104 212
104 214
104 215
104 216
104 218
104 220
104 222
104 223
104 227
104 229
104 231
104 233
104 234
104 236
104 237
104 240
104 244
104 247
104 249
105 106
105 107
105 108
105 110
105 111
105 112
105 113
105 114
105 116
105 119
105 120
105 122
105 123
105 124
105 125
105 126
105 128
105 129
105 130
105 132
105 133
105 134
105 135
105 136
105 138
105 139
105 140
105 141
105 142
105 144
105 145
105 146
105 147
105 148
105 150
105 151
105 152
105 153
105 155
105 156
105 157
105 158
105 159
105 161
105 162
105 163
105 164
105 166
105 167
105 168
105 169
105 172
105 173
105 175
105 176
105 177
105 178
105 179
105 181
105 182
105 183
105 185
105 187
105 188
105 190
105 191
105 197
105 198
105 203
105 204
105 206
105 210
105 212
105 213
105 215
105 216
105 218
105 221
105 222
105 228
105 229
105 232
105 233
105 236
105 237
105 240
105 244
105 247
105 249
106 107
106 108
106 109
106 111
106 112
106 113
106 114
106 115
106 119
106 120
106 121
106 123
106 124
106 125
106 126
106 127
106 129
106 130
106 131
106 133
106 134
106 135
106 136
106 137
106 139
106 140
106 141
106 142
106 143
106 145
106 146
106 147
106 148
106 149
106 151
106 152
106 153
106 154
106 157
106 158
106 159
106 160
106 162
106 163
106 164
106 165
106 167
106 168
106 169
106 172
106 173
106 174
106 176
106 177
106 178
106 179
106 180
106 182
106 183
106 185
106 186
106 188
106 189
106 191
106 195
106 196
106 197
106 199
106 204
106 205
106 210
106 212
106 213
106 214
106 216
106 218
106 220
106 221
106 223
106 227
106 228
106 231
106 232
106 234
106 235
106 236
106 238
106 239
106 241
106 242
106 243
106 245
106 246
106 248
106 250
107 108
107 109
107 110
107 111
107 114
107 115
107 116
107 118
107 120
107 121
107 122
107 126
107 127
107 128
107 131
107 132
107 136
107 137
107 138
107 142
107 143
107 144
107 145
107 148
107 149
107 150
107 154
107 159
107 160
107 161
107 165
107 166
107 174
107 175
107 177
107 179
107 180
107 181
107 182
107 186
107 189
107 190
107 195
107 197
107 198
107 199
107 205
107 208
107 210
107 211
107 213
107 214
107 215
107 221
107 222
107 223
107 224
107 226
107 228
107 229
107 232
107 233
107 237
107 240
107 242
107 244
107 245
107 247
107 249
107 250
107 251
107 253
107 254
107 257
107 264
107 268
107 269
107 271
107 274
107 276
108 109
108 110
108 111
108 112
108 113
108 115
108 116
108 117
108 119
108 121
108 122
108 124
108 125
108 127
108 128
108 129
108 131
108 132
108 135
108 137
108 138
108 139
108 140
108 141
108 143
108 144
108 145
108 146
108 147
108 149
108 150
108 151
108 152
108 154
108 157
108 158
108 160
108 161
108 162
108 165
108 166
108 174
108 175
108 177
108 178
108 180
108 181
108 182
108 186
108 189
108 190
108 195
108 196
108 198
108 199
108 200
108 205
108 208
108 209
108 211
108 212
108 214
108 215
108 216
108 220
108 222
108 223
108 225
108 226
108 227
108 229
108 231
108 233
108 234
108 237
108 240
108 243
108 244
108 245
108 247
108 249
108 250
108 252
108 253
108 255
108 257
108 265
108 267
108 270
108 275
109 110
109 111
109 112
109 113
109 114
109 116
109 117
109 119
109 120
109 122
109 124
109 125
109 126
109 128
109 129
109 130
109 132
109 133
109 134
109 135
109 136
109 138
109 139
109 140
109 141
109 142
109 144
109 145
109 146
109 147
109 148
109 150
109 151
109 152
109 153
109 155
109 156
109 157
109 158
109 159
109 161
109 162
109 163
109 164
109 166
109 167
109 168
109 172
109 173
109 175
109 176
109 177
109 178
109 179
109 181
109 182
109 185
109 187
109 188
109 190
109 191
109 196
109 197
109 198
109 199
109 200
109 203
109 204
109 206
109 209
109 210
109 211
109 212
109 213
109 215
109 216
109 221
109 222
109 223
109 225
109 226
109 228
109 229
109 232
109 233
109 237
109 240
109 243
109 244
109 245
109 247
109 249
109 250
109 252
109 253
109 255
109 257
109 265
109 267
109 270
109 275
110 111
110 112
110 113
110 114
110 115
110 117
110 119
110 120
110 121
110 124
110 125
110 126
110 127
110 129
110 130
110 131
110 133
110 134
110 135
110 136
110 137
110 139
110 140
110 141
110 142
110 143
110 145
110 146
110 147
110 148
110 149
110 151
110 152
110 154
110 157
110 158
110 159
110 160
110 162
110 163
110 164
110 165
110 167
110 168
110 172
110 173
110 174
110 176
110 177
110 178
110 179
110 180
110 182
110 186
110 188
110 189
110 191
110 195
110 196
110 197
110 199
110 200
110 205
110 209
110 210
110 211
110 212
110 213
110 214
110 216
110 220
110 221
110 223
110 225
110 226
110 227
110 228
110 231
110 232
110 234
110 235
110 236
110 238
110 239
110 241
110 242
110 243
110 245
110 246
110 248
110 250
110 252
110 253
110 255
110 257
110 265
110 267
110 270
110 275
111 114
111 115
111 116
111 117
111 120
111 121
111 122
111 126
111 127
111 128
111 131
111 132
111 136
111 137
111 138
111 141
111 142
111 143
111 144
111 148
111 149
111 150
111 154
111 159
111 160
111 161
111 165
111 166
111 174
111 175
111 177
111 178
111 179
111 180
111 181
111 186
111 189
111 190
111 195
111 196
111 197
111 198
111 200
111 205
111 208
111 209
111 210
111 213
111 214
111 215
111 220
111 221
111 222
111 224
111 225
111 228
111 229
111 232
111 233
111 237
111 240
111 242
111 243
111 244
111 247
111 248
111 249
111 251
111 252
111 255
111 256
111 265
111 267
111 270
111 275
112 113
112 114
112 115
112 116
112 120
112 121
112 122
112 123
112 125
112 126
112 127
112 128
112 129
112 130
112 131
112 132
112 135
112 136
112 137
112 138
112 142
112 143
112 144
112 145
112 147
112 148
112 149
112 150
112 151
112 152
112 153
112 154
112 158
112 159
112 160
112 161
112 162
112 164
112 165
112 166
112 167
112 168
112 169
112 173
112 174
112 175
112 176
112 178
112 179
112 180
112 181
112 182
112 183
112 185
112 186
112 188
112 189
112 190
112 196
112 197
112 198
112 199
112 204
112 205
112 206
112 209
112 210
112 211
112 213
112 214
112 215
112 216
112 218
112 219
112 221
112 222
112 223
112 225
112 226
112 228
112 229
112 232
112 233
112 234
112 236
112 237
112 238
112 240
112 241
112 243
112 244
112 245
112 247
112 249
112 250
112 257
112 263
112 265
112 275
112 276
112 281
113 114
113 115
113 116
113 119
113 120
113 121
113 122
113 124
113 126
113 127
113 128
113 129
113 131
113 132
113 133
113 134
113 136
113 137
113 138
113 139
113 140
113 141
113 142
113 143
113 144
113 146
113 148
113 149
113 150
113 151
113 152
113 154
113 155
113 156
113 157
113 159
113 160
113 161
113 162
113 163
113 165
113 166
113 167
113 168
113 170
113 171
113 172
113 174
113 175
113 176
113 177
113 179
113 180
113 181
113 184
113 186
113 187
113 189
113 190
113 191
113 195
113 197
113 198
113 203
113 205
113 206
113 208
113 210
113 212
113 213
113 214
113 215
113 217
113 219
113 220
113 221
113 222
113 224
113 227
113 228
113 229
113 231
113 232
113 233
113 235
113 237
113 238
113 239
113 240
113 242
113 244
113 246
113 247
113 248
113 249
113 256
113 258
113 262
113 264
113 274
113 280
114 115
114 116
114 119
114 121
114 122
114 123
114 124
114 125
114 127
114 128
114 129
114 130
114 131
114 132
114 135
114 137
114 138
114 139
114 140
114 141
114 143
114 144
114 145
114 146
114 147
114 149
114 150
114 151
114 152
114 153
114 154
114 157
114 158
114 160
114 161
114 162
114 163
114 164
114 165
114 166
114 169
114 172
114 173
114 174
114 175
114 177
114 178
114 180
114 181
114 182
114 183
114 185
114 186
114 188
114 189
114 190
114 195
114 196
114 198
114 199
114 203
114 204
114 205
114 208
114 209
114 211
114 212
114 214
114 215
114 216
114 217
114 218
114 220
114 222
114 223
114 224
114 227
114 229
114 231
114 233
114 234
114 235
114 236
114 237
114 239
114 240
114 242
114 244
114 246
114 247
114 248
114 249
114 256
114 258
114 262
114 264
114 274
114 280
115 116
115 119
115 120
115 122
115 123
115 124
115 125
115 126
115 128
115 129
115 130
115 132
115 133
115 134
115 135
115 136
115 138
115 139
115 140
115 141
115 142
115 144
115 145
115 146
115 147
115 148
115 150
115 151
115 152
115 153
115 155
115 156
115 157
115 158
115 159
115 161
115 162
115 163
115 164
115 166
115 167
115 168
115 169
115 172
115 173
115 175
115 176
115 177
115 178
115 179
115 181
115 182
115 183
115 185
115 187
115 188
115 190
115 191
115 195
115 197
115 198
115 203
115 204
115 206
115 208
115 210
115 212
115 213
115 215
115 216
115 217
115 218
115 220
115 221
115 222
115 224
115 227
115 228
115 229
115 231
115 232
115 233
115 235
115 236
115 237
115 239
115 240
115 242
115 244
115 246
115 247
115 248
115 249
115 256
115 258
115 262
115 264
115 274
115 280
116 119
116 120
116 121
116 123
116 124
116 125
116 126
116 127
116 129
116 130
116 131
116 133
116 134
116 135
116 136
116 137
116 139
116 140
116 141
116 142
116 143
116 145
116 146
116 147
116 148
116 149
116 151
116 152
116 153
116 154
116 157
116 158
116 159
116 160
116 162
116 163
116 164
116 165
116 167
116 168
116 169
116 172
116 173
116 174
116 176
116 177
116 178
116 179
116 180
116 182
116 183
116 185
116 186
116 188
116 189
116 191
116 195
116 196
116 197
116 199
116 203
116 204
116 205
116 208
116 210
116 212
116 213
116 214
116 216
116 217
116 218
116 220
116 221
116 223
116 224
116 227
116 228
116 231
116 232
116 234
116 235
116 236
116 238
116 239
116 241
116 242
116 243
116 245
116 246
116 248
116 250
116 256
116 258
116 262
116 264
116 274
116 280
117 118
117 177
117 179
117 180
117 181
117 182
117 193
117 195
117 197
117 198
117 199
117 208
117 210
117 211
117 224
117 226
117 242
117 244
117 245
117 251
117 253
117 254
117 264
117 268
117 269
117 271
117 274
117 276
118 178
118 192
118 194
118 196
118 200
118 209
118 225
118 243
118 252
118 255
118 265
118 267
118 270
118 275
119 120
119 121
119 122
119 125
119 126
119 127
119 128
119 129
119 131
119 132
119 136
119 137
119 138
119 142
119 143
119 144
119 145
119 147
119 148
119 149
119 150
119 151
119 152
119 154
119 158
119 159
119 160
119 161
119 162
119 164
119 165
119 166
119 167
119 168
119 173
119 174
119 175
119 176
119 178
119 179
119 180
119 181
119 182
119 186
119 189
119 190
119 196
119 197
119 198
119 199
119 204
119 205
119 206
119 209
119 210
119 211
119 213
119 214
119 215
119 216
119 218
119 219
119 221
119 222
119 223
119 225
119 226
119 228
119 229
119 232
119 233
119 234
119 236
119 237
119 238
119 240
119 241
119 243
119 244
119 245
119 247
119 249
119 250
119 257
119 263
119 265
119 275
119 276
119 281
120 121
120 122
120 124
120 125
120 127
120 128
120 129
120 131
120 132
120 135
120 137
120 138
120 139
120 140
120 141
120 143
120 144
120 145
120 146
120 147
120 149
120 150
120 151
120 152
120 154
120 157
120 158
120 160
120 161
120 162
120 163
120 165
120 166
120 172
120 174
120 175
120 177
120 178
120 180
120 181
120 182
120 186
120 189
120 190
120 195
120 196
120 198
120 199
120 203
120 205
120 208
120 209
120 211
120 212
120 214
120 215
120 216
120 217
120 220
120 222
120 223
120 224
120 227
120 229
120 231
120 233
120 234
120 235
120 237
120 239
120 240
120 242
120 244
120 246
120 247
120 248
120 249
120 256
120 258
120 262
120 264
120 274
120 280
121 122
121 124
121 125
121 126
121 128
121 129
121 130
121 132
121 133
121 134
121 135
121 136
121 138
121 139
121 140
121 141
121 142
121 144
121 145
121 146
121 147
121 148
121 150
121 151
121 152
121 153
121 155
121 156
121 157
121 158
121 159
121 161
121 162
121 163
121 164
121 166
121 167
121 168
121 172
121 173
121 175
121 176
121 177
121 178
121 179
121 181
121 182
121 185
121 187
121 188
121 190
121 191
121 195
121 197
121 198
121 203
121 204
121 206
121 208
121 210
121 212
121 213
121 215
121 216
121 217
121 220
121 221
121 222
121 224
121 227
121 228
121 229
121 231
121 232
121 233
121 235
121 237
121 239
121 240
121 242
121 244
121 246
121 247
121 248
121 249
121 256
121 258
121 262
121 264
121 274
121 280
122 124
122 125
122 126
122 127
122 129
122 130
122 131
122 133
122 134
122 135
122 136
122 137
122 139
122 140
122 141
122 142
122 143
122 145
122 146
122 147
122 148
122 149
122 151
122 152
122 154
122 157
122 158
122 159
122 160
122 162
122 163
122 164
122 165
122 167
122 168
122 172
122 173
122 174
122 176
122 177
122 178
122 179
122 180
122 182
122 186
122 188
122 189
122 191
122 195
122 196
122 197
122 199
122 203
122 205
122 208
122 210
122 212
122 213
122 214
122 216
122 217
122 220
122 221
122 223
122 224
122 227
122 228
122 231
122 232
122 234
122 235
122 236
122 238
122 239
122 241
122 242
122 243
122 245
122 246
122 248
122 250
122 256
122 258
122 262
122 264
122 274
122 280
123 124
123 126
123 127
123 128
123 129
123 131
123 132
123 133
123 134
123 136
123 137
123 138
123 139
123 140
123 146
123 148
123 149
123 150
123 151
123 152
123 154
123 155
123 156
123 157
123 159
123 160
123 161
123 162
123 163
123 165
123 166
123 167
123 168
123 170
123 171
123 172
123 174
123 175
123 176
123 184
123 186
123 187
123 189
123 190
123 191
123 203
123 205
123 206
123 217
123 219
123 235
123 237
123 238
124 125
124 126
124 127
124 128
124 129
124 130
124 131
124 132
124 133
124 135
124 136
124 137
124 138
124 139
124 142
124 143
124 144
124 145
124 147
124 148
124 149
124 150
124 151
124 152
124 153
124 154
124 155
124 158
124 159
124 160
124 161
124 162
124 164
124 165
124 166
124 167
124 168
124 169
124 170
124 173
124 174
124 175
124 176
124 178
124 179
124 180
124 181
124 182
124 183
124 185
124 186
124 188
124 189
124 190
124 196
124 197
124 198
124 199
124 204
124 205
124 206
124 209
124 210
124 211
124 213
124 214
124 215
124 216
124 218
124 219
124 221
124 222
124 223
124 225
124 226
124 228
124 229
124 232
124 233
124 234
124 236
124 237
124 238
124 240
124 241
124 243
124 244
124 245
124 247
124 249
124 250
124 257
124 263
124 265
124 275
124 276
124 281
125 126
125 127
125 128
125 129
125 131
125 132
125 133
125 134
125 136
125 137
125 138
125 139
125 140
125 141
125 142
125 143
125 144
125 146
125 148
125 149
125 150
125 151
125 152
125 154
125 155
125 156
125 157
125 159
125 160
125 161
125 162
125 163
125 165
125 166
125 167
125 168
125 170
125 171
125 172
125 174
125 175
125 176
125 177
125 179
125 180
125 181
125 184
125 186
125 187
125 189
125 190
125 191
125 195
125 197
125 198
125 203
125 205
125 206
125 208
125 210
125 212
125 213
125 214
125 215
125 217
125 219
125 220
125 221
125 222
125 224
125 227
125 228
125 229
125 231
125 232
125 233
125 235
125 237
125 238
125 239
125 240
125 242
125 244
125 246
125 247
125 248
125 249
125 256
125 258
125 262
125 264
125 274
125 280
126 127
126 128
126 129
126 130
126 131
126 132
126 133
126 135
126 137
126 138
126 139
126 140
126 141
126 143
126 144
126 145
126 146
126 147
126 149
126 150
126 151
126 152
126 153
126 154
126 155
126 157
126 158
126 160
126 161
126 162
126 163
126 164
126 165
126 166
126 167
126 169
126 170
126 172
126 173
126 174
126 175
126 177
126 178
126 180
126 181
126 182
126 183
126 185
126 186
126 188
126 189
126 190
126 195
126 196
126 198
126 199
126 203
126 204
126 205
126 208
126 209
126 211
126 212
126 214
126 215
126 216
126 217
126 218
126 220
126 222
126 223
126 224
126 227
126 229
126 231
126 233
126 234
126 235
126 236
126 237
126 239
126 240
126 242
126 244
126 246
126 247
126 248
126 249
126 256
126 258
126 262
126 264
126 274
126 280
127 128
127 129
127 130
127 132
127 133
127 134
127 135
127 136
127 138
127 139
127 140
127 141
127 142
127 144
127 145
127 146
127 147
127 148
127 150
127 151
127 152
127 153
127 155
127 156
127 157
127 158
127 159
127 161
127 162
127 163
127 164
127 166
127 167
127 168
127 169
127 170
127 172
127 173
127 175
127 176
127 177
127 178
127 179
127 181
127 182
127 183
127 185
127 187
127 188
127 190
127 191
127 195
127 197
127 198
127 203
127 204
127 206
127 208
127 210
127 212
127 213
127 215
127 216
127 217
127 218
127 220
127 221
127 222
127 224
127 227
127 228
127 229
127 231
127 232
127 233
127 235
127 236
127 237
127 239
127 240
127 242
127 244
127 246
127 247
127 248
127 249
127 256
127 258
127 262
127 264
127 274
127 280
128 129
128 130
128 131
128 133
128 134
128 135
128 136
128 137
128 139
128 140
128 141
128 142
128 143
128 145
128 146
128 147
128 148
128 149
128 151
128 152
128 153
128 154
128 155
128 157
128 158
128 159
128 160
128 162
128 163
128 164
128 165
128 167
128 168
128 169
128 170
128 172
128 173
128 174
128 176
128 177
128 178
128 179
128 180
128 182
128 183
128 185
128 186
128 188
128 189
128 191
128 195
128 196
128 197
128 199
128 203
128 204
128 205
128 208
128 210
128 212
128 213
128 214
128 216
128 217
128 218
128 220
128 221
128 223
128 224
128 227
128 228
128 231
128 232
128 234
128 235
128 236
128 238
128 239
128 241
128 242
128 243
128 245
128 246
128 248
128 250
128 256
128 258
128 262
128 264
128 274
128 280
129 130
129 131
129 132
129 134
129 135
129 136
129 137
129 138
129 140
129 141
129 142
129 143
129 144
129 146
129 147
129 148
129 149
129 150
129 152
129 153
129 154
129 156
129 157
129 158
129 159
129 160
129 161
129 163
129 164
129 165
129 166
129 168
129 169
129 171
129 172
129 173
129 174
129 175
129 177
129 179
129 180
129 181
129 183
129 185
129 186
129 188
129 189
129 190
129 195
129 197
129 198
129 203
129 204
129 205
129 208
129 210
129 212
129 213
129 214
129 215
129 217
129 218
129 220
129 221
129 222
129 224
129 227
129 228
129 229
129 231
129 232
129 233
129 235
129 236
129 237
129 239
129 240
129 242
129 244
129 246
129 247
129 248
129 249
129 256
129 258
129 262
129 264
129 274
129 280
130 131
130 132
130 133
130 134
130 136
130 137
130 138
130 139
130 140
130 143
130 144
130 146
130 148
130 149
130 150
130 151
130 152
130 154
130 155
130 156
130 157
130 159
130 160
130 161
130 162
130 163
130 165
130 166
130 167
130 168
130 170
130 171
130 172
130 174
130 175
130 176
130 180
130 181
130 184
130 186
130 187
130 189
130 190
130 191
130 198
130 203
130 205
130 206
130 214
130 215
130 216
130 217
130 219
130 222
130 229
130 233
130 234
130 235
130 237
130 238
130 240
130 241
130 244
130 247
130 249
130 263
130 266
131 132
131 133
131 134
131 135
131 136
131 138
131 139
131 140
131 141
131 142
131 144
131 145
131 146
131 147
131 148
131 150
131 151
131 152
131 153
131 155
131 156
131 157
131 158
131 159
131 161
131 162
131 163
131 164
131 166
131 167
131 168
131 169
131 170
131 171
131 172
131 173
131 175
131 176
131 177
131 178
131 179
131 181
131 182
131 183
131 184
131 185
131 187
131 188
131 190
131 191
131 198
131 203
131 204
131 206
131 212
131 213
131 215
131 216
131 218
131 219
131 222
131 229
131 233
131 234
131 236
131 237
131 238
131 240
131 241
131 244
131 247
131 249
131 263
131 266
132 133
132 134
132 135
132 136
132 137
132 139
132 140
132 141
132 142
132 143
132 145
132 146
132 147
132 148
132 149
132 151
132 152
132 153
132 154
132 155
132 156
132 157
132 158
132 159
132 160
132 162
132 163
132 164
132 165
132 167
132 168
132 169
132 170
132 171
132 172
132 173
132 174
132 176
132 177
132 178
132 179
132 180
132 182
132 183
132 184
132 185
132 186
132 187
132 188
132 189
132 191
132 195
132 196
132 197
132 199
132 204
132 205
132 206
132 212
132 213
132 214
132 216
132 218
132 219
132 220
132 221
132 223
132 227
132 228
132 231
132 232
132 234
132 235
132 236
132 238
132 239
132 241
132 242
132 243
132 245
132 246
132 248
132 250
132 263
132 266
133 134
133 135
133 136
133 137
133 138
133 140
133 143
133 144
133 146
133 147
133 148
133 149
133 150
133 152
133 153
133 154
133 156
133 158
133 160
133 161
133 162
133 163
133 164
133 165
133 166
133 168
133 169
133 171
133 173
133 174
133 175
133 176
133 180
133 181
133 183
133 184
133 185
133 186
133 187
133 188
133 189
133 190
133 191
133 198
133 204
133 205
133 206
133 214
133 215
133 216
133 218
133 219
133 222
133 229
133 233
133 234
133 236
133 237
133 238
133 240
133 241
133 244
133 247
133 249
133 263
133 266
134 135
134 136
134 137
134 138
134 139
134 143
134 144
134 146
134 147
134 148
134 149
134 150
134 151
134 153
134 154
134 155
134 157
134 158
134 159
134 160
134 161
134 163
134 164
134 165
134 166
134 167
134 169
134 170
134 172
134 173
134 174
134 175
134 180
134 181
134 183
134 185
134 186
134 188
134 189
134 190
134 198
134 203
134 204
134 205
134 212
134 213
134 214
134 215
134 217
134 218
134 222
134 229
134 231
134 232
134 233
134 235
134 236
134 237
134 239
134 240
134 244
134 247
134 249
134 262
135 136
135 137
135 138
135 139
135 140
135 142
135 143
135 144
135 146
135 148
135 149
135 150
135 151
135 152
135 154
135 155
135 156
135 157
135 159
135 160
135 161
135 162
135 163
135 165
135 166
135 167
135 168
135 170
135 171
135 172
135 174
135 175
135 176
135 179
135 180
135 181
135 184
135 186
135 187
135 189
135 190
135 191
135 197
135 198
135 203
135 205
135 206
135 210
135 213
135 214
135 215
135 216
135 217
135 219
135 221
135 222
135 228
135 229
135 232
135 233
135 234
135 235
135 237
135 238
135 240
135 241
135 244
135 247
135 249
135 263
135 266
136 137
136 138
136 139
136 140
136 141
136 143
136 144
136 145
136 146
136 147
136 149
136 150
136 151
136 152
136 153
136 154
136 155
136 156
136 157
136 158
136 160
136 161
136 162
136 164
136 165
136 166
136 167
136 168
136 169
136 170
136 171
136 173
136 174
136 175
136 176
136 177
136 178
136 180
136 181
136 182
136 183
136 184
136 185
136 186
136 187
136 188
136 189
136 190
136 191
136 195
136 196
136 198
136 199
136 204
136 205
136 206
136 208
136 209
136 211
136 212
136 214
136 215
136 216
136 218
136 219
136 220
136 222
136 223
136 227
136 229
136 231
136 233
136 234
136 236
136 237
136 238
136 240
136 241
136 244
136 247
136 249
136 263
136 266
137 138
137 139
137 140
137 141
137 142
137 144
137 145
137 146
137 147
137 148
137 150
137 151
137 152
137 153
137 155
137 156
137 157
137 158
137 159
137 161
137 162
137 163
137 164
137 166
137 167
137 168
137 169
137 170
137 171
137 172
137 173
137 175
137 176
137 177
137 178
137 179
137 181
137 182
137 183
137 184
137 185
137 187
137 188
137 190
137 191
137 197
137 198
137 203
137 204
137 206
137 210
137 212
137 213
137 215
137 216
137 218
137 219
137 221
137 222
137 228
137 229
137 232
137 233
137 234
137 236
137 237
137 238
137 240
137 241
137 244
137 247
137 249
137 263
137 266
138 139
138 140
138 141
138 142
138 143
138 145
138 146
138 147
138 148
138 149
138 151
138 152
138 153
138 154
138 155
138 156
138 157
138 158
138 159
138 160
138 162
138 163
138 164
138 165
138 167
138 168
138 169
138 170
138 171
138 172
138 173
138 174
138 176
138 177
138 178
138 179
138 180
138 182
138 183
138 184
138 185
138 186
138 187
138 188
138 189
138 191
138 195
138 196
138 197
138 199
138 204
138 205
138 206
138 210
138 212
138 213
138 214
138 216
138 218
138 219
138 220
138 221
138 223
138 227
138 228
138 231
138 232
138 234
138 235
138 236
138 238
138 239
138 241
138 242
138 243
138 245
138 246
138 248
138 250
138 263
138 266
139 140
139 142
139 143
139 144
139 146
139 147
139 148
139 149
139 150
139 152
139 153
139 154
139 156
139 158
139 159
139 160
139 161
139 162
139 163
139 164
139 165
139 166
139 168
139 169
139 171
139 173
139 174
139 175
139 176
139 179
139 180
139 181
139 183
139 184
139 185
139 186
139 187
139 188
139 189
139 190
139 191
139 197
139 198
139 204
139 205
139 206
139 210
139 213
139 214
139 215
139 216
139 218
139 219
139 221
139 222
139 228
139 229
139 232
139 233
139 234
139 236
139 237
139 238
139 240
139 241
139 244
139 247
139 249
139 263
139 266
140 142
140 143
140 144
140 146
140 147
140 148
140 149
140 150
140 151
140 153
140 154
140 155
140 157
140 158
140 159
140 160
140 161
140 163
140 164
140 165
140 166
140 167
140 169
140 170
140 172
140 173
140 174
140 175
140 179
140 180
140 181
140 183
140 185
140 186
140 188
140 189
140 190
140 197
140 198
140 203
140 204
140 205
140 210
140 212
140 213
140 214
140 215
140 217
140 218
140 221
140 222
140 228
140 229
140 231
140 232
140 233
140 235
140 236
140 237
140 239
140 240
140 244
140 247
140 249
140 262
141 142
141 143
141 144
141 145
141 147
141 148
141 149
141 150
141 151
141 152
141 154
141 158
141 159
141 160
141 161
141 162
141 164
141 165
141 166
141 167
141 168
141 173
141 174
141 175
141 176
141 178
141 179
141 180
141 181
141 182
141 186
141 189
141 190
141 196
141 197
141 198
141 199
141 204
141 205
141 206
141 209
141 210
141 211
141 213
141 214
141 215
141 216
141 218
141 219
141 221
141 222
141 223
141 225
141 226
141 228
141 229
141 232
141 233
141 234
141 236
141 237
141 238
141 240
141 241
141 243
141 244
141 245
141 247
141 249
141 250
141 253
141 257
141 263
141 265
141 275
141 276
141 281
142 143
142 144
142 145
142 146
142 147
142 149
142 150
142 151
142 152
142 154
142 157
142 158
142 160
142 161
142 162
142 163
142 165
142 166
142 172
142 174
142 175
142 177
142 178
142 180
142 181
142 182
142 186
142 189
142 190
142 195
142 196
142 198
142 199
142 203
142 205
142 208
142 209
142 211
142 212
142 214
142 215
142 216
142 217
142 220
142 222
142 223
142 224
142 226
142 227
142 229
142 231
142 233
142 234
142 235
142 237
142 239
142 240
142 242
142 244
142 245
142 246
142 247
142 248
142 249
142 250
142 253
142 256
142 257
142 258
142 262
142 264
142 274
142 280
143 144
143 145
143 146
143 147
143 148
143 150
143 151
143 152
143 153
143 155
143 156
143 157
143 158
143 159
143 161
143 162
143 163
143 164
143 166
143 167
143 168
143 172
143 173
143 175
143 176
143 177
143 178
143 179
143 181
143 182
143 185
143 187
143 188
143 190
143 191
143 195
143 197
143 198
143 199
143 203
143 204
143 206
143 208
143 210
143 211
143 212
143 213
143 215
143 216
143 217
143 220
143 221
143 222
143 223
143 224
143 226
143 227
143 228
143 229
143 231
143 232
143 233
143 235
143 237
143 239
143 240
143 242
143 244
143 245
143 246
143 247
143 248
143 249
143 250
143 253
143 256
143 257
143 258
143 262
143 264
143 274
143 280
144 145
144 146
144 147
144 148
144 149
144 151
144 152
144 154
144 157
144 158
144 159
144 160
144 162
144 163
144 164
144 165
144 167
144 168
144 172
144 173
144 174
144 176
144 177
144 178
144 179
144 180
144 182
144 186
144 188
144 189
144 191
144 195
144 196
144 197
144 199
144 203
144 205
144 208
144 210
144 211
144 212
144 213
144 214
144 216
144 217
144 220
144 221
144 223
144 224
144 226
144 227
144 228
144 231
144 232
144 234
144 235
144 236
144 238
144 239
144 241
144 242
144 243
144 245
144 246
144 248
144 250
144 253
144 256
144 257
144 258
144 262
144 264
144 274
144 280
145 146
145 148
145 149
145 150
145 154
145 157
145 159
145 160
145 161
145 163
145 165
145 166
145 172
145 174
145 175
145 177
145 178
145 179
145 180
145 181
145 186
145 189
145 190
145 195
145 196
145 197
145 198
145 203
145 205
145 208
145 209
145 210
145 212
145 213
145 214
145 215
145 217
145 220
145 221
145 222
145 224
145 225
145 227
145 228
145 229
145 231
145 232
145 233
145 235
145 237
145 239
145 240
145 242
145 243
145 244
145 246
145 247
145 248
145 249
145 251
145 252
145 256
145 258
145 262
145 264
145 274
145 280
146 147
146 148
146 149
146 150
146 151
146 152
146 153
146 154
146 155
146 156
146 158
146 159
146 160
146 161
146 162
146 164
146 165
146 166
146 167
146 168
146 169
146 170
146 171
146 173
146 174
146 175
146 176
146 178
146 179
146 180
146 181
146 182
146 183
146 184
146 185
146 186
146 187
146 188
146 189
146 190
146 191
146 196
146 197
146 198
146 199
146 204
146 205
146 206
146 209
146 210
146 211
146 213
146 214
146 215
146 216
146 218
146 219
146 221
146 222
146 223
146 225
146 226
146 228
146 229
146 232
146 233
146 234
146 236
146 237
146 238
146 240
146 241
146 243
146 244
146 245
146 247
146 249
146 250
146 257
146 263
146 265
146 266
146 275
146 276
146 281
147 148
147 149
147 150
147 151
147 152
147 154
147 155
147 156
147 157
147 159
147 160
147 161
147 162
147 163
147 165
147 166
147 167
147 168
147 170
147 171
147 172
147 174
147 175
147 176
147 177
147 179
147 180
147 181
147 184
147 186
147 187
147 189
147 190
147 191
147 195
147 197
147 198
147 203
147 205
147 206
147 208
147 210
147 212
147 213
147 214
147 215
147 216
147 217
147 219
147 220
147 221
147 222
147 224
147 227
147 228
147 229
147 231
147 232
147 233
147 234
147 235
147 237
147 238
147 239
147 240
147 241
147 242
147 244
147 246
147 247
147 248
147 249
147 256
147 258
147 262
147 263
147 264
147 266
147 274
147 280
148 149
148 150
148 151
148 152
148 153
148 154
148 155
148 156
148 157
148 158
148 160
148 161
148 162
148 163
148 164
148 165
148 166
148 167
148 168
148 169
148 170
148 171
148 172
148 173
148 174
148 175
148 176
148 177
148 178
148 180
148 181
148 182
148 183
148 184
148 185
148 186
148 187
148 188
148 189
148 190
148 191
148 195
148 196
148 198
148 199
148 203
148 204
148 205
148 206
148 208
148 209
148 211
148 212
148 214
148 215
148 216
148 217
148 218
148 219
148 220
148 222
148 223
148 224
148 227
148 229
148 231
148 233
148 234
148 235
148 236
148 237
148 238
148 239
148 240
148 241
148 242
148 244
148 246
148 247
148 248
148 249
148 256
148 258
148 262
148 263
148 264
148 266
148 274
148 280
149 150
149 151
149 152
149 153
149 155
149 156
149 157
149 158
149 159
149 161
149 162
149 163
149 164
149 166
149 167
149 168
149 169
149 170
149 171
149 172
149 173
149 175
149 176
149 177
149 178
149 179
149 181
149 182
149 183
149 184
149 185
149 187
149 188
149 190
149 191
149 195
149 197
149 198
149 203
149 204
149 206
149 208
149 210
149 212
149 213
149 215
149 216
149 217
149 218
149 219
149 220
149 221
149 222
149 224
149 227
149 228
149 229
149 231
149 232
149 233
149 234
149 235
149 236
149 237
149 238
149 239
149 240
149 241
149 242
149 244
149 246
149 247
149 248
149 249
149 256
149 258
149 262
149 263
149 264
149 266
149 274
149 280
150 151
150 152
150 153
150 154
150 155
150 156
150 157
150 158
150 159
150 160
150 162
150 163
150 164
150 165
150 167
150 168
150 169
150 170
150 171
150 172
150 173
150 174
150 176
150 177
150 178
150 179
150 180
150 182
150 183
150 184
150 185
150 186
150 187
150 188
150 189
150 191
150 195
150 196
150 197
150 199
150 203
150 204
150 205
150 206
150 208
150 210
150 212
150 213
150 214
150 216
150 217
150 218
150 219
150 220
150 221
150 223
150 224
150 227
150 228
150 231
150 232
150 234
150 235
150 236
150 238
150 239
150 241
150 242
150 243
150 245
150 246
150 248
150 250
150 256
150 258
150 262
150 263
150 264
150 266
150 274
150 280
151 152
151 153
151 154
151 156
151 157
151 158
151 159
151 160
151 161
151 162
151 163
151 164
151 165
151 166
151 168
151 169
151 171
151 172
151 173
151 174
151 175
151 176
151 177
151 179
151 180
151 181
151 183
151 184
151 185
151 186
151 187
151 188
151 189
151 190
151 191
151 195
151 197
151 198
151 203
151 204
151 205
151 206
151 208
151 210
151 212
151 213
151 214
151 215
151 216
151 217
151 218
151 219
151 220
151 221
151 222
151 224
151 227
151 228
151 229
151 231
151 232
151 233
151 234
151 235
151 236
151 237
151 238
151 239
151 240
151 241
151 242
151 244
151 246
151 247
151 248
151 249
151 256
151 258
151 262
151 263
151 264
151 266
151 274
151 280
152 153
152 154
152 155
152 157
152 158
152 159
152 160
152 161
152 163
152 164
152 165
152 166
152 167
152 169
152 170
152 172
152 173
152 174
152 175
152 177
152 179
152 180
152 181
152 183
152 185
152 186
152 188
152 189
152 190
152 195
152 197
152 198
152 203
152 204
152 205
152 208
152 210
152 212
152 213
152 214
152 215
152 217
152 218
152 220
152 221
152 222
152 224
152 227
152 228
152 229
152 231
152 232
152 233
152 235
152 236
152 237
152 239
152 240
152 242
152 244
152 246
152 247
152 248
152 249
152 256
152 258
152 262
152 264
152 274
152 280
153 154
153 155
153 156
153 157
153 159
153 160
153 161
153 162
153 163
153 165
153 166
153 167
153 168
153 170
153 171
153 172
153 174
153 175
153 176
153 180
153 184
153 186
153 187
153 189
153 190
153 191
153 203
153 205
153 206
153 214
153 216
153 217
153 219
153 234
153 235
153 237
153 238
153 241
153 263
153 266
154 155
154 156
154 157
154 158
154 159
154 161
154 162
154 163
154 164
154 166
154 167
154 168
154 169
154 170
154 171
154 172
154 173
154 175
154 176
154 177
154 178
154 179
154 181
154 182
154 183
154 184
154 185
154 187
154 188
154 190
154 191
154 203
154 204
154 206
154 212
154 213
154 215
154 216
154 218
154 219
154 234
154 236
154 238
154 241
154 263
154 266
155 156
155 158
155 160
155 162
155 163
155 164
155 165
155 166
155 168
155 169
155 171
155 173
155 174
155 176
155 180
155 183
155 184
155 185
155 186
155 187
155 188
155 189
155 191
155 204
155 205
155 206
155 214
155 216
155 218
155 219
155 234
155 236
155 238
155 241
155 263
155 266
156 157
156 158
156 159
156 160
156 161
156 163
156 164
156 165
156 166
156 167
156 169
156 170
156 172
156 173
156 174
156 175
156 180
156 183
156 185
156 186
156 188
156 189
156 190
156 203
156 204
156 205
156 212
156 213
156 214
156 215
156 217
156 218
156 231
156 232
156 233
156 235
156 236
156 237
156 239
156 240
156 262
157 158
157 159
157 160
157 161
157 162
157 164
157 165
157 166
157 167
157 168
157 169
157 171
157 173
157 174
157 175
157 176
157 178
157 179
157 180
157 181
157 182
157 183
157 184
157 185
157 186
157 187
157 188
157 189
157 190
157 191
157 196
157 197
157 198
157 199
157 204
157 205
157 206
157 209
157 210
157 211
157 213
157 214
157 215
157 216
157 218
157 219
157 221
157 222
157 223
157 225
157 226
157 228
157 229
157 232
157 233
157 234
157 236
157 237
157 238
157 240
157 241
157 243
157 244
157 245
157 247
157 249
157 250
157 257
157 263
157 265
157 266
157 275
157 276
157 281
158 159
158 160
158 161
158 162
158 163
158 165
158 166
158 167
158 168
158 170
158 171
158 172
158 174
158 175
158 176
158 177
158 179
158 180
158 181
158 184
158 186
158 187
158 189
158 190
158 191
158 195
158 197
158 198
158 203
158 205
158 206
158 208
158 210
158 212
158 213
158 214
158 215
158 216
158 217
158 219
158 220
158 221
158 222
158 224
158 227
158 228
158 229
158 231
158 232
158 233
158 234
158 235
158 237
158 238
158 239
158 240
158 241
158 242
158 244
158 246
158 247
158 248
158 249
158 256
158 258
158 262
158 263
158 264
158 266
158 274
158 280
159 160
159 161
159 162
159 163
159 164
159 165
159 166
159 168
159 169
159 171
159 172
159 173
159 174
159 175
159 176
159 177
159 178
159 180
159 181
159 182
159 183
159 184
159 185
159 186
159 187
159 188
159 189
159 190
159 191
159 195
159 196
159 198
159 199
159 203
159 204
159 205
159 206
159 208
159 209
159 211
159 212
159 214
159 215
159 216
159 217
159 218
159 219
159 220
159 222
159 223
159 224
159 227
159 229
159 231
159 233
159 234
159 235
159 236
159 237
159 238
159 239
159 240
159 241
159 242
159 244
159 246
159 247
159 248
159 249
159 256
159 258
159 262
159 263
159 264
159 266
159 274
159 280
160 161
160 162
160 163
160 164
160 166
160 167
160 168
160 169
160 171
160 172
160 173
160 175
160 176
160 177
160 178
160 179
160 181
160 182
160 183
160 184
160 185
160 187
160 188
160 190
160 191
160 195
160 197
160 198
160 203
160 204
160 206
160 208
160 210
160 212
160 213
160 215
160 216
160 217
160 218
160 219
160 220
160 221
160 222
160 224
160 227
160 228
160 229
160 231
160 232
160 233
160 234
160 235
160 236
160 237
160 238
160 239
160 240
160 241
160 242
160 244
160 246
160 247
160 248
160 249
160 256
160 258
160 262
160 263
160 264
160 266
160 274
160 280
161 162
161 163
161 164
161 165
161 167
161 168
161 169
161 171
161 172
161 173
161 174
161 176
161 177
161 178
161 179
161 180
161 182
161 183
161 184
161 185
161 186
161 187
161 188
161 189
161 191
161 195
161 196
161 197
161 199
161 203
161 204
161 205
161 206
161 208
161 210
161 212
161 213
161 214
161 216
161 217
161 218
161 219
161 220
161 221
161 223
161 224
161 227
161 228
161 231
161 232
161 234
161 235
161 236
161 238
161 239
161 241
161 242
161 243
161 245
161 246
161 248
161 250
161 256
161 258
161 262
161 263
161 264
161 266
161 274
161 280
162 163
162 164
162 165
162 166
162 167
162 169
162 170
162 172
162 173
162 174
162 175
162 177
162 179
162 180
162 181
162 183
162 185
162 186
162 188
162 189
162 190
162 195
162 197
162 198
162 203
162 204
162 205
162 208
162 210
162 212
162 213
162 214
162 215
162 217
162 218
162 220
162 221
162 222
162 224
162 227
162 228
162 229
162 231
162 232
162 233
162 235
162 236
162 237
162 239
162 240
162 242
162 244
162 246
162 247
162 248
162 249
162 256
162 258
162 262
162 264
162 274
162 280
163 164
163 165
163 166
163 167
163 168
163 169
163 170
163 171
163 173
163 174
163 175
163 176
163 178
163 179
163 180
163 181
163 182
163 183
163 184
163 185
163 186
163 187
163 188
163 189
163 190
163 191
163 196
163 197
163 198
163 199
163 204
163 205
163 206
163 209
163 210
163 211
163 213
163 214
163 215
163 216
163 218
163 219
163 221
163 222
163 223
163 225
163 226
163 228
163 229
163 232
163 233
163 234
163 236
163 237
163 238
163 240
163 241
163 243
163 244
163 245
163 247
163 249
163 250
163 257
163 263
163 265
163 266
163 275
163 276
163 281
164 165
164 166
164 167
164 168
164 170
164 171
164 172
164 174
164 175
164 176
164 177
164 180
164 181
164 184
164 186
164 187
164 189
164 190
164 191
164 195
164 198
164 203
164 205
164 206
164 208
164 212
164 214
164 215
164 216
164 217
164 219
164 220
164 222
164 224
164 227
164 229
164 231
164 233
164 234
164 235
164 237
164 238
164 239
164 240
164 241
164 242
164 244
164 246
164 247
164 248
164 249
164 256
164 258
164 262
164 263
164 264
164 266
164 274
164 280
165 166
165 167
165 168
165 169
165 170
165 171
165 172
165 173
165 175
165 176
165 177
165 178
165 179
165 181
165 182
165 183
165 184
165 185
165 187
165 188
165 190
165 191
165 195
165 198
165 203
165 204
165 206
165 208
165 212
165 213
165 215
165 216
165 217
165 218
165 219
165 220
165 222
165 224
165 227
165 229
165 231
165 233
165 234
165 235
165 236
165 237
165 238
165 239
165 240
165 241
165 242
165 244
165 246
165 247
165 248
165 249
165 256
165 258
165 262
165 263
165 264
165 266
165 274
165 280
166 167
166 168
166 169
166 170
166 171
166 172
166 173
166 174
166 176
166 177
166 178
166 179
166 180
166 182
166 183
166 184
166 185
166 186
166 187
166 188
166 189
166 191
166 195
166 196
166 197
166 199
166 203
166 204
166 205
166 206
166 208
166 212
166 213
166 214
166 216
166 217
166 218
166 219
166 220
166 221
166 223
166 224
166 227
166 228
166 231
166 232
166 234
166 235
166 236
166 238
166 239
166 241
166 242
166 243
166 245
166 246
166 248
166 250
166 256
166 258
166 262
166 263
166 264
166 266
166 274
166 280
167 168
167 169
167 171
167 172
167 173
167 174
167 175
167 176
167 177
167 180
167 181
167 183
167 184
167 185
167 186
167 187
167 188
167 189
167 190
167 191
167 195
167 198
167 203
167 204
167 205
167 206
167 208
167 212
167 214
167 215
167 216
167 217
167 218
167 219
167 220
167 222
167 224
167 227
167 229
167 231
167 233
167 234
167 235
167 236
167 237
167 238
167 239
167 240
167 241
167 242
167 244
167 246
167 247
167 248
167 249
167 256
167 258
167 262
167 263
167 264
167 266
167 274
167 280
168 169
168 170
168 172
168 173
168 174
168 175
168 177
168 180
168 181
168 183
168 185
168 186
168 188
168 189
168 190
168 195
168 198
168 203
168 204
168 205
168 208
168 212
168 213
168 214
168 215
168 217
168 218
168 220
168 222
168 224
168 227
168 229
168 231
168 232
168 233
168 235
168 236
168 237
168 239
168 240
168 242
168 244
168 246
168 247
168 248
168 249
168 256
168 258
168 262
168 264
168 274
168 280
169 170
169 171
169 172
169 174
169 175
169 176
169 184
169 186
169 187
169 189
169 190
169 191
169 203
169 205
169 206
169 216
169 217
169 219
169 234
169 235
169 237
169 238
169 241
169 263
169 266
170 171
170 173
170 176
170 183
170 184
170 185
170 187
170 188
170 191
170 204
170 206
170 216
170 218
170 219
170 234
170 236
170 238
170 241
170 263
170 266
171 172
171 173
171 174
171 175
171 183
171 185
171 186
171 188
171 189
171 190
171 203
171 204
171 205
171 212
171 213
171 214
171 215
171 217
171 218
171 231
171 232
171 233
171 235
171 236
171 237
171 239
171 240
171 262
172 173
172 174
172 175
172 176
172 178
172 179
172 180
172 181
172 182
172 183
172 184
172 185
172 186
172 187
172 188
172 189
172 190
172 191
172 196
172 197
172 198
172 199
172 204
172 205
172 206
172 209
172 210
172 211
172 213
172 214
172 215
172 216
172 218
172 219
172 221
172 222
172 223
172 225
172 226
172 228
172 229
172 232
172 233
172 234
172 236
172 237
172 238
172 240
172 241
172 243
172 244
172 245
172 247
172 249
172 250
172 257
172 263
172 265
172 266
172 275
172 276
172 281
173 174
173 175
173 176
173 177
173 180
173 181
173 184
173 186
173 187
173 189
173 190
173 191
173 195
173 198
173 203
173 205
173 206
173 208
173 212
173 214
173 215
173 216
173 217
173 219
173 220
173 222
173 224
173 227
173 229
173 231
173 233
173 234
173 235
173 237
173 238
173 239
173 240
173 241
173 242
173 244
173 246
173 247
173 248
173 249
173 256
173 258
173 262
173 263
173 264
173 266
173 274
173 280
174 175
174 176
174 177
174 178
174 179
174 181
174 182
174 183
174 184
174 185
174 187
174 188
174 190
174 191
174 195
174 198
174 203
174 204
174 206
174 208
174 212
174 213
174 215
174 216
174 217
174 218
174 219
174 220
174 222
174 224
174 227
174 229
174 231
174 233
174 234
174 235
174 236
174 237
174 238
174 239
174 240
174 241
174 242
174 244
174 246
174 247
174 248
174 249
174 256
174 258
174 262
174 263
174 264
174 266
174 274
174 280
175 176
175 177
175 178
175 179
175 180
175 182
175 183
175 184
175 185
175 186
175 187
175 188
175 189
175 191
175 195
175 196
175 197
175 199
175 203
175 204
175 205
175 206
175 208
175 212
175 213
175 214
175 216
175 217
175 218
175 219
175 220
175 221
175 223
175 224
175 227
175 228
175 231
175 232
175 234
175 235
175 236
175 238
175 239
175 241
175 242
175 243
175 245
175 246
175 248
175 250
175 256
175 258
175 262
175 263
175 264
175 266
175 274
175 280
176 177
176 180
176 181
176 183
176 185
176 186
176 188
176 189
176 190
176 195
176 198
176 203
176 204
176 205
176 208
176 212
176 213
176 214
176 215
176 217
176 218
176 220
176 222
176 224
176 227
176 229
176 231
176 232
176 233
176 235
176 236
176 237
176 239
176 240
176 242
176 244
176 246
176 247
176 248
176 249
176 256
176 258
176 262
176 264
176 274
176 280
177 178
177 179
177 180
177 181
177 182
177 186
177 189
177 190
177 196
177 197
177 198
177 199
177 200
177 204
177 205
177 206
177 209
177 210
177 211
177 213
177 214
177 215
177 216
177 218
177 219
177 221
177 222
177 223
177 225
177 226
177 228
177 229
177 232
177 233
177 234
177 236
177 237
177 238
177 240
177 241
177 243
177 244
177 245
177 247
177 249
177 250
177 252
177 253
177 255
177 257
177 263
177 265
177 267
177 270
177 275
177 276
177 281
178 179
178 180
178 181
178 182
178 186
178 189
178 190
178 195
178 197
178 198
178 199
178 203
178 205
178 208
178 210
178 211
178 212
178 213
178 214
178 215
178 217
178 220
178 221
178 222
178 223
178 224
178 226
178 227
178 228
178 229
178 231
178 232
178 233
178 235
178 237
178 239
178 240
178 242
178 244
178 245
178 246
178 247
178 248
178 249
178 250
178 251
178 253
178 254
178 256
178 257
178 258
178 262
178 264
178 268
178 269
178 271
178 274
178 276
178 280
179 180
179 181
179 182
179 186
179 189
179 190
179 195
179 196
179 198
179 199
179 200
179 203
179 205
179 208
179 209
179 211
179 212
179 214
179 215
179 216
179 217
179 220
179 222
179 223
179 224
179 225
179 226
179 227
179 229
179 231
179 233
179 234
179 235
179 237
179 239
179 240
179 242
179 243
179 244
179 245
179 246
179 247
179 248
179 249
179 250
179 252
179 253
179 255
179 256
179 257
179 258
179 262
179 264
179 265
179 267
179 270
179 274
179 275
179 280
180 181
180 182
180 185
180 187
180 188
180 190
180 191
180 195
180 196
180 197
180 198
180 199
180 200
180 203
180 204
180 206
180 208
180 209
180 210
180 211
180 212
180 213
180 215
180 216
180 217
180 220
180 221
180 222
180 223
180 224
180 225
180 226
180 227
180 228
180 229
180 231
180 232
180 233
180 235
180 237
180 239
180 240
180 242
180 243
180 244
180 245
180 246
180 247
180 248
180 249
180 250
180 252
180 253
180 255
180 256
180 257
180 258
180 262
180 264
180 265
180 267
180 270
180 274
180 275
180 280
181 182
181 186
181 188
181 189
181 191
181 195
181 196
181 197
181 199
181 200
181 203
181 205
181 208
181 209
181 210
181 211
181 212
181 213
181 214
181 216
181 217
181 220
181 221
181 223
181 224
181 225
181 226
181 227
181 228
181 231
181 232
181 234
181 235
181 236
181 238
181 239
181 241
181 242
181 243
181 245
181 246
181 248
181 250
181 252
181 253
181 255
181 256
181 257
181 258
181 262
181 264
181 265
181 267
181 270
181 274
181 275
181 280
182 186
182 189
182 190
182 195
182 196
182 197
182 198
182 200
182 203
182 205
182 208
182 209
182 210
182 212
182 213
182 214
182 215
182 217
182 220
182 221
182 222
182 224
182 225
182 227
182 228
182 229
182 231
182 232
182 233
182 235
182 237
182 239
182 240
182 242
182 243
182 244
182 246
182 247
182 248
182 249
182 251
182 252
182 255
182 256
182 258
182 262
182 264
182 265
182 267
182 270
182 274
182 275
182 280
183 184
183 186
183 187
183 189
183 190
183 191
183 203
183 205
183 206
183 216
183 217
183 219
183 234
183 235
183 237
183 238
183 241
183 263
183 266
184 185
184 186
184 188
184 189
184 190
184 203
184 204
184 205
184 212
184 213
184 214
184 215
184 217
184 218
184 231
184 232
184 233
184 235
184 236
184 237
184 239
184 240
184 262
185 186
185 187
185 189
185 190
185 191
185 203
185 205
185 206
185 214
185 216
185 217
185 219
185 234
185 235
185 237
185 238
185 241
185 263
185 266
186 187
186 188
186 190
186 191
186 203
186 204
186 206
186 212
186 213
186 215
186 216
186 218
186 219
186 234
186 236
186 238
186 241
186 263
186 266
187 188
187 189
187 190
187 203
187 204
187 205
187 212
187 213
187 214
187 215
187 217
187 218
187 231
187 232
187 233
187 235
187 236
187 237
187 239
187 240
187 262
188 189
188 190
188 191
188 198
188 203
188 205
188 206
188 214
188 215
188 216
188 217
188 219
188 222
188 229
188 233
188 234
188 235
188 237
188 238
188 240
188 241
188 244
188 247
188 249
188 263
188 266
189 190
189 191
189 198
189 203
189 204
189 206
189 212
189 213
189 215
189 216
189 218
189 219
189 222
189 229
189 233
189 234
189 236
189 237
189 238
189 240
189 241
189 244
189 247
189 249
189 263
189 266
190 191
190 195
190 196
190 197
190 199
190 204
190 205
190 206
190 212
190 213
190 214
190 216
190 218
190 219
190 220
190 221
190 223
190 227
190 228
190 231
190 232
190 234
190 235
190 236
190 238
190 239
190 241
190 242
190 243
190 245
190 246
190 248
190 250
190 263
190 266
191 198
191 203
191 204
191 205
191 212
191 213
191 214
191 215
191 217
191 218
191 222
191 229
191 231
191 232
191 233
191 235
191 236
191 237
191 239
191 240
191 244
191 247
191 249
191 262
192 193
192 194
192 202
192 207
192 260
192 272
192 277
192 278
193 194
193 201
193 202
193 207
193 230
193 261
193 273
193 279
194 201
194 230
194 261
194 273
194 279
195 196
195 197
195 198
195 199
195 200
195 204
195 205
195 206
195 209
195 210
195 211
195 213
195 214
195 215
195 216
195 218
195 219
195 221
195 222
195 223
195 225
195 226
195 228
195 229
195 232
195 233
195 234
195 236
195 237
195 238
195 240
195 241
195 243
195 244
195 245
195 247
195 249
195 250
195 252
195 253
195 255
195 257
195 263
195 265
195 267
195 270
195 275
195 276
195 281
196 197
196 198
196 199
196 203
196 208
196 210
196 211
196 212
196 213
196 215
196 217
196 220
196 221
196 222
196 223
196 224
196 226
196 227
196 228
196 229
196 231
196 232
196 233
196 235
196 237
196 239
196 240
196 242
196 244
196 245
196 246
196 247
196 248
196 249
196 250
196 251
196 253
196 254
196 256
196 257
196 258
196 262
196 264
196 268
196 269
196 271
196 274
196 276
196 280
197 198
197 199
197 200
197 203
197 208
197 209
197 211
197 212
197 214
197 215
197 216
197 217
197 220
197 222
197 223
197 224
197 225
197 226
197 227
197 229
197 231
197 233
197 234
197 235
197 237
197 239
197 240
197 242
197 243
197 244
197 245
197 246
197 247
197 248
197 249
197 250
197 252
197 253
197 255
197 256
197 257
197 258
197 262
197 264
197 265
197 267
197 270
197 274
197 275
197 280
198 199
198 200
198 203
198 208
198 209
198 210
198 211
198 212
198 213
198 214
198 216
198 217
198 220
198 221
198 223
198 224
198 225
198 226
198 227
198 228
198 231
198 232
198 234
198 235
198 236
198 238
198 239
198 241
198 242
198 243
198 245
198 246
198 248
198 250
198 252
198 253
198 255
198 256
198 257
198 258
198 262
198 264
198 265
198 267
198 270
198 274
198 275
198 280
199 200
199 203
199 208
199 209
199 210
199 212
199 213
199 215
199 217
199 220
199 221
199 222
199 224
199 225
199 227
199 228
199 229
199 231
199 232
199 233
199 235
199 237
199 239
199 240
199 242
199 243
199 244
199 246
199 247
199 248
199 249
199 251
199 252
199 255
199 256
199 258
199 262
199 264
199 265
199 267
199 270
199 274
199 275
199 280
200 208
200 210
200 211
200 224
200 226
200 242
200 244
200 245
200 251
200 253
200 254
200 264
200 268
200 269
200 271
200 274
200 276
201 202
201 207
201 260
201 272
201 277
201 278
202 230
202 261
202 273
202 279
203 204
203 205
203 206
203 209
203 210
203 211
203 213
203 214
203 215
203 216
203 218
203 219
203 221
203 222
203 223
203 225
203 226
203 228
203 229
203 232
203 233
203 234
203 236
203 237
203 238
203 240
203 241
203 243
203 244
203 245
203 247
203 249
203 250
203 257
203 263
203 265
203 266
203 275
203 276
203 281
204 205
204 206
204 208
204 212
204 214
204 216
204 217
204 219
204 220
204 224
204 227
204 231
204 234
204 235
204 237
204 238
204 239
204 241
204 242
204 246
204 248
204 256
204 258
204 262
204 263
204 264
204 266
204 274
204 280
205 206
205 208
205 212
205 213
205 215
205 216
205 217
205 218
205 219
205 220
205 224
205 227
205 231
205 234
205 235
205 236
205 238
205 239
205 241
205 242
205 246
205 248
205 256
205 258
205 262
205 263
205 264
205 266
205 274
205 280
206 208
206 212
206 213
206 214
206 215
206 217
206 218
206 220
206 224
206 227
206 231
206 232
206 233
206 235
206 236
206 237
206 239
206 240
206 242
206 246
206 248
206 256
206 258
206 262
206 264
206 274
206 280
208 209
208 210
208 211
208 213
208 214
208 215
208 216
208 218
208 219
208 221
208 222
208 223
208 225
208 226
208 228
208 229
208 232
208 233
208 234
208 236
208 237
208 238
208 240
208 241
208 243
208 244
208 245
208 247
208 249
208 250
208 252
208 253
208 255
208 257
208 263
208 265
208 267
208 270
208 275
208 276
208 281
209 210
209 211
209 212
209 213
209 217
209 220
209 221
209 223
209 224
209 226
209 227
209 228
209 231
209 232
209 235
209 239
209 242
209 244
209 245
209 246
209 248
209 250
209 251
209 253
209 254
209 256
209 257
209 258
209 262
209 264
209 268
209 269
209 271
209 274
209 276
209 280
210 211
210 212
210 214
210 215
210 216
210 217
210 220
210 222
210 223
210 224
210 225
210 226
210 227
210 229
210 231
210 233
210 234
210 235
210 239
210 242
210 243
210 245
210 246
210 248
210 250
210 252
210 253
210 255
210 256
210 257
210 258
210 262
210 264
210 265
210 267
210 270
210 274
210 275
210 280
211 212
211 213
211 217
211 220
211 221
211 222
211 224
211 225
211 227
211 228
211 231
211 232
211 235
211 239
211 242
211 243
211 244
211 246
211 248
211 249
211 251
211 252
211 255
211 256
211 258
211 262
211 264
211 265
211 267
211 270
211 274
211 275
211 280
212 213
212 214
212 215
212 216
212 218
212 219
212 221
212 222
212 223
212 225
212 226
212 228
212 229
212 232
212 233
212 234
212 236
212 237
212 238
212 240
212 241
212 243
212 244
212 245
212 247
212 249
212 250
212 257
212 263
212 265
212 266
212 275
212 276
212 281
213 214
213 215
213 216
213 217
213 219
213 220
213 222
213 223
213 224
213 227
213 229
213 231
213 233
213 234
213 235
213 237
213 238
213 239
213 240
213 241
213 242
213 244
213 246
213 247
213 248
213 249
213 256
213 258
213 262
213 263
213 264
213 266
213 274
213 280
214 215
214 216
214 217
214 219
214 220
214 221
214 222
214 224
214 227
214 228
214 229
214 231
214 232
214 233
214 234
214 235
214 237
214 238
214 239
214 240
214 241
214 242
214 244
214 246
214 247
214 248
214 249
214 256
214 258
214 262
214 263
214 264
214 266
214 274
214 280
215 216
215 217
215 219
215 220
215 221
215 223
215 224
215 227
215 228
215 231
215 232
215 234
215 235
215 236
215 238
215 239
215 241
215 242
215 243
215 245
215 246
215 248
215 250
215 256
215 258
215 262
215 263
215 264
215 266
215 274
215 280
216 217
216 218
216 220
216 221
216 222
216 224
216 227
216 228
216 229
216 231
216 232
216 233
216 235
216 236
216 237
216 239
216 240
216 242
216 244
216 246
216 247
216 248
216 249
216 256
216 258
216 262
216 264
216 274
216 280
217 218
217 219
217 221
217 222
217 223
217 225
217 226
217 228
217 229
217 232
217 233
217 234
217 236
217 237
217 238
217 240
217 241
217 243
217 244
217 245
217 247
217 249
217 250
217 257
217 263
217 265
217 266
217 275
217 276
217 281
218 219
218 220
218 224
218 227
218 231
218 234
218 235
218 237
218 238
218 239
218 241
218 242
218 246
218 248
218 256
218 258
218 262
218 263
218 264
218 266
218 274
218 280
219 220
219 224
219 227
219 231
219 232
219 233
219 235
219 236
219 237
219 239
219 240
219 242
219 246
219 248
219 256
219 258
219 262
219 264
219 274
219 280
220 221
220 222
220 223
220 225
220 226
220 228
220 229
220 232
220 233
220 234
220 236
220 237
220 238
220 240
220 241
220 243
220 244
220 245
220 247
220 249
220 250
220 253
220 257
220 263
220 265
220 275
220 276
220 281
221 222
221 223
221 224
221 226
221 227
221 229
221 231
221 233
221 234
221 235
221 237
221 239
221 240
221 242
221 244
221 245
221 246
221 247
221 248
221 249
221 250
221 253
221 256
221 257
221 258
221 262
221 264
221 274
221 280
222 223
222 224
222 226
222 227
222 228
222 231
222 232
222 234
222 235
222 236
222 238
222 239
222 241
222 242
222 243
222 245
222 246
222 248
222 250
222 253
222 256
222 257
222 258
222 262
222 264
222 274
222 280
223 224
223 225
223 227
223 228
223 229
223 231
223 232
223 233
223 235
223 237
223 239
223 240
223 242
223 243
223 244
223 246
223 247
223 248
223 249
223 251
223 252
223 256
223 258
223 262
223 264
223 274
223 280
224 225
224 226
224 228
224 229
224 232
224 233
224 234
224 236
224 237
224 238
224 240
224 241
224 243
224 244
224 245
224 247
224 249
224 250
224 252
224 253
224 255
224 257
224 263
224 265
224 267
224 270
224 275
224 276
224 281
225 226
225 227
225 231
225 235
225 239
225 242
225 244
225 245
225 246
225 248
225 250
225 251
225 253
225 254
225 256
225 257
225 258
225 262
225 264
225 268
225 269
225 271
225 274
225 276
225 280
226 227
226 231
226 235
226 239
226 242
226 243
226 244
226 246
226 248
226 249
226 251
226 252
226 255
226 256
226 258
226 262
226 264
226 265
226 267
226 270
226 274
226 275
226 280
227 228
227 229
227 232
227 233
227 234
227 236
227 237
227 238
227 240
227 241
227 243
227 244
227 245
227 247
227 249
227 250
227 257
227 263
227 265
227 275
227 276
227 281
228 229
228 231
228 233
228 234
228 235
228 237
228 239
228 240
228 242
228 244
228 246
228 247
228 248
228 249
228 256
228 258
228 262
228 264
228 274
228 280
229 231
229 232
229 234
229 235
229 236
229 238
229 239
229 241
229 242
229 243
229 245
229 246
229 248
229 250
229 256
229 258
229 262
229 264
229 274
229 280
230 260
230 272
230 277
230 278
231 232
231 233
231 234
231 236
231 237
231 238
231 240
231 241
231 243
231 244
231 245
231 247
231 249
231 250
231 257
231 263
231 265
231 266
231 275
231 276
231 281
232 233
232 234
232 235
232 237
232 238
232 239
232 240
232 241
232 242
232 244
232 246
232 247
232 248
232 249
232 256
232 258
232 262
232 263
232 264
232 266
232 274
232 280
233 234
233 235
233 236
233 238
233 239
233 241
233 242
233 243
233 245
233 246
233 248
233 250
233 256
233 258
233 262
233 263
233 264
233 266
233 274
233 280
234 235
234 236
234 237
234 239
234 240
234 242
234 244
234 246
234 247
234 248
234 249
234 256
234 258
234 262
234 264
234 274
234 280
235 236
235 237
235 238
235 240
235 241
235 243
235 244
235 245
235 247
235 249
235 250
235 257
235 263
235 265
235 266
235 275
235 276
235 281
236 237
236 238
236 239
236 240
236 241
236 242
236 244
236 246
236 247
236 248
236 249
236 256
236 258
236 262
236 263
236 264
236 266
236 274
236 280
237 238
237 239
237 241
237 242
237 243
237 245
237 246
237 248
237 250
237 256
237 258
237 262
237 263
237 264
237 266
237 274
237 280
238 239
238 240
238 242
238 244
238 246
238 247
238 248
238 249
238 256
238 258
238 262
238 264
238 274
238 280
239 240
239 241
239 243
239 244
239 245
239 247
239 249
239 250
239 257
239 263
239 265
239 266
239 275
239 276
239 281
240 241
240 242
240 243
240 245
240 246
240 248
240 250
240 256
240 258
240 262
240 263
240 264
240 266
240 274
240 280
241 242
241 244
241 246
241 247
241 248
241 249
241 256
241 258
241 262
241 264
241 274
241 280
242 243
242 244
242 245
242 247
242 249
242 250
242 252
242 253
242 255
242 257
242 263
242 265
242 267
242 270
242 275
242 276
242 281
243 244
243 245
243 246
243 247
243 248
243 249
243 250
243 251
243 253
243 254
243 256
243 257
243 258
243 262
243 264
243 268
243 269
243 271
243 274
243 276
243 280
244 245
244 246
244 248
244 250
244 252
244 253
244 255
244 256
244 257
244 258
244 262
244 264
244 265
244 267
244 270
244 274
244 275
244 280
245 246
245 247
245 248
245 249
245 251
245 252
245 255
245 256
245 258
245 262
245 264
245 265
245 267
245 270
245 274
245 275
245 280
246 247
246 249
246 250
246 257
246 263
246 265
246 275
246 276
246 281
247 248
247 250
247 256
247 258
247 262
247 264
247 274
247 280
248 249
248 250
248 253
248 257
248 263
248 265
248 275
248 276
248 281
249 250
249 253
249 256
249 257
249 258
249 262
249 264
249 274
249 280
250 251
250 252
250 256
250 258
250 262
250 264
250 274
250 280
251 252
251 253
251 255
251 257
251 261
251 265
251 267
251 270
251 271
251 275
251 277
251 279
251 284
251 285
252 253
252 254
252 257
252 259
252 260
252 264
252 268
252 269
252 271
252 274
252 276
252 278
252 283
252 286
253 254
253 255
253 256
253 259
253 260
253 265
253 267
253 269
253 270
253 275
253 278
253 283
253 286
254 255
254 261
254 265
254 267
254 270
254 271
254 275
254 277
254 279
254 284
254 285
255 259
255 260
255 264
255 268
255 269
255 271
255 274
255 276
255 278
255 283
255 286
256 257
256 263
256 265
256 275
256 276
256 281
257 258
257 262
257 264
257 274
257 280
258 263
258 265
258 275
258 276
258 281
259 261
259 270
259 271
259 277
259 279
259 284
259 285
260 261
260 270
260 271
260 273
260 277
260 279
260 284
260 285
261 269
261 272
261 277
261 278
261 283
261 286
262 263
262 265
262 266
262 275
262 276
262 281
263 264
263 274
263 280
264 265
264 267
264 270
264 275
264 276
264 281
265 268
265 269
265 271
265 274
265 276
265 280
267 268
267 269
267 271
267 274
267 276
267 281
267 282
267 284
268 269
268 270
268 274
268 275
268 280
268 283
269 270
269 271
269 275
269 276
269 277
269 279
269 281
269 282
269 284
269 285
270 271
270 274
270 276
270 278
270 281
270 282
270 283
270 284
270 286
271 274
271 275
271 278
271 280
271 283
271 286
272 273
272 278
272 279
272 286
273 277
273 278
273 285
273 287
274 275
274 276
274 281
274 282
274 284
275 276
275 280
275 281
275 282
275 284
276 280
276 283
277 278
277 279
277 283
277 286
278 279
278 284
278 285
278 287
279 283
279 285
279 286
279 287
280 281
280 282
280 284
281 283
282 283
283 284
283 285
284 286
285 286
286 287
