269:16570
0 1
0 3
0 4
0 6
0 17
0 20
0 21
0 22
0 24
0 25
0 26
0 28
0 29
0 31
0 32
0 33
0 34
0 36
0 37
0 38
0 39
0 41
0 42
0 43
0 44
0 45
0 48
0 54
0 55
0 56
0 58
0 59
0 60
0 61
0 67
0 68
0 69
0 80
0 81
0 82
0 83
0 90
0 91
0 92
0 94
0 95
0 96
0 97
0 99
0 100
0 101
0 102
0 103
0 105
0 106
0 107
0 108
0 112
0 113
0 114
0 115
0 116
0 122
0 123
0 124
0 126
0 127
0 128
0 129
0 134
0 135
0 136
0 137
0 138
1 2
1 3
1 5
1 16
1 18
1 19
1 20
1 21
1 23
1 24
1 26
1 27
1 28
1 30
1 31
1 32
1 34
1 35
1 36
1 37
1 38
1 40
1 41
1 42
1 43
1 45
1 46
1 47
1 49
1 53
1 57
1 66
1 67
1 68
1 79
1 80
1 81
1 83
1 89
1 93
1 94
1 95
1 96
1 98
1 99
1 100
1 101
1 103
1 104
1 111
1 112
1 113
1 114
1 116
1 121
1 125
1 133
2 3
2 4
2 5
2 6
2 7
2 8
2 10
2 16
2 17
2 20
2 21
2 22
2 24
2 25
2 26
2 28
2 29
2 31
2 32
2 33
2 34
2 36
2 37
2 38
2 39
2 41
2 42
2 43
2 44
2 45
2 47
2 48
2 51
2 54
2 55
2 56
2 58
2 59
2 60
2 61
2 63
2 67
2 68
2 69
2 70
2 80
2 81
2 82
2 83
2 90
2 91
2 92
2 94
2 95
2 96
2 97
2 99
2 100
2 101
2 102
2 103
2 105
2 106
2 107
2 108
2 112
2 113
2 114
2 115
2 116
2 122
2 123
2 124
2 126
2 127
2 128
2 129
2 134
2 135
2 136
2 137
2 138
3 4
3 6
3 9
3 11
3 12
3 17
3 18
3 19
3 20
3 22
3 23
3 25
3 26
3 27
3 29
3 30
3 31
3 33
3 34
3 35
3 36
3 38
3 39
3 40
3 41
3 43
3 44
3 45
3 46
3 48
3 49
3 50
3 52
3 53
3 54
3 56
3 57
3 58
3 60
3 61
3 62
3 64
3 65
3 66
3 69
3 71
3 72
3 79
3 82
3 89
3 93
3 97
3 98
3 102
3 104
3 111
3 115
3 121
3 125
3 133
4 5
4 7
4 8
4 10
4 16
4 18
4 19
4 20
4 21
4 23
4 24
4 26
4 27
4 28
4 30
4 31
4 32
4 34
4 35
4 36
4 37
4 38
4 40
4 41
4 42
4 43
4 45
4 46
4 47
4 49
4 51
4 53
4 55
4 57
4 59
4 63
4 66
4 67
4 68
4 70
4 79
4 80
4 81
4 83
4 89
4 93
4 94
4 95
4 96
4 98
4 99
4 100
4 101
4 103
4 104
4 111
4 112
4 113
4 114
4 116
4 121
4 125
4 133
5 6
5 9
5 11
5 12
5 17
5 18
5 19
5 20
5 22
5 23
5 25
5 26
5 29
5 30
5 31
5 33
5 34
5 35
5 36
5 38
5 39
5 40
5 41
5 43
5 44
5 45
5 46
5 48
5 49
5 50
5 52
5 53
5 54
5 56
5 57
5 58
5 60
5 61
5 62
5 64
5 65
5 69
5 71
5 72
5 82
5 97
5 102
5 115
6 7
6 8
6 10
6 16
6 18
6 19
6 20
6 21
6 23
6 24
6 26
6 27
6 28
6 30
6 31
6 32
6 34
6 35
6 36
6 37
6 38
6 40
6 41
6 42
6 43
6 45
6 46
6 47
6 49
6 51
6 55
6 59
6 63
6 66
6 67
6 68
6 70
6 79
6 80
6 81
6 83
6 93
6 94
6 95
6 96
6 98
6 99
6 100
6 101
6 103
6 111
6 112
6 113
6 114
6 116
7 9
7 11
7 12
7 17
7 18
7 19
7 20
7 22
7 23
7 25
7 26
7 30
7 31
7 33
7 34
7 35
7 36
7 38
7 39
7 40
7 41
7 43
7 44
7 45
7 46
7 48
7 49
7 50
7 52
7 53
7 54
7 56
7 57
7 58
7 60
7 61
7 62
7 64
7 65
7 71
7 72
8 9
8 11
8 12
8 14
8 17
8 18
8 19
8 20
8 22
8 23
8 25
8 26
8 30
8 31
8 33
8 34
8 35
8 36
8 38
8 39
8 40
8 41
8 43
8 44
8 45
8 46
8 48
8 49
8 50
8 52
8 53
8 54
8 56
8 57
8 58
8 60
8 61
8 62
8 64
8 65
8 71
8 72
8 73
8 75
8 77
8 83
8 88
8 92
8 103
8 108
8 109
8 120
8 131
8 138
8 141
8 147
8 149
8 160
8 163
8 169
8 174
8 180
8 188
8 193
8 198
9 10
9 11
9 13
9 16
9 17
9 21
9 23
9 24
9 25
9 30
9 31
9 32
9 33
9 37
9 40
9 41
9 42
9 43
9 44
9 46
9 47
9 48
9 50
9 51
9 53
9 54
9 55
9 57
9 58
9 59
9 60
9 62
9 63
9 64
9 70
9 71
9 74
9 76
9 78
9 79
9 80
9 81
9 82
9 86
9 87
9 89
9 90
9 91
9 98
9 99
9 100
9 101
9 102
9 104
9 105
9 106
9 107
9 110
9 117
9 118
9 119
9 130
9 132
9 133
9 134
9 135
9 136
9 137
9 139
9 140
9 142
9 143
9 144
9 145
9 146
9 148
9 150
9 158
9 159
9 161
9 162
9 164
9 167
9 168
9 170
9 171
9 172
9 173
9 178
9 179
9 181
9 185
9 186
9 187
9 189
9 190
9 191
9 192
9 194
9 195
9 196
9 197
10 11
10 12
10 13
10 14
10 15
10 17
10 18
10 19
10 20
10 22
10 23
10 25
10 26
10 30
10 31
10 33
10 34
10 35
10 36
10 38
10 39
10 40
10 41
10 43
10 44
10 45
10 46
10 48
10 49
10 50
10 52
10 53
10 54
10 56
10 57
10 58
10 60
10 61
10 62
10 64
10 65
10 71
10 72
10 73
10 75
10 76
10 77
10 83
10 84
10 88
10 92
10 103
10 108
10 109
10 120
10 131
10 138
10 139
10 141
10 147
10 149
10 151
10 160
10 163
10 169
10 174
10 180
10 188
10 193
10 198
11 12
11 14
11 16
11 18
11 21
11 24
11 26
11 32
11 34
11 37
11 42
11 45
11 47
11 49
11 51
11 52
11 55
11 56
11 59
11 61
11 63
11 65
11 70
11 72
11 73
11 75
11 77
11 78
11 83
11 85
11 88
11 92
11 103
11 108
11 109
11 120
11 131
11 138
11 140
11 141
11 142
11 147
11 149
11 152
11 153
11 160
11 163
11 169
11 174
11 180
11 188
11 193
11 198
12 13
12 15
12 16
12 17
12 21
12 23
12 24
12 25
12 30
12 31
12 32
12 33
12 37
12 40
12 41
12 42
12 43
12 44
12 46
12 47
12 48
12 50
12 51
12 53
12 54
12 55
12 57
12 58
12 59
12 60
12 62
12 63
12 64
12 70
12 71
12 74
12 76
12 78
12 79
12 80
12 81
12 82
12 84
12 86
12 87
12 89
12 90
12 91
12 98
12 99
12 100
12 101
12 102
12 104
12 105
12 106
12 107
12 110
12 117
12 118
12 119
12 130
12 132
12 133
12 134
12 135
12 136
12 137
12 139
12 140
12 142
12 143
12 144
12 145
12 146
12 148
12 150
12 151
12 158
12 159
12 161
12 162
12 164
12 167
12 168
12 170
12 171
12 172
12 173
12 178
12 179
12 181
12 185
12 186
12 187
12 189
12 190
12 191
12 192
12 194
12 195
12 196
12 197
13 14
13 18
13 26
13 34
13 45
13 49
13 52
13 56
13 61
13 65
13 72
13 73
13 75
13 77
13 78
13 83
13 85
13 88
13 92
13 103
13 108
13 109
13 120
13 131
13 138
13 140
13 141
13 142
13 147
13 149
13 152
13 153
13 160
13 163
13 169
13 174
13 180
13 188
13 193
13 198
14 15
14 16
14 17
14 23
14 24
14 25
14 30
14 31
14 32
14 33
14 40
14 41
14 42
14 43
14 44
14 46
14 47
14 48
14 50
14 51
14 53
14 54
14 55
14 57
14 58
14 59
14 60
14 62
14 63
14 64
14 70
14 71
14 74
14 76
14 78
14 79
14 80
14 81
14 82
14 84
14 86
14 87
14 89
14 90
14 91
14 98
14 99
14 100
14 101
14 102
14 104
14 105
14 106
14 107
14 110
14 117
14 118
14 119
14 130
14 132
14 133
14 134
14 135
14 136
14 137
14 139
14 140
14 142
14 143
14 144
14 145
14 146
14 148
14 150
14 151
14 158
14 159
14 161
14 162
14 164
14 167
14 168
14 170
14 171
14 172
14 173
14 178
14 179
14 181
14 185
14 186
14 187
14 189
14 190
14 191
14 192
14 194
14 195
14 196
14 197
15 77
15 78
15 85
15 140
15 141
15 142
15 152
15 153
16 17
16 18
16 19
16 20
16 22
16 23
16 25
16 26
16 29
16 30
16 31
16 33
16 34
16 35
16 36
16 38
16 39
16 40
16 41
16 43
16 44
16 45
16 46
16 48
16 49
16 50
16 52
16 53
16 54
16 56
16 57
16 58
16 60
16 61
16 62
16 64
16 65
16 69
16 71
16 72
16 73
16 75
16 77
16 82
16 83
16 88
16 92
16 97
16 102
16 103
16 108
16 109
16 115
16 120
16 131
16 138
16 141
16 147
16 149
16 160
16 163
16 169
16 174
16 180
16 188
16 193
16 198
17 18
17 19
17 20
17 21
17 23
17 24
17 26
17 27
17 28
17 30
17 31
17 32
17 34
17 35
17 36
17 37
17 38
17 40
17 41
17 42
17 43
17 45
17 46
17 47
17 49
17 51
17 52
17 55
17 56
17 59
17 61
17 63
17 65
17 66
17 67
17 68
17 70
17 72
17 73
17 75
17 77
17 79
17 80
17 81
17 83
17 88
17 92
17 93
17 94
17 95
17 96
17 98
17 99
17 100
17 101
17 103
17 108
17 109
17 111
17 112
17 113
17 114
17 116
17 120
17 131
17 138
17 141
17 147
17 149
17 160
17 163
17 169
17 174
17 180
17 188
17 193
17 198
18 21
18 22
18 23
18 24
18 25
18 29
18 30
18 31
18 32
18 33
18 37
18 39
18 40
18 41
18 42
18 43
18 44
18 46
18 47
18 48
18 50
18 51
18 53
18 54
18 55
18 57
18 58
18 59
18 60
18 62
18 63
18 64
18 69
18 70
18 71
18 74
18 76
18 78
18 79
18 80
18 81
18 82
18 86
18 87
18 89
18 90
18 91
18 97
18 98
18 99
18 100
18 101
18 102
18 104
18 105
18 106
18 107
18 110
18 115
18 117
18 118
18 119
18 130
18 132
18 133
18 134
18 135
18 136
18 137
18 139
18 140
18 142
18 143
18 144
18 145
18 146
18 148
18 150
18 158
18 159
18 161
18 162
18 164
18 167
18 168
18 170
18 171
18 172
18 173
18 178
18 179
18 181
18 185
18 186
18 187
18 189
18 190
18 191
18 192
18 194
18 195
18 196
18 197
19 20
19 21
19 22
19 24
19 25
19 26
19 28
19 29
19 31
19 32
19 33
19 34
19 36
19 37
19 38
19 39
19 41
19 42
19 43
19 44
19 45
19 46
19 47
19 48
19 50
19 51
19 54
19 55
19 56
19 58
19 59
19 60
19 61
19 62
19 63
19 67
19 68
19 69
19 70
19 80
19 81
19 82
19 83
19 86
19 90
19 91
19 92
19 94
19 95
19 96
19 97
19 99
19 100
19 101
19 102
19 103
19 105
19 106
19 107
19 108
19 112
19 113
19 114
19 115
19 116
19 117
19 122
19 123
19 124
19 126
19 127
19 128
19 129
19 134
19 135
19 136
19 137
19 138
19 143
19 154
20 21
20 22
20 23
20 24
20 25
20 27
20 29
20 30
20 32
20 33
20 34
20 35
20 37
20 38
20 39
20 40
20 42
20 43
20 44
20 45
20 47
20 48
20 49
20 51
20 52
20 53
20 55
20 56
20 57
20 59
20 60
20 61
20 63
20 64
20 65
20 66
20 68
20 69
20 70
20 79
20 81
20 82
20 83
20 87
20 88
20 89
20 91
20 92
20 93
20 95
20 96
20 97
20 98
20 100
20 101
20 102
20 103
20 104
20 106
20 107
20 108
20 111
20 113
20 114
20 115
20 116
20 118
20 119
20 120
20 121
20 123
20 124
20 125
20 127
20 128
20 129
20 133
20 135
20 136
20 137
20 138
20 144
20 145
20 146
20 147
20 155
20 156
20 157
21 22
21 23
21 25
21 26
21 27
21 28
21 29
21 30
21 31
21 33
21 34
21 35
21 36
21 38
21 39
21 40
21 41
21 43
21 44
21 45
21 46
21 48
21 49
21 50
21 52
21 53
21 54
21 56
21 57
21 58
21 60
21 61
21 62
21 64
21 65
21 66
21 67
21 69
21 71
21 72
21 79
21 80
21 82
21 86
21 89
21 90
21 93
21 94
21 97
21 98
21 99
21 102
21 104
21 105
21 111
21 112
21 115
21 117
21 121
21 122
21 125
21 126
21 133
21 134
21 143
21 154
22 23
22 24
22 26
22 27
22 28
22 30
22 31
22 32
22 34
22 35
22 36
22 37
22 38
22 40
22 41
22 42
22 43
22 45
22 46
22 47
22 49
22 50
22 51
22 53
22 54
22 55
22 57
22 58
22 59
22 62
22 63
22 66
22 67
22 68
22 70
22 79
22 80
22 81
22 83
22 86
22 89
22 90
22 93
22 94
22 95
22 96
22 98
22 99
22 100
22 101
22 103
22 104
22 105
22 111
22 112
22 113
22 114
22 116
22 117
22 121
22 122
22 125
22 126
22 133
22 134
22 143
22 154
23 24
23 25
23 26
23 28
23 29
23 31
23 32
23 33
23 34
23 36
23 37
23 38
23 39
23 41
23 42
23 43
23 44
23 45
23 47
23 48
23 49
23 51
23 52
23 54
23 55
23 56
23 58
23 59
23 60
23 61
23 63
23 65
23 67
23 68
23 69
23 70
23 72
23 73
23 75
23 77
23 80
23 81
23 82
23 83
23 88
23 90
23 91
23 92
23 94
23 95
23 96
23 97
23 99
23 100
23 101
23 102
23 103
23 105
23 106
23 107
23 108
23 109
23 112
23 113
23 114
23 115
23 116
23 120
23 122
23 123
23 124
23 126
23 127
23 128
23 129
23 131
23 134
23 135
23 136
23 137
23 138
23 141
23 147
23 149
23 160
23 163
23 169
23 174
23 180
23 188
23 193
23 198
24 25
24 26
24 27
24 29
24 30
24 31
24 33
24 34
24 35
24 36
24 38
24 39
24 40
24 41
24 43
24 44
24 45
24 46
24 48
24 49
24 50
24 52
24 53
24 54
24 56
24 57
24 58
24 60
24 61
24 62
24 64
24 65
24 66
24 69
24 71
24 72
24 73
24 75
24 77
24 79
24 82
24 83
24 88
24 89
24 92
24 93
24 97
24 98
24 102
24 103
24 104
24 108
24 109
24 111
24 115
24 120
24 121
24 125
24 131
24 133
24 138
24 141
24 147
24 149
24 160
24 163
24 169
24 174
24 180
24 188
24 193
24 198
25 26
25 27
25 28
25 30
25 31
25 32
25 34
25 35
25 36
25 37
25 38
25 40
25 41
25 42
25 43
25 45
25 46
25 47
25 49
25 51
25 52
25 53
25 55
25 56
25 57
25 59
25 61
25 63
25 65
25 66
25 67
25 68
25 70
25 72
25 73
25 75
25 77
25 79
25 80
25 81
25 83
25 88
25 89
25 92
25 93
25 94
25 95
25 96
25 98
25 99
25 100
25 101
25 103
25 104
25 108
25 109
25 111
25 112
25 113
25 114
25 116
25 120
25 121
25 125
25 131
25 133
25 138
25 141
25 147
25 149
25 160
25 163
25 169
25 174
25 180
25 188
25 193
25 198
26 27
26 29
26 30
26 31
26 32
26 33
26 35
26 37
26 39
26 40
26 41
26 42
26 43
26 44
26 46
26 47
26 48
26 50
26 51
26 53
26 54
26 55
26 57
26 58
26 59
26 60
26 62
26 63
26 64
26 66
26 69
26 70
26 71
26 74
26 76
26 78
26 79
26 80
26 81
26 82
26 86
26 87
26 89
26 90
26 91
26 93
26 97
26 98
26 99
26 100
26 101
26 102
26 104
26 105
26 106
26 107
26 110
26 111
26 115
26 117
26 118
26 119
26 121
26 125
26 130
26 132
26 133
26 134
26 135
26 136
26 137
26 139
26 140
26 142
26 143
26 144
26 145
26 146
26 148
26 150
26 158
26 159
26 161
26 162
26 164
26 167
26 168
26 170
26 171
26 172
26 173
26 178
26 179
26 181
26 185
26 186
26 187
26 189
26 190
26 191
26 192
26 194
26 195
26 196
26 197
27 28
27 29
27 31
27 32
27 33
27 34
27 36
27 37
27 38
27 39
27 41
27 42
27 43
27 44
27 45
27 46
27 48
27 50
27 54
27 55
27 56
27 58
27 59
27 60
27 61
27 62
27 67
27 68
27 69
27 80
27 81
27 82
27 83
27 86
27 90
27 91
27 92
27 94
27 95
27 96
27 97
27 99
27 100
27 101
27 102
27 103
27 105
27 106
27 107
27 108
27 112
27 113
27 114
27 115
27 116
27 117
27 122
27 123
27 124
27 126
27 127
27 128
27 129
27 134
27 135
27 136
27 137
27 138
27 143
27 154
28 29
28 30
28 32
28 33
28 34
28 35
28 37
28 38
28 39
28 40
28 42
28 43
28 44
28 45
28 47
28 48
28 49
28 51
28 52
28 53
28 55
28 56
28 57
28 59
28 60
28 61
28 63
28 64
28 65
28 66
28 68
28 69
28 79
28 81
28 82
28 83
28 87
28 88
28 89
28 91
28 92
28 93
28 95
28 96
28 97
28 98
28 100
28 101
28 102
28 103
28 104
28 106
28 107
28 108
28 111
28 113
28 114
28 115
28 116
28 118
28 119
28 120
28 121
28 123
28 124
28 125
28 127
28 128
28 129
28 133
28 135
28 136
28 137
28 138
28 144
28 145
28 146
28 147
28 155
28 156
28 157
29 30
29 31
29 32
29 34
29 35
29 36
29 37
29 38
29 40
29 41
29 42
29 43
29 45
29 46
29 47
29 49
29 50
29 53
29 54
29 57
29 58
29 62
29 66
29 67
29 68
29 79
29 80
29 81
29 83
29 86
29 89
29 90
29 93
29 94
29 95
29 96
29 98
29 99
29 100
29 101
29 103
29 104
29 105
29 111
29 112
29 113
29 114
29 116
29 117
29 121
29 122
29 125
29 126
29 133
29 134
29 143
29 154
30 31
30 32
30 33
30 34
30 36
30 37
30 38
30 39
30 41
30 42
30 43
30 44
30 45
30 46
30 47
30 48
30 49
30 50
30 51
30 52
30 54
30 55
30 56
30 58
30 59
30 60
30 61
30 62
30 63
30 65
30 67
30 68
30 69
30 70
30 72
30 73
30 75
30 77
30 80
30 81
30 82
30 83
30 86
30 88
30 90
30 91
30 92
30 94
30 95
30 96
30 97
30 99
30 100
30 101
30 102
30 103
30 105
30 106
30 107
30 108
30 109
30 112
30 113
30 114
30 115
30 116
30 117
30 120
30 122
30 123
30 124
30 126
30 127
30 128
30 129
30 131
30 134
30 135
30 136
30 137
30 138
30 141
30 143
30 147
30 149
30 154
30 160
30 163
30 169
30 174
30 180
30 188
30 193
30 198
31 32
31 33
31 34
31 35
31 37
31 38
31 39
31 40
31 42
31 43
31 44
31 45
31 47
31 48
31 49
31 51
31 52
31 53
31 55
31 56
31 57
31 59
31 60
31 61
31 63
31 64
31 65
31 66
31 68
31 69
31 70
31 72
31 73
31 75
31 77
31 79
31 81
31 82
31 83
31 87
31 88
31 89
31 91
31 92
31 93
31 95
31 96
31 97
31 98
31 100
31 101
31 102
31 103
31 104
31 106
31 107
31 108
31 109
31 111
31 113
31 114
31 115
31 116
31 118
31 119
31 120
31 121
31 123
31 124
31 125
31 127
31 128
31 129
31 131
31 133
31 135
31 136
31 137
31 138
31 141
31 144
31 145
31 146
31 147
31 149
31 155
31 156
31 157
31 160
31 163
31 169
31 174
31 180
31 188
31 193
31 198
32 33
32 34
32 35
32 36
32 38
32 39
32 40
32 41
32 43
32 44
32 45
32 46
32 48
32 49
32 50
32 52
32 53
32 54
32 56
32 57
32 58
32 60
32 61
32 62
32 64
32 65
32 66
32 67
32 69
32 71
32 72
32 73
32 75
32 77
32 79
32 80
32 82
32 83
32 86
32 88
32 89
32 90
32 92
32 93
32 94
32 97
32 98
32 99
32 102
32 103
32 104
32 105
32 108
32 109
32 111
32 112
32 115
32 117
32 120
32 121
32 122
32 125
32 126
32 131
32 133
32 134
32 138
32 141
32 143
32 147
32 149
32 154
32 160
32 163
32 169
32 174
32 180
32 188
32 193
32 198
33 34
33 35
33 36
33 37
33 38
33 40
33 41
33 42
33 43
33 45
33 46
33 47
33 49
33 50
33 51
33 52
33 53
33 54
33 55
33 56
33 57
33 58
33 59
33 61
33 62
33 63
33 65
33 66
33 67
33 68
33 70
33 72
33 73
33 75
33 77
33 79
33 80
33 81
33 83
33 86
33 88
33 89
33 90
33 92
33 93
33 94
33 95
33 96
33 98
33 99
33 100
33 101
33 103
33 104
33 105
33 108
33 109
33 111
33 112
33 113
33 114
33 116
33 117
33 120
33 121
33 122
33 125
33 126
33 131
33 133
33 134
33 138
33 141
33 143
33 147
33 149
33 154
33 160
33 163
33 169
33 174
33 180
33 188
33 193
33 198
34 35
34 36
34 37
34 39
34 40
34 41
34 42
34 43
34 44
34 46
34 47
34 48
34 50
34 51
34 53
34 54
34 55
34 57
34 58
34 59
34 60
34 62
34 63
34 64
34 66
34 67
34 69
34 70
34 71
34 74
34 76
34 78
34 79
34 80
34 81
34 82
34 86
34 87
34 89
34 90
34 91
34 93
34 94
34 97
34 98
34 99
34 100
34 101
34 102
34 104
34 105
34 106
34 107
34 110
34 111
34 112
34 115
34 117
34 118
34 119
34 121
34 122
34 125
34 126
34 130
34 132
34 133
34 134
34 135
34 136
34 137
34 139
34 140
34 142
34 143
34 144
34 145
34 146
34 148
34 150
34 154
34 158
34 159
34 161
34 162
34 164
34 167
34 168
34 170
34 171
34 172
34 173
34 178
34 179
34 181
34 185
34 186
34 187
34 189
34 190
34 191
34 192
34 194
34 195
34 196
34 197
35 36
35 37
35 38
35 39
35 41
35 42
35 43
35 44
35 45
35 46
35 47
35 48
35 50
35 51
35 54
35 55
35 56
35 58
35 59
35 60
35 61
35 62
35 63
35 64
35 67
35 68
35 69
35 70
35 71
35 74
35 80
35 81
35 82
35 83
35 86
35 87
35 90
35 91
35 92
35 94
35 95
35 96
35 97
35 99
35 100
35 101
35 102
35 103
35 105
35 106
35 107
35 108
35 112
35 113
35 114
35 115
35 116
35 117
35 119
35 122
35 123
35 124
35 126
35 127
35 128
35 129
35 130
35 134
35 135
35 136
35 137
35 138
35 143
35 145
35 154
35 156
35 159
35 161
35 172
35 179
35 183
35 186
35 191
35 196
35 200
35 202
35 205
35 209
35 212
35 216
35 220
35 226
35 231
35 241
36 37
36 38
36 39
36 40
36 42
36 43
36 44
36 45
36 47
36 48
36 49
36 51
36 52
36 53
36 55
36 56
36 57
36 59
36 60
36 61
36 63
36 64
36 65
36 66
36 68
36 69
36 70
36 71
36 74
36 79
36 81
36 82
36 83
36 87
36 88
36 89
36 91
36 92
36 93
36 95
36 96
36 97
36 98
36 100
36 101
36 102
36 103
36 104
36 106
36 107
36 108
36 111
36 113
36 114
36 115
36 116
36 118
36 119
36 120
36 121
36 123
36 124
36 125
36 127
36 128
36 129
36 130
36 133
36 135
36 136
36 137
36 138
36 144
36 145
36 146
36 147
36 155
36 156
36 157
36 159
36 161
36 172
36 179
36 183
36 186
36 191
36 196
36 200
36 202
36 205
36 209
36 212
36 216
36 220
36 226
36 231
36 241
37 38
37 39
37 40
37 41
37 43
37 44
37 45
37 46
37 48
37 49
37 50
37 52
37 53
37 54
37 56
37 57
37 58
37 60
37 61
37 62
37 64
37 65
37 66
37 67
37 68
37 69
37 71
37 72
37 74
37 79
37 80
37 81
37 82
37 86
37 87
37 89
37 90
37 91
37 93
37 94
37 96
37 97
37 98
37 99
37 101
37 102
37 104
37 105
37 107
37 111
37 112
37 114
37 115
37 117
37 119
37 121
37 122
37 124
37 125
37 126
37 128
37 130
37 133
37 134
37 136
37 143
37 145
37 154
37 156
37 159
37 161
37 172
37 179
37 183
37 186
37 191
37 196
37 200
37 202
37 205
37 209
37 212
37 216
37 220
37 226
37 231
37 241
38 39
38 40
38 41
38 42
38 44
38 45
38 46
38 47
38 48
38 50
38 51
38 53
38 54
38 55
38 57
38 58
38 59
38 61
38 62
38 63
38 65
38 66
38 67
38 69
38 70
38 72
38 75
38 79
38 80
38 82
38 83
38 86
38 88
38 89
38 90
38 92
38 93
38 94
38 95
38 97
38 98
38 99
38 100
38 102
38 103
38 104
38 105
38 106
38 108
38 111
38 112
38 113
38 115
38 116
38 117
38 118
38 120
38 121
38 122
38 123
38 125
38 126
38 127
38 129
38 131
38 132
38 133
38 134
38 135
38 137
38 138
38 143
38 144
38 146
38 147
38 154
38 155
38 157
38 158
38 160
38 162
38 163
38 164
38 171
38 173
38 174
38 178
38 180
38 181
38 182
38 184
38 185
38 187
38 188
38 189
38 190
38 192
38 193
38 194
38 195
38 197
38 198
38 199
38 201
38 203
38 204
38 206
38 207
38 208
38 210
38 211
38 213
38 214
38 215
38 217
38 218
38 219
38 221
38 222
38 223
38 224
38 225
38 227
38 228
38 229
38 230
38 232
38 233
38 234
38 239
38 240
38 242
38 243
39 40
39 41
39 42
39 43
39 45
39 46
39 47
39 49
39 50
39 51
39 53
39 54
39 55
39 57
39 58
39 59
39 60
39 62
39 63
39 64
39 66
39 67
39 68
39 70
39 71
39 74
39 79
39 80
39 81
39 83
39 86
39 87
39 89
39 90
39 91
39 93
39 94
39 95
39 96
39 98
39 99
39 100
39 101
39 103
39 104
39 105
39 107
39 111
39 112
39 113
39 114
39 116
39 117
39 119
39 121
39 122
39 124
39 125
39 126
39 128
39 130
39 133
39 134
39 136
39 143
39 145
39 154
39 156
39 159
39 161
39 172
39 179
39 183
39 186
39 191
39 196
39 200
39 202
39 205
39 209
39 212
39 216
39 220
39 226
39 231
39 241
40 41
40 42
40 43
40 44
40 45
40 46
40 47
40 48
40 49
40 50
40 51
40 52
40 54
40 55
40 56
40 58
40 59
40 60
40 61
40 62
40 63
40 64
40 65
40 67
40 68
40 69
40 70
40 71
40 72
40 73
40 74
40 75
40 77
40 80
40 81
40 82
40 83
40 86
40 87
40 88
40 90
40 91
40 92
40 94
40 95
40 96
40 97
40 99
40 100
40 101
40 102
40 103
40 105
40 106
40 107
40 108
40 109
40 112
40 113
40 114
40 115
40 116
40 117
40 119
40 120
40 122
40 123
40 124
40 126
40 127
40 128
40 129
40 130
40 131
40 134
40 135
40 136
40 137
40 138
40 141
40 143
40 145
40 147
40 149
40 154
40 156
40 159
40 160
40 161
40 163
40 169
40 172
40 174
40 179
40 180
40 183
40 186
40 188
40 191
40 193
40 196
40 198
40 200
40 202
40 205
40 209
40 212
40 216
40 220
40 226
40 231
40 241
41 42
41 43
41 44
41 45
41 47
41 48
41 49
41 51
41 52
41 53
41 55
41 56
41 57
41 59
41 60
41 61
41 63
41 64
41 65
41 66
41 68
41 69
41 70
41 71
41 72
41 73
41 74
41 75
41 77
41 79
41 81
41 82
41 83
41 87
41 88
41 89
41 91
41 92
41 93
41 95
41 96
41 97
41 98
41 100
41 101
41 102
41 103
41 104
41 106
41 107
41 108
41 109
41 111
41 113
41 114
41 115
41 116
41 118
41 119
41 120
41 121
41 123
41 124
41 125
41 127
41 128
41 129
41 130
41 131
41 133
41 135
41 136
41 137
41 138
41 141
41 144
41 145
41 146
41 147
41 149
41 155
41 156
41 157
41 159
41 160
41 161
41 163
41 169
41 172
41 174
41 179
41 180
41 183
41 186
41 188
41 191
41 193
41 196
41 198
41 200
41 202
41 205
41 209
41 212
41 216
41 220
41 226
41 231
41 241
42 43
42 44
42 45
42 46
42 48
42 49
42 50
42 52
42 53
42 54
42 56
42 57
42 58
42 60
42 61
42 62
42 64
42 65
42 66
42 67
42 68
42 69
42 71
42 72
42 73
42 74
42 75
42 77
42 79
42 80
42 81
42 82
42 83
42 86
42 87
42 88
42 89
42 90
42 91
42 92
42 93
42 94
42 96
42 97
42 98
42 99
42 101
42 102
42 103
42 104
42 105
42 107
42 108
42 109
42 111
42 112
42 114
42 115
42 117
42 119
42 120
42 121
42 122
42 124
42 125
42 126
42 128
42 130
42 131
42 133
42 134
42 136
42 138
42 141
42 143
42 145
42 147
42 149
42 154
42 156
42 159
42 160
42 161
42 163
42 169
42 172
42 174
42 179
42 180
42 183
42 186
42 188
42 191
42 193
42 196
42 198
42 200
42 202
42 205
42 209
42 212
42 216
42 220
42 226
42 231
42 241
43 44
43 45
43 46
43 47
43 48
43 49
43 50
43 51
43 52
43 53
43 54
43 55
43 56
43 57
43 58
43 59
43 61
43 62
43 63
43 65
43 66
43 67
43 69
43 70
43 72
43 73
43 75
43 77
43 79
43 80
43 82
43 83
43 86
43 88
43 89
43 90
43 92
43 93
43 94
43 95
43 97
43 98
43 99
43 100
43 102
43 103
43 104
43 105
43 106
43 108
43 109
43 111
43 112
43 113
43 115
43 116
43 117
43 118
43 120
43 121
43 122
43 123
43 125
43 126
43 127
43 129
43 131
43 132
43 133
43 134
43 135
43 137
43 138
43 141
43 143
43 144
43 146
43 147
43 149
43 154
43 155
43 157
43 158
43 160
43 162
43 163
43 164
43 169
43 171
43 173
43 174
43 178
43 180
43 181
43 182
43 184
43 185
43 187
43 188
43 189
43 190
43 192
43 193
43 194
43 195
43 197
43 198
43 199
43 201
43 203
43 204
43 206
43 207
43 208
43 210
43 211
43 213
43 214
43 215
43 217
43 218
43 219
43 221
43 222
43 223
43 224
43 225
43 227
43 228
43 229
43 230
43 232
43 233
43 234
43 239
43 240
43 242
43 243
44 45
44 46
44 47
44 49
44 50
44 51
44 52
44 53
44 54
44 55
44 56
44 57
44 58
44 59
44 60
44 61
44 62
44 63
44 64
44 65
44 66
44 67
44 68
44 70
44 71
44 72
44 73
44 74
44 75
44 77
44 79
44 80
44 81
44 83
44 86
44 87
44 88
44 89
44 90
44 91
44 92
44 93
44 94
44 95
44 96
44 98
44 99
44 100
44 101
44 103
44 104
44 105
44 107
44 108
44 109
44 111
44 112
44 113
44 114
44 116
44 117
44 119
44 120
44 121
44 122
44 124
44 125
44 126
44 128
44 130
44 131
44 133
44 134
44 136
44 138
44 141
44 143
44 145
44 147
44 149
44 154
44 156
44 159
44 160
44 161
44 163
44 169
44 172
44 174
44 179
44 180
44 183
44 186
44 188
44 191
44 193
44 196
44 198
44 200
44 202
44 205
44 209
44 212
44 216
44 220
44 226
44 231
44 241
45 46
45 47
45 48
45 50
45 51
45 53
45 54
45 55
45 57
45 58
45 59
45 60
45 62
45 63
45 64
45 66
45 67
45 68
45 69
45 70
45 71
45 74
45 76
45 78
45 79
45 80
45 81
45 82
45 86
45 87
45 89
45 90
45 91
45 93
45 94
45 96
45 97
45 98
45 99
45 100
45 101
45 102
45 104
45 105
45 106
45 107
45 110
45 111
45 112
45 114
45 115
45 117
45 118
45 119
45 121
45 122
45 124
45 125
45 126
45 128
45 130
45 132
45 133
45 134
45 135
45 136
45 137
45 139
45 140
45 142
45 143
45 144
45 145
45 146
45 148
45 150
45 154
45 156
45 158
45 159
45 161
45 162
45 164
45 167
45 168
45 170
45 171
45 172
45 173
45 178
45 179
45 181
45 183
45 185
45 186
45 187
45 189
45 190
45 191
45 192
45 194
45 195
45 196
45 197
45 200
45 202
45 205
45 209
45 212
45 216
45 220
45 226
45 231
45 241
46 47
46 48
46 49
46 51
46 52
46 53
46 55
46 56
46 57
46 59
46 60
46 61
46 63
46 64
46 65
46 66
46 68
46 69
46 70
46 72
46 73
46 75
46 77
46 79
46 81
46 82
46 83
46 87
46 88
46 89
46 91
46 92
46 93
46 95
46 96
46 97
46 98
46 100
46 101
46 102
46 103
46 104
46 106
46 107
46 108
46 109
46 111
46 113
46 114
46 115
46 116
46 118
46 119
46 120
46 121
46 123
46 124
46 125
46 127
46 128
46 129
46 131
46 133
46 135
46 136
46 137
46 138
46 141
46 144
46 145
46 146
46 147
46 149
46 155
46 156
46 157
46 160
46 163
46 169
46 174
46 180
46 188
46 193
46 198
47 48
47 49
47 50
47 52
47 53
47 54
47 56
47 57
47 58
47 60
47 61
47 62
47 64
47 65
47 67
47 69
47 71
47 72
47 73
47 75
47 77
47 80
47 82
47 83
47 86
47 88
47 90
47 92
47 94
47 97
47 99
47 102
47 103
47 105
47 108
47 109
47 112
47 115
47 117
47 120
47 122
47 126
47 131
47 134
47 138
47 141
47 143
47 147
47 149
47 154
47 160
47 163
47 169
47 174
47 180
47 188
47 193
47 198
48 49
48 50
48 51
48 52
48 54
48 55
48 56
48 58
48 59
48 61
48 62
48 63
48 65
48 66
48 67
48 68
48 70
48 72
48 73
48 75
48 77
48 79
48 80
48 81
48 83
48 86
48 88
48 90
48 92
48 93
48 94
48 95
48 96
48 98
48 99
48 100
48 101
48 103
48 105
48 108
48 109
48 111
48 112
48 113
48 114
48 116
48 117
48 120
48 122
48 126
48 131
48 134
48 138
48 141
48 143
48 147
48 149
48 154
48 160
48 163
48 169
48 174
48 180
48 188
48 193
48 198
49 50
49 51
49 53
49 54
49 55
49 57
49 58
49 59
49 60
49 62
49 63
49 64
49 67
49 69
49 70
49 71
49 74
49 76
49 78
49 79
49 80
49 81
49 82
49 86
49 87
49 89
49 90
49 91
49 94
49 97
49 98
49 99
49 100
49 101
49 102
49 104
49 105
49 106
49 107
49 110
49 112
49 115
49 117
49 118
49 119
49 122
49 126
49 130
49 132
49 133
49 134
49 135
49 136
49 137
49 139
49 140
49 142
49 143
49 144
49 145
49 146
49 148
49 150
49 154
49 158
49 159
49 161
49 162
49 164
49 167
49 168
49 170
49 171
49 172
49 173
49 178
49 179
49 181
49 185
49 186
49 187
49 189
49 190
49 191
49 192
49 194
49 195
49 196
49 197
50 51
50 52
50 53
50 55
50 56
50 57
50 59
50 60
50 61
50 63
50 64
50 65
50 66
50 68
50 69
50 70
50 72
50 73
50 75
50 77
50 79
50 81
50 82
50 83
50 87
50 88
50 89
50 91
50 92
50 93
50 95
50 96
50 97
50 98
50 100
50 101
50 102
50 103
50 104
50 106
50 107
50 108
50 109
50 111
50 113
50 114
50 115
50 116
50 118
50 119
50 120
50 121
50 123
50 124
50 125
50 127
50 128
50 129
50 131
50 133
50 135
50 136
50 137
50 138
50 141
50 144
50 145
50 146
50 147
50 149
50 155
50 156
50 157
50 160
50 163
50 169
50 174
50 180
50 188
50 193
50 198
51 52
51 53
51 54
51 56
51 57
51 58
51 60
51 61
51 62
51 64
51 65
51 67
51 71
51 72
51 73
51 75
51 77
51 80
51 83
51 86
51 88
51 90
51 92
51 94
51 99
51 103
51 105
51 108
51 109
51 112
51 117
51 120
51 122
51 126
51 131
51 134
51 138
51 141
51 143
51 147
51 149
51 154
51 160
51 163
51 169
51 174
51 180
51 188
51 193
51 198
52 53
52 54
52 55
52 57
52 58
52 59
52 60
52 62
52 63
52 64
52 67
52 70
52 71
52 74
52 76
52 78
52 79
52 80
52 81
52 82
52 86
52 87
52 89
52 90
52 91
52 94
52 98
52 99
52 100
52 101
52 102
52 104
52 105
52 106
52 107
52 110
52 112
52 117
52 118
52 119
52 122
52 126
52 130
52 132
52 133
52 134
52 135
52 136
52 137
52 139
52 140
52 142
52 143
52 144
52 145
52 146
52 148
52 150
52 154
52 158
52 159
52 161
52 162
52 164
52 167
52 168
52 170
52 171
52 172
52 173
52 178
52 179
52 181
52 185
52 186
52 187
52 189
52 190
52 191
52 192
52 194
52 195
52 196
52 197
53 54
53 55
53 56
53 58
53 59
53 60
53 61
53 62
53 63
53 65
53 67
53 68
53 69
53 70
53 72
53 73
53 75
53 77
53 80
53 81
53 82
53 83
53 86
53 88
53 90
53 91
53 92
53 94
53 95
53 96
53 97
53 99
53 100
53 101
53 102
53 103
53 105
53 106
53 107
53 108
53 109
53 112
53 113
53 114
53 115
53 116
53 117
53 120
53 122
53 123
53 124
53 126
53 127
53 128
53 129
53 131
53 134
53 135
53 136
53 137
53 138
53 141
53 143
53 147
53 149
53 154
53 160
53 163
53 169
53 174
53 180
53 188
53 193
53 198
54 55
54 56
54 57
54 59
54 60
54 61
54 63
54 64
54 65
54 66
54 68
54 69
54 70
54 72
54 73
54 75
54 77
54 79
54 81
54 82
54 83
54 87
54 88
54 89
54 91
54 92
54 93
54 95
54 96
54 97
54 98
54 100
54 101
54 102
54 103
54 104
54 106
54 107
54 108
54 109
54 111
54 113
54 114
54 115
54 116
54 118
54 119
54 120
54 121
54 123
54 124
54 125
54 127
54 128
54 129
54 131
54 133
54 135
54 136
54 137
54 138
54 141
54 144
54 145
54 146
54 147
54 149
54 155
54 156
54 157
54 160
54 163
54 169
54 174
54 180
54 188
54 193
54 198
55 56
55 57
55 58
55 60
55 61
55 62
55 64
55 65
55 66
55 67
55 71
55 72
55 73
55 75
55 77
55 79
55 80
55 83
55 86
55 88
55 89
55 90
55 92
55 93
55 94
55 98
55 99
55 103
55 104
55 105
55 108
55 109
55 111
55 112
55 117
55 120
55 121
55 122
55 125
55 126
55 131
55 133
55 134
55 138
55 141
55 143
55 147
55 149
55 154
55 160
55 163
55 169
55 174
55 180
55 188
55 193
55 198
56 57
56 58
56 59
56 60
56 62
56 63
56 64
56 66
56 67
56 70
56 71
56 74
56 76
56 78
56 79
56 80
56 81
56 82
56 86
56 87
56 89
56 90
56 91
56 93
56 94
56 98
56 99
56 100
56 101
56 102
56 104
56 105
56 106
56 107
56 110
56 111
56 112
56 117
56 118
56 119
56 121
56 122
56 125
56 126
56 130
56 132
56 133
56 134
56 135
56 136
56 137
56 139
56 140
56 142
56 143
56 144
56 145
56 146
56 148
56 150
56 154
56 158
56 159
56 161
56 162
56 164
56 167
56 168
56 170
56 171
56 172
56 173
56 178
56 179
56 181
56 185
56 186
56 187
56 189
56 190
56 191
56 192
56 194
56 195
56 196
56 197
57 58
57 59
57 60
57 61
57 62
57 63
57 64
57 65
57 67
57 68
57 69
57 70
57 71
57 72
57 73
57 74
57 75
57 77
57 80
57 81
57 82
57 83
57 86
57 87
57 88
57 90
57 91
57 92
57 94
57 95
57 96
57 97
57 99
57 100
57 101
57 102
57 103
57 105
57 106
57 107
57 108
57 109
57 112
57 113
57 114
57 115
57 116
57 117
57 119
57 120
57 122
57 123
57 124
57 126
57 127
57 128
57 129
57 130
57 131
57 134
57 135
57 136
57 137
57 138
57 141
57 143
57 145
57 147
57 149
57 154
57 156
57 159
57 160
57 161
57 163
57 169
57 172
57 174
57 179
57 180
57 183
57 186
57 188
57 191
57 193
57 196
57 198
57 200
57 202
57 205
57 209
57 212
57 216
57 220
57 226
57 231
57 241
58 59
58 60
58 61
58 63
58 64
58 65
58 66
58 68
58 69
58 70
58 71
58 72
58 73
58 74
58 75
58 77
58 79
58 81
58 82
58 83
58 87
58 88
58 89
58 91
58 92
58 93
58 95
58 96
58 97
58 98
58 100
58 101
58 102
58 103
58 104
58 106
58 107
58 108
58 109
58 111
58 113
58 114
58 115
58 116
58 118
58 119
58 120
58 121
58 123
58 124
58 125
58 127
58 128
58 129
58 130
58 131
58 133
58 135
58 136
58 137
58 138
58 141
58 144
58 145
58 146
58 147
58 149
58 155
58 156
58 157
58 159
58 160
58 161
58 163
58 169
58 172
58 174
58 179
58 180
58 183
58 186
58 188
58 191
58 193
58 196
58 198
58 200
58 202
58 205
58 209
58 212
58 216
58 220
58 226
58 231
58 241
59 60
59 61
59 62
59 64
59 65
59 66
59 67
59 68
59 71
59 72
59 73
59 74
59 75
59 77
59 79
59 80
59 81
59 83
59 86
59 87
59 88
59 89
59 90
59 91
59 92
59 93
59 94
59 96
59 98
59 99
59 101
59 103
59 104
59 105
59 107
59 108
59 109
59 111
59 112
59 114
59 117
59 119
59 120
59 121
59 122
59 124
59 125
59 126
59 128
59 130
59 131
59 133
59 134
59 136
59 138
59 141
59 143
59 145
59 147
59 149
59 154
59 156
59 159
59 160
59 161
59 163
59 169
59 172
59 174
59 179
59 180
59 183
59 186
59 188
59 191
59 193
59 196
59 198
59 200
59 202
59 205
59 209
59 212
59 216
59 220
59 226
59 231
59 241
60 61
60 62
60 63
60 65
60 66
60 67
60 69
60 70
60 72
60 73
60 75
60 77
60 79
60 80
60 82
60 83
60 86
60 88
60 89
60 90
60 92
60 93
60 94
60 95
60 97
60 98
60 99
60 100
60 102
60 103
60 104
60 105
60 106
60 108
60 109
60 111
60 112
60 113
60 115
60 116
60 117
60 118
60 120
60 121
60 122
60 123
60 125
60 126
60 127
60 129
60 131
60 132
60 133
60 134
60 135
60 137
60 138
60 141
60 143
60 144
60 146
60 147
60 149
60 154
60 155
60 157
60 158
60 160
60 162
60 163
60 164
60 169
60 171
60 173
60 174
60 178
60 180
60 181
60 182
60 184
60 185
60 187
60 188
60 189
60 190
60 192
60 193
60 194
60 195
60 197
60 198
60 199
60 201
60 203
60 204
60 206
60 207
60 208
60 210
60 211
60 213
60 214
60 215
60 217
60 218
60 219
60 221
60 222
60 223
60 224
60 225
60 227
60 228
60 229
60 230
60 232
60 233
60 234
60 239
60 240
60 242
60 243
61 62
61 63
61 64
61 66
61 67
61 68
61 70
61 71
61 74
61 76
61 78
61 79
61 80
61 81
61 82
61 86
61 87
61 89
61 90
61 91
61 93
61 94
61 96
61 98
61 99
61 100
61 101
61 102
61 104
61 105
61 106
61 107
61 110
61 111
61 112
61 114
61 117
61 118
61 119
61 121
61 122
61 124
61 125
61 126
61 128
61 130
61 132
61 133
61 134
61 135
61 136
61 137
61 139
61 140
61 142
61 143
61 144
61 145
61 146
61 148
61 150
61 154
61 156
61 158
61 159
61 161
61 162
61 164
61 167
61 168
61 170
61 171
61 172
61 173
61 178
61 179
61 181
61 183
61 185
61 186
61 187
61 189
61 190
61 191
61 192
61 194
61 195
61 196
61 197
61 200
61 202
61 205
61 209
61 212
61 216
61 220
61 226
61 231
61 241
62 63
62 64
62 65
62 66
62 68
62 69
62 70
62 71
62 72
62 73
62 74
62 75
62 77
62 79
62 81
62 82
62 83
62 87
62 88
62 89
62 91
62 92
62 93
62 95
62 96
62 97
62 98
62 100
62 101
62 102
62 103
62 104
62 106
62 107
62 108
62 109
62 111
62 113
62 114
62 115
62 116
62 118
62 119
62 120
62 121
62 123
62 124
62 125
62 127
62 128
62 129
62 130
62 131
62 133
62 135
62 136
62 137
62 138
62 141
62 144
62 145
62 146
62 147
62 149
62 155
62 156
62 157
62 159
62 160
62 161
62 163
62 169
62 172
62 174
62 179
62 180
62 183
62 186
62 188
62 191
62 193
62 196
62 198
62 200
62 202
62 205
62 209
62 212
62 216
62 220
62 226
62 231
62 241
63 64
63 65
63 67
63 68
63 71
63 72
63 73
63 74
63 75
63 77
63 80
63 81
63 83
63 86
63 87
63 88
63 90
63 91
63 92
63 94
63 96
63 99
63 101
63 103
63 105
63 107
63 108
63 109
63 112
63 114
63 117
63 119
63 120
63 122
63 124
63 126
63 128
63 130
63 131
63 134
63 136
63 138
63 141
63 143
63 145
63 147
63 149
63 154
63 156
63 159
63 160
63 161
63 163
63 169
63 172
63 174
63 179
63 180
63 183
63 186
63 188
63 191
63 193
63 196
63 198
63 200
63 202
63 205
63 209
63 212
63 216
63 220
63 226
63 231
63 241
64 65
64 66
64 67
64 69
64 70
64 72
64 73
64 75
64 77
64 79
64 80
64 82
64 83
64 86
64 88
64 89
64 90
64 92
64 93
64 94
64 95
64 97
64 98
64 99
64 100
64 102
64 103
64 104
64 105
64 106
64 108
64 109
64 111
64 112
64 113
64 115
64 116
64 117
64 118
64 120
64 121
64 122
64 123
64 125
64 126
64 127
64 129
64 131
64 132
64 133
64 134
64 135
64 137
64 138
64 141
64 143
64 144
64 146
64 147
64 149
64 154
64 155
64 157
64 158
64 160
64 162
64 163
64 164
64 169
64 171
64 173
64 174
64 178
64 180
64 181
64 182
64 184
64 185
64 187
64 188
64 189
64 190
64 192
64 193
64 194
64 195
64 197
64 198
64 199
64 201
64 203
64 204
64 206
64 207
64 208
64 210
64 211
64 213
64 214
64 215
64 217
64 218
64 219
64 221
64 222
64 223
64 224
64 225
64 227
64 228
64 229
64 230
64 232
64 233
64 234
64 239
64 240
64 242
64 243
65 67
65 68
65 70
65 71
65 74
65 76
65 78
65 79
65 80
65 81
65 82
65 86
65 87
65 89
65 90
65 91
65 94
65 96
65 98
65 99
65 100
65 101
65 102
65 104
65 105
65 106
65 107
65 110
65 112
65 114
65 117
65 118
65 119
65 122
65 124
65 126
65 128
65 130
65 132
65 133
65 134
65 135
65 136
65 137
65 139
65 140
65 142
65 143
65 144
65 145
65 146
65 148
65 150
65 154
65 156
65 158
65 159
65 161
65 162
65 164
65 167
65 168
65 170
65 171
65 172
65 173
65 178
65 179
65 181
65 183
65 185
65 186
65 187
65 189
65 190
65 191
65 192
65 194
65 195
65 196
65 197
65 200
65 202
65 205
65 209
65 212
65 216
65 220
65 226
65 231
65 241
66 67
66 68
66 69
66 71
66 74
66 80
66 81
66 82
66 83
66 86
66 87
66 90
66 91
66 92
66 94
66 95
66 96
66 97
66 99
66 100
66 101
66 102
66 103
66 105
66 106
66 107
66 108
66 112
66 113
66 114
66 115
66 116
66 117
66 119
66 122
66 123
66 124
66 126
66 127
66 128
66 129
66 130
66 134
66 135
66 136
66 137
66 138
66 143
66 145
66 154
66 156
66 159
66 161
66 172
66 179
66 183
66 186
66 191
66 196
66 200
66 202
66 205
66 209
66 212
66 216
66 220
66 226
66 231
66 241
67 68
67 69
67 71
67 74
67 79
67 81
67 82
67 83
67 87
67 88
67 89
67 91
67 92
67 93
67 95
67 96
67 97
67 98
67 100
67 101
67 102
67 103
67 104
67 106
67 107
67 108
67 111
67 113
67 114
67 115
67 116
67 118
67 119
67 120
67 121
67 123
67 124
67 125
67 127
67 128
67 129
67 130
67 133
67 135
67 136
67 137
67 138
67 144
67 145
67 146
67 147
67 155
67 156
67 157
67 159
67 161
67 172
67 179
67 183
67 186
67 191
67 196
67 200
67 202
67 205
67 209
67 212
67 216
67 220
67 226
67 231
67 241
68 69
68 70
68 72
68 75
68 79
68 80
68 82
68 83
68 86
68 88
68 89
68 90
68 92
68 93
68 94
68 95
68 97
68 98
68 99
68 100
68 102
68 103
68 104
68 105
68 106
68 108
68 111
68 112
68 113
68 115
68 116
68 117
68 118
68 120
68 121
68 122
68 123
68 125
68 126
68 127
68 129
68 131
68 132
68 133
68 134
68 135
68 137
68 138
68 143
68 144
68 146
68 147
68 154
68 155
68 157
68 158
68 160
68 162
68 163
68 164
68 171
68 173
68 174
68 178
68 180
68 181
68 182
68 184
68 185
68 187
68 188
68 189
68 190
68 192
68 193
68 194
68 195
68 197
68 198
68 199
68 201
68 203
68 204
68 206
68 207
68 208
68 210
68 211
68 213
68 214
68 215
68 217
68 218
68 219
68 221
68 222
68 223
68 224
68 225
68 227
68 228
68 229
68 230
68 232
68 233
68 234
68 239
68 240
68 242
68 243
69 71
69 74
69 79
69 80
69 81
69 83
69 86
69 87
69 89
69 90
69 91
69 93
69 94
69 95
69 96
69 98
69 99
69 100
69 101
69 103
69 104
69 105
69 107
69 111
69 112
69 113
69 114
69 116
69 117
69 119
69 121
69 122
69 124
69 125
69 126
69 128
69 130
69 133
69 134
69 136
69 143
69 145
69 154
69 156
69 159
69 161
69 172
69 179
69 183
69 186
69 191
69 196
69 200
69 202
69 205
69 209
69 212
69 216
69 220
69 226
69 231
69 241
70 71
70 72
70 73
70 74
70 75
70 77
70 81
70 83
70 87
70 88
70 91
70 92
70 96
70 101
70 103
70 107
70 108
70 109
70 114
70 119
70 120
70 124
70 128
70 130
70 131
70 136
70 138
70 141
70 145
70 147
70 149
70 156
70 159
70 160
70 161
70 163
70 169
70 172
70 174
70 179
70 180
70 183
70 186
70 188
70 191
70 193
70 196
70 198
70 200
70 202
70 205
70 209
70 212
70 216
70 220
70 226
70 231
70 241
71 72
71 73
71 75
71 77
71 79
71 80
71 82
71 83
71 86
71 88
71 89
71 90
71 92
71 93
71 94
71 95
71 97
71 98
71 99
71 100
71 102
71 103
71 104
71 105
71 106
71 108
71 109
71 111
71 112
71 113
71 115
71 116
71 117
71 118
71 120
71 121
71 122
71 123
71 125
71 126
71 127
71 129
71 131
71 132
71 133
71 134
71 135
71 137
71 138
71 141
71 143
71 144
71 146
71 147
71 149
71 154
71 155
71 157
71 158
71 160
71 162
71 163
71 164
71 169
71 171
71 173
71 174
71 178
71 180
71 181
71 182
71 184
71 185
71 187
71 188
71 189
71 190
71 192
71 193
71 194
71 195
71 197
71 198
71 199
71 201
71 203
71 204
71 206
71 207
71 208
71 210
71 211
71 213
71 214
71 215
71 217
71 218
71 219
71 221
71 222
71 223
71 224
71 225
71 227
71 228
71 229
71 230
71 232
71 233
71 234
71 239
71 240
71 242
71 243
72 74
72 76
72 78
72 79
72 80
72 81
72 82
72 86
72 87
72 89
72 90
72 91
72 96
72 98
72 99
72 100
72 101
72 102
72 104
72 105
72 106
72 107
72 110
72 114
72 117
72 118
72 119
72 124
72 128
72 130
72 132
72 133
72 134
72 135
72 136
72 137
72 139
72 140
72 142
72 143
72 144
72 145
72 146
72 148
72 150
72 156
72 158
72 159
72 161
72 162
72 164
72 167
72 168
72 170
72 171
72 172
72 173
72 178
72 179
72 181
72 183
72 185
72 186
72 187
72 189
72 190
72 191
72 192
72 194
72 195
72 196
72 197
72 200
72 202
72 205
72 209
72 212
72 216
72 220
72 226
72 231
72 241
73 74
73 76
73 78
73 79
73 80
73 81
73 82
73 86
73 87
73 89
73 90
73 91
73 98
73 99
73 100
73 101
73 102
73 104
73 105
73 106
73 107
73 110
73 117
73 118
73 119
73 130
73 132
73 133
73 134
73 135
73 136
73 137
73 139
73 140
73 142
73 143
73 144
73 145
73 146
73 148
73 150
73 158
73 159
73 161
73 162
73 164
73 167
73 168
73 170
73 171
73 172
73 173
73 178
73 179
73 181
73 185
73 186
73 187
73 189
73 190
73 191
73 192
73 194
73 195
73 196
73 197
74 75
74 77
74 79
74 80
74 82
74 83
74 86
74 88
74 89
74 90
74 92
74 93
74 94
74 95
74 97
74 98
74 99
74 100
74 102
74 103
74 104
74 105
74 106
74 108
74 109
74 111
74 112
74 113
74 115
74 116
74 117
74 118
74 120
74 121
74 122
74 123
74 125
74 126
74 127
74 129
74 131
74 132
74 133
74 134
74 135
74 137
74 138
74 141
74 143
74 144
74 146
74 147
74 149
74 154
74 155
74 157
74 158
74 160
74 162
74 163
74 164
74 169
74 171
74 173
74 174
74 178
74 180
74 181
74 182
74 184
74 185
74 187
74 188
74 189
74 190
74 192
74 193
74 194
74 195
74 197
74 198
74 199
74 201
74 203
74 204
74 206
74 207
74 208
74 210
74 211
74 213
74 214
74 215
74 217
74 218
74 219
74 221
74 222
74 223
74 224
74 225
74 227
74 228
74 229
74 230
74 232
74 233
74 234
74 239
74 240
74 242
74 243
75 76
75 78
75 79
75 80
75 81
75 82
75 86
75 87
75 89
75 90
75 91
75 96
75 98
75 99
75 100
75 101
75 102
75 104
75 105
75 106
75 107
75 110
75 114
75 117
75 118
75 119
75 124
75 128
75 130
75 132
75 133
75 134
75 135
75 136
75 137
75 139
75 140
75 142
75 143
75 144
75 145
75 146
75 148
75 150
75 156
75 158
75 159
75 161
75 162
75 164
75 167
75 168
75 170
75 171
75 172
75 173
75 178
75 179
75 181
75 183
75 185
75 186
75 187
75 189
75 190
75 191
75 192
75 194
75 195
75 196
75 197
75 200
75 202
75 205
75 209
75 212
75 216
75 220
75 226
75 231
75 241
76 77
76 78
76 83
76 85
76 88
76 92
76 103
76 108
76 109
76 110
76 120
76 131
76 132
76 138
76 140
76 141
76 142
76 147
76 149
76 150
76 152
76 153
76 160
76 163
76 164
76 166
76 169
76 170
76 174
76 177
76 180
76 181
76 188
76 189
76 193
76 194
76 198
76 207
76 214
76 218
76 223
76 228
76 234
76 238
76 250
77 78
77 79
77 80
77 81
77 82
77 84
77 85
77 86
77 87
77 89
77 90
77 91
77 98
77 99
77 100
77 101
77 102
77 104
77 105
77 106
77 107
77 110
77 117
77 118
77 119
77 130
77 132
77 133
77 134
77 135
77 136
77 137
77 139
77 140
77 142
77 143
77 144
77 145
77 146
77 148
77 150
77 151
77 153
77 158
77 159
77 161
77 162
77 164
77 166
77 167
77 168
77 170
77 171
77 172
77 173
77 177
77 178
77 179
77 181
77 185
77 186
77 187
77 189
77 190
77 191
77 192
77 194
77 195
77 196
77 197
77 207
77 214
77 218
77 223
77 228
77 234
77 238
77 250
78 83
78 84
78 88
78 92
78 103
78 108
78 109
78 120
78 130
78 131
78 138
78 139
78 140
78 141
78 147
78 148
78 149
78 151
78 152
78 160
78 161
78 162
78 163
78 165
78 167
78 168
78 169
78 174
78 175
78 176
78 178
78 179
78 180
78 185
78 186
78 187
78 188
78 190
78 191
78 192
78 193
78 198
78 204
78 205
78 206
78 212
78 213
78 215
78 216
78 217
78 219
78 220
78 221
78 222
78 224
78 225
78 226
78 227
78 229
78 230
78 231
78 232
78 233
78 235
78 236
78 237
78 246
78 247
78 248
78 249
79 80
79 81
79 82
79 83
79 86
79 87
79 88
79 90
79 91
79 92
79 94
79 95
79 96
79 97
79 99
79 100
79 101
79 102
79 103
79 105
79 106
79 107
79 108
79 109
79 112
79 113
79 114
79 115
79 116
79 117
79 119
79 120
79 122
79 123
79 124
79 126
79 127
79 128
79 129
79 130
79 131
79 134
79 135
79 136
79 137
79 138
79 141
79 143
79 145
79 147
79 149
79 154
79 156
79 159
79 160
79 161
79 163
79 169
79 172
79 174
79 179
79 180
79 183
79 186
79 188
79 191
79 193
79 196
79 198
79 200
79 202
79 205
79 209
79 212
79 216
79 220
79 226
79 231
79 241
80 81
80 82
80 83
80 87
80 88
80 89
80 91
80 92
80 93
80 95
80 96
80 97
80 98
80 100
80 101
80 102
80 103
80 104
80 106
80 107
80 108
80 109
80 111
80 113
80 114
80 115
80 116
80 118
80 119
80 120
80 121
80 123
80 124
80 125
80 127
80 128
80 129
80 130
80 131
80 133
80 135
80 136
80 137
80 138
80 141
80 144
80 145
80 146
80 147
80 149
80 155
80 156
80 157
80 159
80 160
80 161
80 163
80 169
80 172
80 174
80 179
80 180
80 183
80 186
80 188
80 191
80 193
80 196
80 198
80 200
80 202
80 205
80 209
80 212
80 216
80 220
80 226
80 231
80 241
81 82
81 83
81 86
81 88
81 89
81 90
81 92
81 93
81 94
81 95
81 97
81 98
81 99
81 100
81 102
81 103
81 104
81 105
81 106
81 108
81 109
81 111
81 112
81 113
81 115
81 116
81 117
81 118
81 120
81 121
81 122
81 123
81 125
81 126
81 127
81 129
81 131
81 132
81 133
81 134
81 135
81 137
81 138
81 141
81 143
81 144
81 146
81 147
81 149
81 154
81 155
81 157
81 158
81 160
81 162
81 163
81 164
81 169
81 171
81 173
81 174
81 178
81 180
81 181
81 182
81 184
81 185
81 187
81 188
81 189
81 190
81 192
81 193
81 194
81 195
81 197
81 198
81 199
81 201
81 203
81 204
81 206
81 207
81 208
81 210
81 211
81 213
81 214
81 215
81 217
81 218
81 219
81 221
81 222
81 223
81 224
81 225
81 227
81 228
81 229
81 230
81 232
81 233
81 234
81 239
81 240
81 242
81 243
82 83
82 86
82 87
82 88
82 89
82 90
82 91
82 92
82 93
82 94
82 95
82 96
82 98
82 99
82 100
82 101
82 103
82 104
82 105
82 107
82 108
82 109
82 111
82 112
82 113
82 114
82 116
82 117
82 119
82 120
82 121
82 122
82 124
82 125
82 126
82 128
82 130
82 131
82 133
82 134
82 136
82 138
82 141
82 143
82 145
82 147
82 149
82 154
82 156
82 159
82 160
82 161
82 163
82 169
82 172
82 174
82 179
82 180
82 183
82 186
82 188
82 191
82 193
82 196
82 198
82 200
82 202
82 205
82 209
82 212
82 216
82 220
82 226
82 231
82 241
83 86
83 87
83 89
83 90
83 91
83 93
83 94
83 96
83 97
83 98
83 99
83 100
83 101
83 102
83 104
83 105
83 106
83 107
83 110
83 111
83 112
83 114
83 115
83 117
83 118
83 119
83 121
83 122
83 124
83 125
83 126
83 128
83 130
83 132
83 133
83 134
83 135
83 136
83 137
83 139
83 140
83 142
83 143
83 144
83 145
83 146
83 148
83 150
83 154
83 156
83 158
83 159
83 161
83 162
83 164
83 167
83 168
83 170
83 171
83 172
83 173
83 178
83 179
83 181
83 183
83 185
83 186
83 187
83 189
83 190
83 191
83 192
83 194
83 195
83 196
83 197
83 200
83 202
83 205
83 209
83 212
83 216
83 220
83 226
83 231
83 241
84 85
84 110
84 132
84 140
84 141
84 142
84 150
84 152
84 153
84 164
84 166
84 170
84 177
84 181
84 189
84 194
84 207
84 214
84 218
84 223
84 228
84 234
84 238
84 250
85 109
85 130
85 131
85 139
85 140
85 141
85 148
85 149
85 151
85 152
85 161
85 162
85 163
85 165
85 167
85 168
85 169
85 175
85 176
85 178
85 179
85 180
85 185
85 186
85 187
85 188
85 190
85 191
85 192
85 193
85 204
85 205
85 206
85 212
85 213
85 215
85 216
85 217
85 219
85 220
85 221
85 222
85 224
85 225
85 226
85 227
85 229
85 230
85 231
85 232
85 233
85 235
85 236
85 237
85 246
85 247
85 248
85 249
86 87
86 88
86 89
86 91
86 92
86 93
86 95
86 96
86 97
86 98
86 100
86 101
86 102
86 103
86 104
86 106
86 107
86 108
86 109
86 111
86 113
86 114
86 115
86 116
86 118
86 119
86 120
86 121
86 123
86 124
86 125
86 127
86 128
86 129
86 130
86 131
86 133
86 135
86 136
86 137
86 138
86 141
86 144
86 145
86 146
86 147
86 149
86 155
86 156
86 157
86 159
86 160
86 161
86 163
86 169
86 172
86 174
86 179
86 180
86 183
86 186
86 188
86 191
86 193
86 196
86 198
86 200
86 202
86 205
86 209
86 212
86 216
86 220
86 226
86 231
86 241
87 88
87 89
87 90
87 92
87 93
87 94
87 95
87 97
87 98
87 99
87 100
87 102
87 103
87 104
87 105
87 106
87 108
87 109
87 111
87 112
87 113
87 115
87 116
87 117
87 118
87 120
87 121
87 122
87 123
87 125
87 126
87 127
87 129
87 131
87 132
87 133
87 134
87 135
87 137
87 138
87 141
87 143
87 144
87 146
87 147
87 149
87 154
87 155
87 157
87 158
87 160
87 162
87 163
87 164
87 169
87 171
87 173
87 174
87 178
87 180
87 181
87 182
87 184
87 185
87 187
87 188
87 189
87 190
87 192
87 193
87 194
87 195
87 197
87 198
87 199
87 201
87 203
87 204
87 206
87 207
87 208
87 210
87 211
87 213
87 214
87 215
87 217
87 218
87 219
87 221
87 222
87 223
87 224
87 225
87 227
87 228
87 229
87 230
87 232
87 233
87 234
87 239
87 240
87 242
87 243
88 89
88 90
88 91
88 94
88 96
88 98
88 99
88 100
88 101
88 102
88 104
88 105
88 106
88 107
88 110
88 112
88 114
88 117
88 118
88 119
88 122
88 124
88 126
88 128
88 130
88 132
88 133
88 134
88 135
88 136
88 137
88 139
88 140
88 142
88 143
88 144
88 145
88 146
88 148
88 150
88 154
88 156
88 158
88 159
88 161
88 162
88 164
88 167
88 168
88 170
88 171
88 172
88 173
88 178
88 179
88 181
88 183
88 185
88 186
88 187
88 189
88 190
88 191
88 192
88 194
88 195
88 196
88 197
88 200
88 202
88 205
88 209
88 212
88 216
88 220
88 226
88 231
88 241
89 90
89 91
89 92
89 94
89 95
89 96
89 97
89 99
89 100
89 101
89 102
89 103
89 105
89 106
89 107
89 108
89 109
89 112
89 113
89 114
89 115
89 116
89 117
89 119
89 120
89 122
89 123
89 124
89 126
89 127
89 128
89 129
89 130
89 131
89 134
89 135
89 136
89 137
89 138
89 141
89 143
89 145
89 147
89 149
89 154
89 156
89 159
89 160
89 161
89 163
89 169
89 172
89 174
89 179
89 180
89 183
89 186
89 188
89 191
89 193
89 196
89 198
89 200
89 202
89 205
89 209
89 212
89 216
89 220
89 226
89 231
89 241
90 91
90 92
90 93
90 95
90 96
90 97
90 98
90 100
90 101
90 102
90 103
90 104
90 106
90 107
90 108
90 109
90 111
90 113
90 114
90 115
90 116
90 118
90 119
90 120
90 121
90 123
90 124
90 125
90 127
90 128
90 129
90 130
90 131
90 133
90 135
90 136
90 137
90 138
90 141
90 144
90 145
90 146
90 147
90 149
90 155
90 156
90 157
90 159
90 160
90 161
90 163
90 169
90 172
90 174
90 179
90 180
90 183
90 186
90 188
90 191
90 193
90 196
90 198
90 200
90 202
90 205
90 209
90 212
90 216
90 220
90 226
90 231
90 241
91 92
91 93
91 94
91 95
91 97
91 98
91 99
91 100
91 102
91 103
91 104
91 105
91 106
91 108
91 109
91 111
91 112
91 113
91 115
91 116
91 117
91 118
91 120
91 121
91 122
91 123
91 125
91 126
91 127
91 129
91 131
91 132
91 133
91 134
91 135
91 137
91 138
91 141
91 143
91 144
91 146
91 147
91 149
91 154
91 155
91 157
91 158
91 160
91 162
91 163
91 164
91 169
91 171
91 173
91 174
91 178
91 180
91 181
91 182
91 184
91 185
91 187
91 188
91 189
91 190
91 192
91 193
91 194
91 195
91 197
91 198
91 199
91 201
91 203
91 204
91 206
91 207
91 208
91 210
91 211
91 213
91 214
91 215
91 217
91 218
91 219
91 221
91 222
91 223
91 224
91 225
91 227
91 228
91 229
91 230
91 232
91 233
91 234
91 239
91 240
91 242
91 243
92 93
92 94
92 96
92 98
92 99
92 100
92 101
92 102
92 104
92 105
92 106
92 107
92 110
92 111
92 112
92 114
92 117
92 118
92 119
92 121
92 122
92 124
92 125
92 126
92 128
92 130
92 132
92 133
92 134
92 135
92 136
92 137
92 139
92 140
92 142
92 143
92 144
92 145
92 146
92 148
92 150
92 154
92 156
92 158
92 159
92 161
92 162
92 164
92 167
92 168
92 170
92 171
92 172
92 173
92 178
92 179
92 181
92 183
92 185
92 186
92 187
92 189
92 190
92 191
92 192
92 194
92 195
92 196
92 197
92 200
92 202
92 205
92 209
92 212
92 216
92 220
92 226
92 231
92 241
93 94
93 95
93 96
93 97
93 99
93 100
93 101
93 102
93 103
93 105
93 106
93 107
93 108
93 112
93 113
93 114
93 115
93 116
93 117
93 118
93 119
93 122
93 123
93 124
93 126
93 127
93 128
93 129
93 130
93 134
93 135
93 136
93 137
93 138
93 143
93 144
93 145
93 154
93 155
93 156
93 158
93 159
93 161
93 171
93 172
93 178
93 179
93 182
93 183
93 185
93 186
93 191
93 195
93 196
93 199
93 200
93 201
93 202
93 204
93 205
93 208
93 209
93 212
93 216
93 219
93 220
93 225
93 226
93 230
93 231
93 236
93 240
93 241
93 244
93 247
93 252
93 255
93 259
93 262
93 267
94 95
94 96
94 97
94 98
94 100
94 101
94 102
94 103
94 104
94 106
94 107
94 108
94 111
94 113
94 114
94 115
94 116
94 118
94 119
94 120
94 121
94 123
94 124
94 125
94 127
94 128
94 129
94 130
94 133
94 135
94 136
94 137
94 138
94 144
94 145
94 146
94 147
94 155
94 156
94 157
94 158
94 159
94 161
94 171
94 172
94 178
94 179
94 182
94 183
94 185
94 186
94 191
94 195
94 196
94 199
94 200
94 201
94 202
94 204
94 205
94 208
94 209
94 212
94 216
94 219
94 220
94 225
94 226
94 230
94 231
94 236
94 240
94 241
94 244
94 247
94 252
94 255
94 259
94 262
94 267
95 96
95 97
95 98
95 99
95 101
95 102
95 103
95 104
95 105
95 107
95 108
95 111
95 112
95 114
95 115
95 116
95 117
95 119
95 120
95 121
95 122
95 124
95 125
95 126
95 128
95 129
95 130
95 133
95 134
95 136
95 137
95 138
95 143
95 145
95 146
95 147
95 154
95 156
95 157
95 159
95 160
95 161
95 172
95 173
95 174
95 179
95 180
95 181
95 183
95 184
95 186
95 187
95 188
95 189
95 191
95 196
95 197
95 198
95 200
95 202
95 203
95 205
95 206
95 207
95 209
95 210
95 211
95 212
95 216
95 220
95 221
95 222
95 223
95 224
95 226
95 227
95 228
95 229
95 231
95 232
95 233
95 234
95 235
95 237
95 238
95 239
95 241
95 242
95 243
95 245
95 246
95 248
95 249
95 250
95 251
95 253
95 254
95 256
95 257
95 258
95 260
95 261
95 263
95 266
96 97
96 98
96 99
96 100
96 102
96 103
96 104
96 105
96 106
96 108
96 111
96 112
96 113
96 115
96 116
96 117
96 118
96 120
96 121
96 122
96 123
96 125
96 126
96 127
96 129
96 131
96 132
96 133
96 134
96 135
96 137
96 138
96 143
96 144
96 146
96 147
96 154
96 155
96 157
96 158
96 160
96 162
96 163
96 164
96 171
96 173
96 174
96 178
96 180
96 181
96 182
96 184
96 185
96 187
96 188
96 189
96 190
96 192
96 193
96 194
96 195
96 197
96 198
96 199
96 201
96 203
96 204
96 206
96 207
96 208
96 210
96 211
96 213
96 214
96 215
96 217
96 218
96 219
96 221
96 222
96 223
96 224
96 225
96 227
96 228
96 229
96 230
96 232
96 233
96 234
96 236
96 239
96 240
96 242
96 243
96 244
96 247
96 252
96 255
96 259
96 262
96 267
97 98
97 99
97 100
97 101
97 103
97 104
97 105
97 106
97 107
97 111
97 112
97 113
97 114
97 116
97 117
97 118
97 119
97 121
97 122
97 123
97 124
97 125
97 126
97 127
97 128
97 130
97 133
97 134
97 135
97 136
97 143
97 144
97 145
97 154
97 155
97 156
97 158
97 159
97 161
97 171
97 172
97 178
97 179
97 182
97 183
97 185
97 186
97 191
97 195
97 196
97 199
97 200
97 201
97 202
97 204
97 205
97 208
97 209
97 212
97 216
97 219
97 220
97 225
97 226
97 230
97 231
97 236
97 240
97 241
97 244
97 247
97 252
97 255
97 259
97 262
97 267
98 99
98 100
98 101
98 102
98 103
98 105
98 106
98 107
98 108
98 109
98 112
98 113
98 114
98 115
98 116
98 117
98 118
98 119
98 120
98 122
98 123
98 124
98 126
98 127
98 128
98 129
98 130
98 131
98 134
98 135
98 136
98 137
98 138
98 141
98 143
98 144
98 145
98 147
98 149
98 154
98 155
98 156
98 158
98 159
98 160
98 161
98 163
98 169
98 171
98 172
98 174
98 178
98 179
98 180
98 182
98 183
98 185
98 186
98 188
98 191
98 193
98 195
98 196
98 198
98 199
98 200
98 201
98 202
98 204
98 205
98 208
98 209
98 212
98 216
98 219
98 220
98 225
98 226
98 230
98 231
98 236
98 240
98 241
98 244
98 247
98 252
98 255
98 259
98 262
98 267
99 100
99 101
99 102
99 103
99 104
99 106
99 107
99 108
99 109
99 111
99 113
99 114
99 115
99 116
99 118
99 119
99 120
99 121
99 123
99 124
99 125
99 127
99 128
99 129
99 130
99 131
99 133
99 135
99 136
99 137
99 138
99 141
99 144
99 145
99 146
99 147
99 149
99 155
99 156
99 157
99 158
99 159
99 160
99 161
99 163
99 169
99 171
99 172
99 174
99 178
99 179
99 180
99 182
99 183
99 185
99 186
99 188
99 191
99 193
99 195
99 196
99 198
99 199
99 200
99 201
99 202
99 204
99 205
99 208
99 209
99 212
99 216
99 219
99 220
99 225
99 226
99 230
99 231
99 236
99 240
99 241
99 244
99 247
99 252
99 255
99 259
99 262
99 267
100 101
100 102
100 103
100 104
100 105
100 107
100 108
100 109
100 111
100 112
100 114
100 115
100 116
100 117
100 119
100 120
100 121
100 122
100 124
100 125
100 126
100 128
100 129
100 130
100 131
100 133
100 134
100 136
100 137
100 138
100 141
100 143
100 145
100 146
100 147
100 149
100 154
100 156
100 157
100 159
100 160
100 161
100 163
100 169
100 172
100 173
100 174
100 179
100 180
100 181
100 183
100 184
100 186
100 187
100 188
100 189
100 191
100 193
100 196
100 197
100 198
100 200
100 202
100 203
100 205
100 206
100 207
100 209
100 210
100 211
100 212
100 216
100 220
100 221
100 222
100 223
100 224
100 226
100 227
100 228
100 229
100 231
100 232
100 233
100 234
100 235
100 237
100 238
100 239
100 241
100 242
100 243
100 245
100 246
100 248
100 249
100 250
100 251
100 253
100 254
100 256
100 257
100 258
100 260
100 261
100 263
100 266
101 102
101 103
101 104
101 105
101 106
101 108
101 109
101 111
101 112
101 113
101 115
101 116
101 117
101 118
101 120
101 121
101 122
101 123
101 125
101 126
101 127
101 129
101 131
101 132
101 133
101 134
101 135
101 137
101 138
101 141
101 143
101 144
101 146
101 147
101 149
101 154
101 155
101 157
101 158
101 160
101 162
101 163
101 164
101 169
101 171
101 173
101 174
101 178
101 180
101 181
101 182
101 184
101 185
101 187
101 188
101 189
101 190
101 192
101 193
101 194
101 195
101 197
101 198
101 199
101 201
101 203
101 204
101 206
101 207
101 208
101 210
101 211
101 213
101 214
101 215
101 217
101 218
101 219
101 221
101 222
101 223
101 224
101 225
101 227
101 228
101 229
101 230
101 232
101 233
101 234
101 236
101 239
101 240
101 242
101 243
101 244
101 247
101 252
101 255
101 259
101 262
101 267
102 103
102 104
102 105
102 106
102 107
102 108
102 109
102 111
102 112
102 113
102 114
102 116
102 117
102 118
102 119
102 120
102 121
102 122
102 123
102 124
102 125
102 126
102 127
102 128
102 130
102 131
102 133
102 134
102 135
102 136
102 138
102 141
102 143
102 144
102 145
102 147
102 149
102 154
102 155
102 156
102 158
102 159
102 160
102 161
102 163
102 169
102 171
102 172
102 174
102 178
102 179
102 180
102 182
102 183
102 185
102 186
102 188
102 191
102 193
102 195
102 196
102 198
102 199
102 200
102 201
102 202
102 204
102 205
102 208
102 209
102 212
102 216
102 219
102 220
102 225
102 226
102 230
102 231
102 236
102 240
102 241
102 244
102 247
102 252
102 255
102 259
102 262
102 267
103 104
103 105
103 106
103 107
103 110
103 111
103 112
103 113
103 114
103 115
103 117
103 118
103 119
103 121
103 122
103 123
103 124
103 125
103 126
103 127
103 128
103 130
103 132
103 133
103 134
103 135
103 136
103 137
103 139
103 140
103 142
103 143
103 144
103 145
103 146
103 148
103 150
103 154
103 155
103 156
103 158
103 159
103 161
103 162
103 164
103 167
103 168
103 170
103 171
103 172
103 173
103 178
103 179
103 181
103 182
103 183
103 185
103 186
103 187
103 189
103 190
103 191
103 192
103 194
103 195
103 196
103 197
103 199
103 200
103 201
103 202
103 204
103 205
103 208
103 209
103 212
103 216
103 219
103 220
103 225
103 226
103 230
103 231
103 236
103 240
103 241
103 244
103 247
103 252
103 255
103 259
103 262
103 267
104 105
104 106
104 107
104 108
104 109
104 112
104 113
104 114
104 115
104 116
104 117
104 118
104 119
104 120
104 122
104 123
104 124
104 126
104 127
104 128
104 129
104 130
104 131
104 134
104 135
104 136
104 137
104 138
104 141
104 143
104 144
104 145
104 147
104 149
104 154
104 155
104 156
104 158
104 159
104 160
104 161
104 163
104 169
104 171
104 172
104 174
104 178
104 179
104 180
104 182
104 183
104 185
104 186
104 188
104 191
104 193
104 195
104 196
104 198
104 199
104 200
104 201
104 202
104 204
104 205
104 208
104 209
104 212
104 216
104 219
104 220
104 225
104 226
104 230
104 231
104 236
104 240
104 241
104 244
104 247
104 252
104 255
104 259
104 262
104 267
105 106
105 107
105 108
105 109
105 111
105 113
105 114
105 115
105 116
105 118
105 119
105 120
105 121
105 123
105 124
105 125
105 127
105 128
105 129
105 130
105 131
105 133
105 135
105 136
105 137
105 138
105 141
105 144
105 145
105 146
105 147
105 149
105 155
105 156
105 157
105 158
105 159
105 160
105 161
105 163
105 169
105 171
105 172
105 174
105 178
105 179
105 180
105 182
105 183
105 185
105 186
105 188
105 191
105 193
105 195
105 196
105 198
105 199
105 200
105 201
105 202
105 204
105 205
105 208
105 209
105 212
105 216
105 219
105 220
105 225
105 226
105 230
105 231
105 236
105 240
105 241
105 244
105 247
105 252
105 255
105 259
105 262
105 267
106 107
106 108
106 109
106 111
106 112
106 114
106 115
106 116
106 117
106 119
106 120
106 121
106 122
106 124
106 125
106 126
106 128
106 129
106 130
106 131
106 133
106 134
106 136
106 137
106 138
106 141
106 143
106 145
106 146
106 147
106 149
106 154
106 156
106 157
106 159
106 160
106 161
106 163
106 169
106 172
106 173
106 174
106 179
106 180
106 181
106 183
106 184
106 186
106 187
106 188
106 189
106 191
106 193
106 196
106 197
106 198
106 200
106 202
106 203
106 205
106 206
106 207
106 209
106 210
106 211
106 212
106 216
106 220
106 221
106 222
106 223
106 224
106 226
106 227
106 228
106 229
106 231
106 232
106 233
106 234
106 235
106 237
106 238
106 239
106 241
106 242
106 243
106 245
106 246
106 248
106 249
106 250
106 251
106 253
106 254
106 256
106 257
106 258
106 260
106 261
106 263
106 266
107 108
107 109
107 111
107 112
107 113
107 115
107 116
107 117
107 118
107 120
107 121
107 122
107 123
107 125
107 126
107 127
107 129
107 131
107 132
107 133
107 134
107 135
107 137
107 138
107 141
107 143
107 144
107 146
107 147
107 149
107 154
107 155
107 157
107 158
107 160
107 162
107 163
107 164
107 169
107 171
107 173
107 174
107 178
107 180
107 181
107 182
107 184
107 185
107 187
107 188
107 189
107 190
107 192
107 193
107 194
107 195
107 197
107 198
107 199
107 201
107 203
107 204
107 206
107 207
107 208
107 210
107 211
107 213
107 214
107 215
107 217
107 218
107 219
107 221
107 222
107 223
107 224
107 225
107 227
107 228
107 229
107 230
107 232
107 233
107 234
107 236
107 239
107 240
107 242
107 243
107 244
107 247
107 252
107 255
107 259
107 262
107 267
108 110
108 111
108 112
108 113
108 114
108 117
108 118
108 119
108 121
108 122
108 123
108 124
108 125
108 126
108 127
108 128
108 130
108 132
108 133
108 134
108 135
108 136
108 137
108 139
108 140
108 142
108 143
108 144
108 145
108 146
108 148
108 150
108 154
108 155
108 156
108 158
108 159
108 161
108 162
108 164
108 167
108 168
108 170
108 171
108 172
108 173
108 178
108 179
108 181
108 182
108 183
108 185
108 186
108 187
108 189
108 190
108 191
108 192
108 194
108 195
108 196
108 197
108 199
108 200
108 201
108 202
108 204
108 205
108 208
108 209
108 212
108 216
108 219
108 220
108 225
108 226
108 230
108 231
108 236
108 240
108 241
108 244
108 247
108 252
108 255
108 259
108 262
108 267
109 110
109 117
109 118
109 119
109 130
109 132
109 133
109 134
109 135
109 136
109 137
109 139
109 140
109 142
109 143
109 144
109 145
109 146
109 148
109 150
109 153
109 158
109 159
109 161
109 162
109 164
109 166
109 167
109 168
109 170
109 171
109 172
109 173
109 177
109 178
109 179
109 181
109 185
109 186
109 187
109 189
109 190
109 191
109 192
109 194
109 195
109 196
109 197
109 207
109 214
109 218
109 223
109 228
109 234
109 238
109 250
110 120
110 130
110 131
110 138
110 139
110 140
110 141
110 147
110 148
110 149
110 151
110 152
110 160
110 161
110 162
110 163
110 165
110 167
110 168
110 169
110 174
110 175
110 176
110 178
110 179
110 180
110 185
110 186
110 187
110 188
110 190
110 191
110 192
110 193
110 198
110 204
110 205
110 206
110 212
110 213
110 215
110 216
110 217
110 219
110 220
110 221
110 222
110 224
110 225
110 226
110 227
110 229
110 230
110 231
110 232
110 233
110 235
110 236
110 237
110 246
110 247
110 248
110 249
111 112
111 113
111 114
111 115
111 116
111 117
111 118
111 119
111 122
111 123
111 124
111 126
111 127
111 128
111 129
111 130
111 134
111 135
111 136
111 137
111 138
111 143
111 144
111 145
111 146
111 154
111 155
111 156
111 157
111 158
111 159
111 161
111 171
111 172
111 173
111 178
111 179
111 182
111 183
111 184
111 185
111 186
111 191
111 195
111 196
111 199
111 200
111 201
111 202
111 204
111 205
111 208
111 209
111 211
111 212
111 216
111 219
111 220
111 222
111 225
111 226
111 230
111 231
111 233
111 236
111 240
111 241
111 243
111 244
111 245
111 247
111 249
111 252
111 254
111 255
111 257
111 259
111 260
111 262
111 267
112 113
112 114
112 115
112 116
112 118
112 119
112 120
112 121
112 123
112 124
112 125
112 127
112 128
112 129
112 130
112 133
112 135
112 136
112 137
112 138
112 144
112 145
112 146
112 147
112 155
112 156
112 157
112 158
112 159
112 161
112 171
112 172
112 173
112 178
112 179
112 182
112 183
112 184
112 185
112 186
112 191
112 195
112 196
112 199
112 200
112 201
112 202
112 204
112 205
112 208
112 209
112 211
112 212
112 216
112 219
112 220
112 222
112 225
112 226
112 230
112 231
112 233
112 236
112 240
112 241
112 243
112 244
112 245
112 247
112 249
112 252
112 254
112 255
112 257
112 259
112 260
112 262
112 267
113 114
113 115
113 116
113 117
113 119
113 120
113 121
113 122
113 124
113 125
113 126
113 128
113 129
113 130
113 133
113 134
113 136
113 137
113 138
113 143
113 145
113 146
113 147
113 154
113 156
113 157
113 159
113 160
113 161
113 172
113 173
113 174
113 179
113 180
113 181
113 183
113 184
113 186
113 187
113 188
113 189
113 191
113 196
113 197
113 198
113 200
113 202
113 203
113 205
113 206
113 207
113 209
113 210
113 211
113 212
113 216
113 220
113 221
113 222
113 223
113 224
113 226
113 227
113 228
113 229
113 231
113 232
113 233
113 234
113 235
113 237
113 238
113 239
113 241
113 242
113 243
113 245
113 246
113 248
113 249
113 250
113 251
113 253
113 254
113 256
113 257
113 258
113 260
113 261
113 263
113 266
114 115
114 116
114 117
114 118
114 120
114 121
114 122
114 123
114 125
114 126
114 127
114 129
114 131
114 132
114 133
114 134
114 135
114 137
114 138
114 143
114 144
114 146
114 147
114 154
114 155
114 157
114 158
114 160
114 162
114 163
114 164
114 171
114 173
114 174
114 178
114 180
114 181
114 182
114 184
114 185
114 187
114 188
114 189
114 190
114 192
114 193
114 194
114 195
114 197
114 198
114 199
114 201
114 203
114 204
114 206
114 207
114 208
114 210
114 211
114 213
114 214
114 215
114 217
114 218
114 219
114 221
114 222
114 223
114 224
114 225
114 227
114 228
114 229
114 230
114 232
114 233
114 234
114 236
114 239
114 240
114 242
114 243
114 244
114 245
114 247
114 249
114 252
114 254
114 255
114 257
114 259
114 260
114 262
114 267
115 116
115 117
115 118
115 119
115 121
115 122
115 123
115 124
115 125
115 126
115 127
115 128
115 129
115 130
115 133
115 134
115 135
115 136
115 137
115 143
115 144
115 145
115 146
115 154
115 155
115 156
115 157
115 158
115 159
115 161
115 171
115 172
115 173
115 178
115 179
115 182
115 183
115 184
115 185
115 186
115 191
115 195
115 196
115 199
115 200
115 201
115 202
115 204
115 205
115 208
115 209
115 211
115 212
115 216
115 219
115 220
115 222
115 225
115 226
115 230
115 231
115 233
115 236
115 240
115 241
115 243
115 244
115 245
115 247
115 249
115 252
115 254
115 255
115 257
115 259
115 260
115 262
115 267
116 117
116 118
116 119
116 121
116 122
116 123
116 124
116 125
116 126
116 127
116 128
116 130
116 133
116 134
116 135
116 136
116 138
116 143
116 144
116 145
116 147
116 154
116 155
116 156
116 158
116 159
116 161
116 171
116 172
116 174
116 178
116 179
116 182
116 183
116 185
116 186
116 191
116 195
116 196
116 199
116 200
116 201
116 202
116 204
116 205
116 208
116 209
116 210
116 212
116 216
116 219
116 220
116 221
116 223
116 225
116 226
116 229
116 230
116 231
116 232
116 234
116 236
116 239
116 240
116 241
116 242
116 244
116 246
116 247
116 248
116 250
116 251
116 252
116 253
116 255
116 256
116 258
116 259
116 262
116 267
117 118
117 119
117 120
117 121
117 123
117 124
117 125
117 127
117 128
117 129
117 130
117 131
117 133
117 135
117 136
117 137
117 138
117 141
117 144
117 145
117 146
117 147
117 149
117 155
117 156
117 157
117 158
117 159
117 160
117 161
117 163
117 169
117 171
117 172
117 174
117 178
117 179
117 180
117 182
117 183
117 185
117 186
117 188
117 191
117 193
117 195
117 196
117 198
117 199
117 200
117 201
117 202
117 204
117 205
117 208
117 209
117 212
117 216
117 219
117 220
117 225
117 226
117 230
117 231
117 236
117 240
117 241
117 244
117 247
117 252
117 255
117 259
117 262
117 267
118 119
118 120
118 121
118 122
118 124
118 125
118 126
118 128
118 129
118 130
118 131
118 133
118 134
118 136
118 137
118 138
118 141
118 143
118 145
118 146
118 147
118 149
118 154
118 156
118 157
118 159
118 160
118 161
118 163
118 169
118 172
118 173
118 174
118 179
118 180
118 181
118 183
118 184
118 186
118 187
118 188
118 189
118 191
118 193
118 196
118 197
118 198
118 200
118 202
118 203
118 205
118 206
118 207
118 209
118 210
118 211
118 212
118 216
118 220
118 221
118 222
118 223
118 224
118 226
118 227
118 228
118 229
118 231
118 232
118 233
118 234
118 235
118 237
118 238
118 239
118 241
118 242
118 243
118 245
118 246
118 248
118 249
118 250
118 251
118 253
118 254
118 256
118 257
118 258
118 260
118 261
118 263
118 266
119 120
119 121
119 122
119 123
119 125
119 126
119 127
119 129
119 131
119 132
119 133
119 134
119 135
119 137
119 138
119 141
119 143
119 144
119 146
119 147
119 149
119 154
119 155
119 157
119 158
119 160
119 162
119 163
119 164
119 169
119 171
119 173
119 174
119 178
119 180
119 181
119 182
119 184
119 185
119 187
119 188
119 189
119 190
119 192
119 193
119 194
119 195
119 197
119 198
119 199
119 201
119 203
119 204
119 206
119 207
119 208
119 210
119 211
119 213
119 214
119 215
119 217
119 218
119 219
119 221
119 222
119 223
119 224
119 225
119 227
119 228
119 229
119 230
119 232
119 233
119 234
119 236
119 239
119 240
119 242
119 243
119 244
119 247
119 252
119 255
119 259
119 262
119 267
120 122
120 123
120 124
120 126
120 127
120 128
120 130
120 132
120 133
120 134
120 135
120 136
120 137
120 139
120 140
120 142
120 143
120 144
120 145
120 146
120 148
120 150
120 154
120 155
120 156
120 158
120 159
120 161
120 162
120 164
120 167
120 168
120 170
120 171
120 172
120 173
120 178
120 179
120 181
120 182
120 183
120 185
120 186
120 187
120 189
120 190
120 191
120 192
120 194
120 195
120 196
120 197
120 199
120 200
120 201
120 202
120 204
120 205
120 208
120 209
120 212
120 216
120 219
120 220
120 225
120 226
120 230
120 231
120 236
120 240
120 241
120 244
120 247
120 252
120 255
120 259
120 262
120 267
121 122
121 123
121 124
121 126
121 127
121 128
121 129
121 130
121 134
121 135
121 136
121 137
121 138
121 143
121 144
121 145
121 154
121 155
121 156
121 158
121 159
121 161
121 171
121 172
121 178
121 179
121 182
121 183
121 185
121 186
121 191
121 195
121 196
121 199
121 200
121 201
121 202
121 204
121 205
121 208
121 209
121 212
121 216
121 219
121 220
121 225
121 226
121 230
121 231
121 236
121 240
121 241
121 244
121 247
121 252
121 255
121 259
121 262
121 267
122 123
122 124
122 125
122 127
122 128
122 129
122 130
122 133
122 135
122 136
122 137
122 138
122 144
122 145
122 146
122 147
122 155
122 156
122 157
122 158
122 159
122 161
122 171
122 172
122 178
122 179
122 182
122 183
122 185
122 186
122 191
122 195
122 196
122 199
122 200
122 201
122 202
122 204
122 205
122 208
122 209
122 212
122 216
122 219
122 220
122 225
122 226
122 230
122 231
122 236
122 240
122 241
122 244
122 247
122 252
122 255
122 259
122 262
122 267
123 124
123 125
123 126
123 128
123 129
123 130
123 133
123 134
123 136
123 137
123 138
123 143
123 145
123 146
123 147
123 154
123 156
123 157
123 159
123 160
123 161
123 172
123 173
123 174
123 179
123 180
123 181
123 183
123 184
123 186
123 187
123 188
123 189
123 191
123 196
123 197
123 198
123 200
123 202
123 203
123 205
123 206
123 207
123 209
123 210
123 211
123 212
123 216
123 220
123 221
123 222
123 223
123 224
123 226
123 227
123 228
123 229
123 231
123 232
123 233
123 234
123 235
123 237
123 238
123 239
123 241
123 242
123 243
123 245
123 246
123 248
123 249
123 250
123 251
123 253
123 254
123 256
123 257
123 258
123 260
123 261
123 263
123 266
124 125
124 126
124 127
124 129
124 131
124 132
124 133
124 134
124 135
124 137
124 138
124 143
124 144
124 146
124 147
124 154
124 155
124 157
124 158
124 160
124 162
124 163
124 164
124 171
124 173
124 174
124 178
124 180
124 181
124 182
124 184
124 185
124 187
124 188
124 189
124 190
124 192
124 193
124 194
124 195
124 197
124 198
124 199
124 201
124 203
124 204
124 206
124 207
124 208
124 210
124 211
124 213
124 214
124 215
124 217
124 218
124 219
124 221
124 222
124 223
124 224
124 225
124 227
124 228
124 229
124 230
124 232
124 233
124 234
124 236
124 239
124 240
124 242
124 243
124 244
124 247
124 252
124 255
124 259
124 262
124 267
125 126
125 127
125 128
125 129
125 130
125 134
125 135
125 136
125 137
125 138
125 143
125 144
125 145
125 146
125 154
125 155
125 156
125 157
125 158
125 159
125 161
125 171
125 172
125 173
125 178
125 179
125 182
125 183
125 184
125 185
125 186
125 191
125 195
125 196
125 199
125 200
125 201
125 202
125 204
125 205
125 208
125 209
125 211
125 212
125 216
125 219
125 220
125 222
125 225
125 226
125 230
125 231
125 233
125 236
125 240
125 241
125 243
125 244
125 245
125 247
125 249
125 252
125 254
125 255
125 257
125 259
125 260
125 262
125 267
126 127
126 128
126 129
126 130
126 133
126 135
126 136
126 137
126 138
126 144
126 145
126 146
126 147
126 155
126 156
126 157
126 158
126 159
126 161
126 171
126 172
126 173
126 178
126 179
126 182
126 183
126 184
126 185
126 186
126 191
126 195
126 196
126 199
126 200
126 201
126 202
126 204
126 205
126 208
126 209
126 211
126 212
126 216
126 219
126 220
126 222
126 225
126 226
126 230
126 231
126 233
126 236
126 240
126 241
126 243
126 244
126 245
126 247
126 249
126 252
126 254
126 255
126 257
126 259
126 260
126 262
126 267
127 128
127 129
127 130
127 133
127 134
127 136
127 137
127 138
127 143
127 145
127 146
127 147
127 154
127 156
127 157
127 159
127 160
127 161
127 172
127 173
127 174
127 179
127 180
127 181
127 183
127 184
127 186
127 187
127 188
127 189
127 191
127 196
127 197
127 198
127 200
127 202
127 203
127 205
127 206
127 207
127 209
127 210
127 211
127 212
127 216
127 220
127 221
127 222
127 223
127 224
127 226
127 227
127 228
127 229
127 231
127 232
127 233
127 234
127 235
127 237
127 238
127 239
127 241
127 242
127 243
127 245
127 246
127 248
127 249
127 250
127 251
127 253
127 254
127 256
127 257
127 258
127 260
127 261
127 263
127 266
128 129
128 131
128 132
128 133
128 134
128 135
128 137
128 138
128 143
128 144
128 146
128 147
128 154
128 155
128 157
128 158
128 160
128 162
128 163
128 164
128 171
128 173
128 174
128 178
128 180
128 181
128 182
128 184
128 185
128 187
128 188
128 189
128 190
128 192
128 193
128 194
128 195
128 197
128 198
128 199
128 201
128 203
128 204
128 206
128 207
128 208
128 210
128 211
128 213
128 214
128 215
128 217
128 218
128 219
128 221
128 222
128 223
128 224
128 225
128 227
128 228
128 229
128 230
128 232
128 233
128 234
128 236
128 239
128 240
128 242
128 243
128 244
128 245
128 247
128 249
128 252
128 254
128 255
128 257
128 259
128 260
128 262
128 267
129 130
129 133
129 134
129 135
129 136
129 138
129 143
129 144
129 145
129 147
129 154
129 155
129 156
129 158
129 159
129 161
129 171
129 172
129 174
129 178
129 179
129 182
129 183
129 185
129 186
129 191
129 195
129 196
129 199
129 200
129 201
129 202
129 204
129 205
129 208
129 209
129 210
129 212
129 216
129 219
129 220
129 221
129 223
129 225
129 226
129 229
129 230
129 231
129 232
129 234
129 236
129 239
129 240
129 241
129 242
129 244
129 246
129 247
129 248
129 250
129 251
129 252
129 253
129 255
129 256
129 258
129 259
129 262
129 267
130 131
130 132
130 133
130 134
130 135
130 137
130 138
130 141
130 142
130 143
130 144
130 146
130 147
130 149
130 150
130 153
130 154
130 155
130 157
130 158
130 160
130 162
130 163
130 164
130 166
130 169
130 170
130 171
130 173
130 174
130 177
130 178
130 180
130 181
130 182
130 184
130 185
130 187
130 188
130 189
130 190
130 192
130 193
130 194
130 195
130 197
130 198
130 199
130 201
130 203
130 204
130 206
130 207
130 208
130 210
130 211
130 213
130 214
130 215
130 217
130 218
130 219
130 221
130 222
130 223
130 224
130 225
130 227
130 228
130 229
130 230
130 232
130 233
130 234
130 238
130 239
130 240
130 242
130 243
130 250
131 132
131 133
131 134
131 135
131 136
131 137
131 139
131 140
131 142
131 143
131 144
131 145
131 146
131 148
131 150
131 153
131 156
131 158
131 159
131 161
131 162
131 164
131 166
131 167
131 168
131 170
131 171
131 172
131 173
131 177
131 178
131 179
131 181
131 183
131 185
131 186
131 187
131 189
131 190
131 191
131 192
131 194
131 195
131 196
131 197
131 200
131 202
131 205
131 207
131 209
131 212
131 214
131 216
131 218
131 220
131 223
131 226
131 228
131 231
131 234
131 238
131 241
131 250
132 136
132 138
132 139
132 140
132 141
132 145
132 147
132 148
132 149
132 151
132 152
132 156
132 159
132 160
132 161
132 162
132 163
132 165
132 167
132 168
132 169
132 172
132 174
132 175
132 176
132 178
132 179
132 180
132 183
132 185
132 186
132 187
132 188
132 190
132 191
132 192
132 193
132 196
132 198
132 200
132 202
132 204
132 205
132 206
132 209
132 212
132 213
132 215
132 216
132 217
132 219
132 220
132 221
132 222
132 224
132 225
132 226
132 227
132 229
132 230
132 231
132 232
132 233
132 235
132 236
132 237
132 241
132 246
132 247
132 248
132 249
133 134
133 135
133 136
133 137
133 138
133 141
133 143
133 144
133 145
133 146
133 147
133 149
133 154
133 155
133 156
133 157
133 158
133 159
133 160
133 161
133 163
133 169
133 171
133 172
133 173
133 174
133 178
133 179
133 180
133 182
133 183
133 184
133 185
133 186
133 188
133 191
133 193
133 195
133 196
133 198
133 199
133 200
133 201
133 202
133 204
133 205
133 208
133 209
133 211
133 212
133 216
133 219
133 220
133 222
133 225
133 226
133 230
133 231
133 233
133 236
133 240
133 241
133 243
133 244
133 245
133 247
133 249
133 252
133 254
133 255
133 257
133 259
133 260
133 262
133 267
134 135
134 136
134 137
134 138
134 141
134 144
134 145
134 146
134 147
134 149
134 155
134 156
134 157
134 158
134 159
134 160
134 161
134 163
134 169
134 171
134 172
134 173
134 174
134 178
134 179
134 180
134 182
134 183
134 184
134 185
134 186
134 188
134 191
134 193
134 195
134 196
134 198
134 199
134 200
134 201
134 202
134 204
134 205
134 208
134 209
134 211
134 212
134 216
134 219
134 220
134 222
134 225
134 226
134 230
134 231
134 233
134 236
134 240
134 241
134 243
134 244
134 245
134 247
134 249
134 252
134 254
134 255
134 257
134 259
134 260
134 262
134 267
135 136
135 137
135 138
135 141
135 143
135 145
135 146
135 147
135 149
135 154
135 156
135 157
135 159
135 160
135 161
135 163
135 169
135 172
135 173
135 174
135 179
135 180
135 181
135 183
135 184
135 186
135 187
135 188
135 189
135 191
135 193
135 196
135 197
135 198
135 200
135 202
135 203
135 205
135 206
135 207
135 209
135 210
135 211
135 212
135 216
135 220
135 221
135 222
135 223
135 224
135 226
135 227
135 228
135 229
135 231
135 232
135 233
135 234
135 235
135 237
135 238
135 239
135 241
135 242
135 243
135 245
135 246
135 248
135 249
135 250
135 251
135 253
135 254
135 256
135 257
135 258
135 260
135 261
135 263
135 266
136 137
136 138
136 141
136 143
136 144
136 146
136 147
136 149
136 154
136 155
136 157
136 158
136 160
136 162
136 163
136 164
136 169
136 171
136 173
136 174
136 178
136 180
136 181
136 182
136 184
136 185
136 187
136 188
136 189
136 190
136 192
136 193
136 194
136 195
136 197
136 198
136 199
136 201
136 203
136 204
136 206
136 207
136 208
136 210
136 211
136 213
136 214
136 215
136 217
136 218
136 219
136 221
136 222
136 223
136 224
136 225
136 227
136 228
136 229
136 230
136 232
136 233
136 234
136 236
136 239
136 240
136 242
136 243
136 244
136 245
136 247
136 249
136 252
136 254
136 255
136 257
136 259
136 260
136 262
136 267
137 138
137 141
137 143
137 144
137 145
137 147
137 149
137 154
137 155
137 156
137 158
137 159
137 160
137 161
137 163
137 169
137 171
137 172
137 174
137 178
137 179
137 180
137 182
137 183
137 185
137 186
137 188
137 191
137 193
137 195
137 196
137 198
137 199
137 200
137 201
137 202
137 204
137 205
137 208
137 209
137 210
137 212
137 216
137 219
137 220
137 221
137 223
137 225
137 226
137 229
137 230
137 231
137 232
137 234
137 236
137 239
137 240
137 241
137 242
137 244
137 246
137 247
137 248
137 250
137 251
137 252
137 253
137 255
137 256
137 258
137 259
137 262
137 267
138 139
138 140
138 142
138 143
138 144
138 145
138 146
138 148
138 150
138 154
138 155
138 156
138 157
138 158
138 159
138 161
138 162
138 164
138 167
138 168
138 170
138 171
138 172
138 173
138 178
138 179
138 181
138 182
138 183
138 184
138 185
138 186
138 187
138 189
138 190
138 191
138 192
138 194
138 195
138 196
138 197
138 199
138 200
138 201
138 202
138 204
138 205
138 208
138 209
138 211
138 212
138 216
138 219
138 220
138 222
138 225
138 226
138 230
138 231
138 233
138 236
138 240
138 241
138 243
138 244
138 245
138 247
138 249
138 252
138 254
138 255
138 257
138 259
138 260
138 262
138 267
139 140
139 141
139 142
139 147
139 148
139 149
139 150
139 152
139 153
139 160
139 162
139 163
139 164
139 165
139 166
139 168
139 169
139 170
139 174
139 176
139 177
139 180
139 181
139 187
139 188
139 189
139 192
139 193
139 194
139 197
139 198
139 203
139 206
139 207
139 210
139 213
139 214
139 217
139 218
139 221
139 223
139 227
139 228
139 232
139 234
139 237
139 238
139 242
139 248
139 250
139 253
139 256
139 263
139 265
140 141
140 142
140 147
140 149
140 150
140 151
140 153
140 160
140 161
140 163
140 164
140 166
140 167
140 169
140 170
140 174
140 175
140 177
140 180
140 181
140 185
140 186
140 188
140 189
140 190
140 191
140 193
140 194
140 195
140 196
140 198
140 201
140 202
140 204
140 205
140 207
140 208
140 209
140 211
140 212
140 214
140 215
140 216
140 218
140 219
140 220
140 222
140 223
140 224
140 225
140 226
140 228
140 229
140 230
140 231
140 233
140 234
140 235
140 236
140 238
140 239
140 240
140 241
140 243
140 246
140 247
140 249
140 250
140 251
140 252
140 254
140 255
140 257
140 261
140 262
140 264
141 142
141 143
141 144
141 145
141 146
141 148
141 150
141 151
141 152
141 153
141 158
141 159
141 161
141 162
141 164
141 165
141 166
141 167
141 168
141 170
141 171
141 172
141 173
141 176
141 177
141 178
141 179
141 181
141 185
141 186
141 187
141 189
141 190
141 191
141 192
141 194
141 195
141 196
141 197
141 203
141 206
141 207
141 210
141 213
141 214
141 217
141 218
141 221
141 223
141 227
141 228
141 232
141 234
141 237
141 238
141 242
141 248
141 250
141 253
141 256
141 263
141 265
142 147
142 148
142 149
142 151
142 152
142 160
142 161
142 162
142 163
142 165
142 167
142 168
142 169
142 174
142 175
142 176
142 178
142 179
142 180
142 185
142 186
142 187
142 188
142 190
142 191
142 192
142 193
142 197
142 198
142 203
142 204
142 205
142 206
142 210
142 212
142 213
142 215
142 216
142 217
142 219
142 220
142 221
142 222
142 224
142 225
142 226
142 227
142 229
142 230
142 231
142 232
142 233
142 235
142 236
142 237
142 242
142 246
142 247
142 248
142 249
142 253
142 256
142 263
142 265
143 144
143 145
143 146
143 147
143 149
143 155
143 156
143 157
143 158
143 159
143 160
143 161
143 163
143 169
143 171
143 172
143 173
143 174
143 178
143 179
143 180
143 182
143 183
143 184
143 185
143 186
143 188
143 191
143 193
143 195
143 196
143 198
143 199
143 200
143 201
143 202
143 204
143 205
143 208
143 209
143 211
143 212
143 216
143 219
143 220
143 222
143 225
143 226
143 230
143 231
143 233
143 236
143 240
143 241
143 243
143 244
143 245
143 247
143 249
143 252
143 254
143 255
143 257
143 259
143 260
143 262
143 267
144 145
144 146
144 147
144 149
144 154
144 156
144 157
144 159
144 160
144 161
144 163
144 169
144 172
144 173
144 174
144 179
144 180
144 181
144 183
144 184
144 186
144 187
144 188
144 189
144 191
144 193
144 196
144 197
144 198
144 200
144 202
144 203
144 205
144 206
144 207
144 209
144 210
144 211
144 212
144 216
144 220
144 221
144 222
144 223
144 224
144 226
144 227
144 228
144 229
144 231
144 232
144 233
144 234
144 235
144 237
144 238
144 239
144 241
144 242
144 243
144 245
144 246
144 248
144 249
144 250
144 251
144 253
144 254
144 256
144 257
144 258
144 260
144 261
144 263
144 266
145 146
145 147
145 149
145 154
145 155
145 157
145 158
145 160
145 162
145 163
145 164
145 169
145 171
145 173
145 174
145 178
145 180
145 181
145 182
145 184
145 185
145 187
145 188
145 189
145 190
145 192
145 193
145 194
145 195
145 197
145 198
145 199
145 201
145 203
145 204
145 206
145 207
145 208
145 210
145 211
145 213
145 214
145 215
145 217
145 218
145 219
145 221
145 222
145 223
145 224
145 225
145 227
145 228
145 229
145 230
145 232
145 233
145 234
145 236
145 239
145 240
145 242
145 243
145 244
145 245
145 247
145 249
145 252
145 254
145 255
145 257
145 259
145 260
145 262
145 267
146 147
146 149
146 154
146 155
146 156
146 158
146 159
146 160
146 161
146 163
146 169
146 171
146 172
146 174
146 178
146 179
146 180
146 182
146 183
146 185
146 186
146 188
146 191
146 193
146 195
146 196
146 198
146 199
146 200
146 201
146 202
146 204
146 205
146 208
146 209
146 210
146 212
146 216
146 219
146 220
146 221
146 223
146 225
146 226
146 229
146 230
146 231
146 232
146 234
146 236
146 239
146 240
146 241
146 242
146 244
146 246
146 247
146 248
146 250
146 251
146 252
146 253
146 255
146 256
146 258
146 259
146 262
146 267
147 148
147 150
147 154
147 155
147 156
147 157
147 158
147 159
147 161
147 162
147 164
147 167
147 168
147 170
147 171
147 172
147 173
147 178
147 179
147 181
147 182
147 183
147 184
147 185
147 186
147 187
147 189
147 190
147 191
147 192
147 194
147 195
147 196
147 197
147 199
147 200
147 201
147 202
147 204
147 205
147 208
147 209
147 211
147 212
147 216
147 219
147 220
147 222
147 225
147 226
147 230
147 231
147 233
147 236
147 240
147 241
147 243
147 244
147 245
147 247
147 249
147 252
147 254
147 255
147 257
147 259
147 260
147 262
147 267
148 149
148 150
148 151
148 153
148 160
148 161
148 163
148 164
148 166
148 167
148 169
148 170
148 174
148 175
148 177
148 180
148 181
148 185
148 186
148 188
148 189
148 190
148 191
148 193
148 194
148 195
148 196
148 198
148 201
148 202
148 204
148 205
148 207
148 208
148 209
148 211
148 212
148 214
148 215
148 216
148 218
148 219
148 220
148 222
148 223
148 224
148 225
148 226
148 228
148 229
148 230
148 231
148 233
148 234
148 235
148 236
148 238
148 239
148 240
148 241
148 243
148 246
148 247
148 249
148 250
148 251
148 252
148 254
148 255
148 257
148 261
148 262
148 264
149 150
149 152
149 153
149 158
149 159
149 161
149 162
149 164
149 165
149 166
149 167
149 168
149 170
149 171
149 172
149 173
149 176
149 177
149 178
149 179
149 181
149 185
149 186
149 187
149 189
149 190
149 191
149 192
149 194
149 195
149 196
149 197
149 203
149 206
149 207
149 210
149 213
149 214
149 217
149 218
149 221
149 223
149 227
149 228
149 232
149 234
149 237
149 238
149 242
149 248
149 250
149 253
149 256
149 263
149 265
150 151
150 152
150 160
150 161
150 162
150 163
150 165
150 167
150 168
150 169
150 174
150 175
150 176
150 178
150 179
150 180
150 185
150 186
150 187
150 188
150 190
150 191
150 192
150 193
150 197
150 198
150 203
150 204
150 205
150 206
150 210
150 212
150 213
150 215
150 216
150 217
150 219
150 220
150 221
150 222
150 224
150 225
150 226
150 227
150 229
150 230
150 231
150 232
150 233
150 235
150 236
150 237
150 242
150 246
150 247
150 248
150 249
150 253
150 256
150 263
150 265
151 152
151 153
151 162
151 164
151 165
151 166
151 168
151 170
151 176
151 177
151 181
151 187
151 189
151 192
151 194
151 197
151 203
151 206
151 207
151 210
151 213
151 214
151 217
151 218
151 221
151 223
151 227
151 228
151 232
151 234
151 237
151 238
151 242
151 248
151 250
151 253
151 256
151 263
151 265
152 153
152 161
152 163
152 164
152 166
152 167
152 169
152 170
152 175
152 177
152 181
152 185
152 186
152 188
152 189
152 190
152 191
152 193
152 194
152 195
152 196
152 198
152 201
152 202
152 204
152 205
152 207
152 208
152 209
152 211
152 212
152 214
152 215
152 216
152 218
152 219
152 220
152 222
152 223
152 224
152 225
152 226
152 228
152 229
152 230
152 231
152 233
152 234
152 235
152 236
152 238
152 239
152 240
152 241
152 243
152 246
152 247
152 249
152 250
152 251
152 252
152 254
152 255
152 257
152 261
152 262
152 264
153 161
153 162
153 163
153 165
153 167
153 168
153 169
153 175
153 176
153 178
153 179
153 180
153 185
153 186
153 187
153 188
153 190
153 191
153 192
153 193
153 197
153 203
153 204
153 205
153 206
153 210
153 212
153 213
153 215
153 216
153 217
153 219
153 220
153 221
153 222
153 224
153 225
153 226
153 227
153 229
153 230
153 231
153 232
153 233
153 235
153 236
153 237
153 242
153 246
153 247
153 248
153 249
153 253
153 256
153 263
153 265
154 155
154 156
154 157
154 158
154 159
154 161
154 171
154 172
154 173
154 178
154 179
154 182
154 183
154 184
154 185
154 186
154 191
154 195
154 196
154 199
154 200
154 201
154 202
154 204
154 205
154 208
154 209
154 211
154 212
154 216
154 219
154 220
154 222
154 225
154 226
154 230
154 231
154 233
154 236
154 240
154 241
154 243
154 244
154 245
154 247
154 249
154 252
154 254
154 255
154 257
154 259
154 260
154 262
154 267
155 156
155 157
155 159
155 160
155 161
155 172
155 173
155 174
155 179
155 180
155 181
155 183
155 184
155 186
155 187
155 188
155 189
155 191
155 196
155 197
155 198
155 200
155 202
155 203
155 205
155 206
155 207
155 209
155 210
155 211
155 212
155 216
155 220
155 221
155 222
155 223
155 224
155 226
155 227
155 228
155 229
155 231
155 232
155 233
155 234
155 235
155 237
155 238
155 239
155 241
155 242
155 243
155 245
155 246
155 248
155 249
155 250
155 251
155 253
155 254
155 256
155 257
155 258
155 260
155 261
155 263
155 266
156 157
156 158
156 160
156 162
156 163
156 164
156 171
156 173
156 174
156 178
156 180
156 181
156 182
156 184
156 185
156 187
156 188
156 189
156 190
156 192
156 193
156 194
156 195
156 197
156 198
156 199
156 201
156 203
156 204
156 206
156 207
156 208
156 210
156 211
156 213
156 214
156 215
156 217
156 218
156 219
156 221
156 222
156 223
156 224
156 225
156 227
156 228
156 229
156 230
156 232
156 233
156 234
156 236
156 239
156 240
156 242
156 243
156 244
156 245
156 247
156 249
156 252
156 254
156 255
156 257
156 259
156 260
156 262
156 267
157 158
157 159
157 161
157 171
157 172
157 174
157 178
157 179
157 182
157 183
157 185
157 186
157 191
157 195
157 196
157 199
157 200
157 201
157 202
157 204
157 205
157 208
157 209
157 210
157 212
157 216
157 219
157 220
157 221
157 223
157 225
157 226
157 229
157 230
157 231
157 232
157 234
157 236
157 239
157 240
157 241
157 242
157 244
157 246
157 247
157 248
157 250
157 251
157 252
157 253
157 255
157 256
157 258
157 259
157 262
157 267
158 159
158 160
158 161
158 163
158 169
158 172
158 173
158 174
158 179
158 180
158 181
158 183
158 184
158 186
158 187
158 188
158 189
158 191
158 193
158 196
158 197
158 198
158 200
158 202
158 203
158 205
158 206
158 207
158 209
158 210
158 211
158 212
158 216
158 220
158 221
158 222
158 223
158 224
158 226
158 227
158 228
158 229
158 231
158 232
158 233
158 234
158 235
158 237
158 238
158 239
158 241
158 242
158 243
158 245
158 246
158 248
158 249
158 250
158 251
158 253
158 254
158 256
158 257
158 258
158 260
158 261
158 263
158 266
159 160
159 162
159 163
159 164
159 169
159 171
159 173
159 174
159 178
159 180
159 181
159 182
159 184
159 185
159 187
159 188
159 189
159 190
159 192
159 193
159 194
159 195
159 197
159 198
159 199
159 201
159 203
159 204
159 206
159 207
159 208
159 210
159 211
159 213
159 214
159 215
159 217
159 218
159 219
159 221
159 222
159 223
159 224
159 225
159 227
159 228
159 229
159 230
159 232
159 233
159 234
159 236
159 239
159 240
159 242
159 243
159 244
159 247
159 252
159 255
159 259
159 262
159 267
160 161
160 162
160 164
160 167
160 168
160 170
160 171
160 172
160 173
160 178
160 179
160 181
160 182
160 183
160 185
160 186
160 187
160 189
160 190
160 191
160 192
160 194
160 195
160 196
160 197
160 199
160 200
160 201
160 202
160 204
160 205
160 208
160 209
160 212
160 216
160 219
160 220
160 225
160 226
160 230
160 231
160 236
160 240
160 241
160 244
160 247
160 252
160 255
160 259
160 262
160 267
161 162
161 163
161 164
161 165
161 166
161 168
161 169
161 170
161 171
161 173
161 174
161 176
161 177
161 178
161 180
161 181
161 182
161 184
161 185
161 187
161 188
161 189
161 190
161 192
161 193
161 194
161 195
161 197
161 198
161 199
161 201
161 203
161 204
161 206
161 207
161 208
161 210
161 211
161 213
161 214
161 215
161 217
161 218
161 219
161 221
161 222
161 223
161 224
161 225
161 227
161 228
161 229
161 230
161 232
161 233
161 234
161 237
161 238
161 239
161 240
161 242
161 243
161 248
161 250
161 253
161 256
161 263
161 265
162 163
162 164
162 166
162 167
162 169
162 170
162 172
162 174
162 175
162 177
162 179
162 180
162 181
162 183
162 185
162 186
162 188
162 189
162 190
162 191
162 193
162 194
162 195
162 196
162 198
162 200
162 201
162 202
162 204
162 205
162 207
162 208
162 209
162 211
162 212
162 214
162 215
162 216
162 218
162 219
162 220
162 222
162 223
162 224
162 225
162 226
162 228
162 229
162 230
162 231
162 233
162 234
162 235
162 236
162 238
162 239
162 240
162 241
162 243
162 246
162 247
162 249
162 250
162 251
162 252
162 254
162 255
162 257
162 261
162 262
162 264
163 164
163 165
163 166
163 167
163 168
163 170
163 171
163 172
163 173
163 176
163 177
163 178
163 179
163 181
163 183
163 185
163 186
163 187
163 189
163 190
163 191
163 192
163 194
163 195
163 196
163 197
163 200
163 202
163 203
163 205
163 206
163 207
163 209
163 210
163 212
163 213
163 214
163 216
163 217
163 218
163 220
163 221
163 223
163 226
163 227
163 228
163 231
163 232
163 234
163 237
163 238
163 241
163 242
163 248
163 250
163 253
163 256
163 263
163 265
164 165
164 167
164 168
164 169
164 172
164 174
164 175
164 176
164 178
164 179
164 180
164 183
164 185
164 186
164 187
164 188
164 190
164 191
164 192
164 193
164 196
164 197
164 198
164 200
164 202
164 203
164 204
164 205
164 206
164 209
164 210
164 212
164 213
164 215
164 216
164 217
164 219
164 220
164 221
164 222
164 224
164 225
164 226
164 227
164 229
164 230
164 231
164 232
164 233
164 235
164 236
164 237
164 241
164 242
164 246
164 247
164 248
164 249
164 253
164 256
164 263
164 265
165 166
165 167
165 169
165 170
165 175
165 177
165 181
165 185
165 186
165 188
165 189
165 190
165 191
165 193
165 194
165 195
165 196
165 198
165 201
165 202
165 204
165 205
165 207
165 208
165 209
165 211
165 212
165 214
165 215
165 216
165 218
165 219
165 220
165 222
165 223
165 224
165 225
165 226
165 228
165 229
165 230
165 231
165 233
165 234
165 235
165 236
165 238
165 239
165 240
165 241
165 243
165 246
165 247
165 249
165 250
165 251
165 252
165 254
165 255
165 257
165 261
165 262
165 264
166 167
166 168
166 169
166 175
166 176
166 178
166 179
166 180
166 185
166 186
166 187
166 188
166 190
166 191
166 192
166 193
166 197
166 203
166 204
166 205
166 206
166 210
166 212
166 213
166 215
166 216
166 217
166 219
166 220
166 221
166 222
166 224
166 225
166 226
166 227
166 229
166 230
166 231
166 232
166 233
166 235
166 236
166 237
166 242
166 246
166 247
166 248
166 249
166 253
166 256
166 263
166 265
167 168
167 169
167 170
167 174
167 176
167 177
167 180
167 181
167 187
167 188
167 189
167 191
167 192
167 193
167 194
167 197
167 198
167 203
167 206
167 207
167 210
167 213
167 214
167 216
167 217
167 218
167 221
167 223
167 225
167 226
167 227
167 228
167 230
167 231
167 232
167 233
167 234
167 236
167 237
167 238
167 240
167 241
167 242
167 243
167 247
167 248
167 249
167 250
167 252
167 253
167 254
167 256
167 259
167 260
167 262
167 263
167 265
167 267
168 169
168 170
168 174
168 175
168 177
168 180
168 181
168 185
168 186
168 188
168 189
168 190
168 191
168 193
168 194
168 195
168 196
168 198
168 201
168 202
168 204
168 205
168 207
168 208
168 209
168 211
168 212
168 214
168 215
168 216
168 218
168 219
168 220
168 222
168 223
168 224
168 225
168 226
168 228
168 229
168 230
168 231
168 233
168 234
168 235
168 236
168 238
168 239
168 240
168 241
168 243
168 246
168 247
168 249
168 250
168 251
168 252
168 254
168 255
168 257
168 258
168 261
168 262
168 264
168 266
168 268
169 170
169 171
169 172
169 173
169 175
169 176
169 177
169 178
169 179
169 181
169 185
169 186
169 187
169 189
169 190
169 191
169 192
169 194
169 195
169 196
169 197
169 203
169 206
169 207
169 210
169 213
169 214
169 215
169 217
169 218
169 221
169 223
169 224
169 227
169 228
169 229
169 232
169 234
169 235
169 237
169 238
169 239
169 242
169 246
169 248
169 250
169 251
169 253
169 256
169 258
169 261
169 263
169 264
169 265
169 266
169 268
170 174
170 175
170 176
170 178
170 179
170 180
170 185
170 186
170 187
170 188
170 190
170 191
170 192
170 193
170 197
170 198
170 203
170 204
170 205
170 206
170 210
170 212
170 213
170 215
170 216
170 217
170 219
170 220
170 221
170 222
170 224
170 225
170 226
170 227
170 229
170 230
170 231
170 232
170 233
170 235
170 236
170 237
170 239
170 242
170 246
170 247
170 248
170 249
170 251
170 253
170 256
170 258
170 261
170 263
170 264
170 265
170 266
170 268
171 172
171 173
171 174
171 179
171 180
171 181
171 183
171 184
171 186
171 187
171 188
171 189
171 191
171 193
171 196
171 197
171 198
171 200
171 202
171 203
171 205
171 206
171 207
171 209
171 210
171 211
171 212
171 216
171 220
171 221
171 222
171 223
171 224
171 226
171 227
171 228
171 229
171 231
171 232
171 233
171 234
171 235
171 237
171 238
171 239
171 241
171 242
171 243
171 245
171 246
171 248
171 249
171 250
171 251
171 253
171 254
171 256
171 257
171 258
171 260
171 261
171 263
171 266
172 173
172 174
172 178
172 180
172 181
172 182
172 184
172 185
172 187
172 188
172 189
172 190
172 192
172 193
172 194
172 195
172 197
172 198
172 199
172 201
172 203
172 204
172 206
172 207
172 208
172 210
172 211
172 213
172 214
172 215
172 217
172 218
172 219
172 221
172 222
172 223
172 224
172 225
172 227
172 228
172 229
172 230
172 232
172 233
172 234
172 236
172 239
172 240
172 242
172 243
172 244
172 245
172 247
172 249
172 252
172 254
172 255
172 257
172 259
172 260
172 262
172 267
173 174
173 178
173 179
173 180
173 182
173 183
173 185
173 186
173 188
173 191
173 193
173 195
173 196
173 198
173 199
173 200
173 201
173 202
173 204
173 205
173 208
173 209
173 210
173 212
173 216
173 219
173 220
173 221
173 223
173 225
173 226
173 229
173 230
173 231
173 232
173 234
173 236
173 239
173 240
173 241
173 242
173 244
173 246
173 247
173 248
173 250
173 251
173 252
173 253
173 255
173 256
173 258
173 259
173 262
173 267
174 178
174 179
174 181
174 182
174 183
174 184
174 185
174 186
174 187
174 189
174 190
174 191
174 192
174 194
174 195
174 196
174 197
174 199
174 200
174 201
174 202
174 204
174 205
174 208
174 209
174 211
174 212
174 216
174 219
174 220
174 222
174 225
174 226
174 230
174 231
174 233
174 236
174 240
174 241
174 243
174 244
174 245
174 247
174 249
174 252
174 254
174 255
174 257
174 259
174 260
174 262
174 267
175 176
175 177
175 181
175 187
175 189
175 191
175 192
175 193
175 194
175 197
175 203
175 206
175 207
175 210
175 213
175 214
175 216
175 217
175 218
175 221
175 223
175 225
175 226
175 227
175 228
175 230
175 231
175 232
175 233
175 234
175 236
175 237
175 238
175 240
175 241
175 242
175 243
175 247
175 248
175 249
175 250
175 252
175 253
175 254
175 256
175 259
175 260
175 262
175 263
175 265
175 267
176 177
176 181
176 185
176 186
176 188
176 189
176 190
176 191
176 193
176 194
176 195
176 196
176 198
176 201
176 202
176 204
176 205
176 207
176 208
176 209
176 211
176 212
176 214
176 215
176 216
176 218
176 219
176 220
176 222
176 223
176 224
176 225
176 226
176 228
176 229
176 230
176 231
176 233
176 234
176 235
176 236
176 238
176 239
176 240
176 241
176 243
176 246
176 247
176 249
176 250
176 251
176 252
176 254
176 255
176 257
176 258
176 261
176 262
176 264
176 266
176 268
177 178
177 179
177 180
177 185
177 186
177 187
177 188
177 190
177 191
177 192
177 193
177 197
177 203
177 204
177 205
177 206
177 210
177 212
177 213
177 215
177 216
177 217
177 219
177 220
177 221
177 222
177 224
177 225
177 226
177 227
177 229
177 230
177 231
177 232
177 233
177 235
177 236
177 237
177 239
177 242
177 246
177 247
177 248
177 249
177 251
177 253
177 256
177 258
177 261
177 263
177 264
177 265
177 266
177 268
178 179
178 180
178 181
178 183
178 184
178 186
178 187
178 188
178 189
178 191
178 193
178 194
178 196
178 197
178 198
178 200
178 202
178 203
178 205
178 206
178 207
178 209
178 210
178 211
178 212
178 214
178 216
178 218
178 220
178 221
178 222
178 223
178 224
178 226
178 227
178 228
178 229
178 231
178 232
178 233
178 234
178 235
178 237
178 238
178 239
178 241
178 242
178 243
178 245
178 246
178 248
178 249
178 250
178 251
178 253
178 254
178 256
178 257
178 258
178 260
178 261
178 263
178 266
179 180
179 181
179 182
179 184
179 185
179 187
179 188
179 189
179 190
179 192
179 193
179 194
179 195
179 197
179 198
179 199
179 201
179 203
179 204
179 206
179 207
179 208
179 210
179 211
179 213
179 214
179 215
179 217
179 218
179 219
179 221
179 222
179 223
179 224
179 225
179 227
179 228
179 229
179 230
179 232
179 233
179 234
179 236
179 238
179 239
179 240
179 242
179 243
179 244
179 247
179 250
179 252
179 255
179 259
179 262
179 267
180 181
180 182
180 183
180 185
180 186
180 187
180 189
180 190
180 191
180 192
180 194
180 195
180 196
180 197
180 199
180 200
180 201
180 202
180 204
180 205
180 207
180 208
180 209
180 212
180 214
180 216
180 218
180 219
180 220
180 223
180 225
180 226
180 228
180 230
180 231
180 234
180 236
180 238
180 240
180 241
180 244
180 247
180 250
180 252
180 255
180 259
180 262
180 267
181 182
181 183
181 185
181 186
181 187
181 188
181 190
181 191
181 192
181 193
181 195
181 196
181 198
181 199
181 200
181 201
181 202
181 204
181 205
181 206
181 208
181 209
181 212
181 213
181 215
181 216
181 217
181 219
181 220
181 221
181 222
181 224
181 225
181 226
181 227
181 229
181 230
181 231
181 232
181 233
181 235
181 236
181 237
181 240
181 241
181 244
181 246
181 247
181 248
181 249
181 252
181 255
181 259
181 262
181 267
182 183
182 184
182 186
182 187
182 188
182 189
182 191
182 196
182 197
182 198
182 200
182 202
182 203
182 205
182 206
182 207
182 209
182 210
182 211
182 212
182 216
182 220
182 221
182 222
182 223
182 224
182 226
182 227
182 228
182 229
182 231
182 232
182 233
182 234
182 235
182 237
182 238
182 239
182 241
182 242
182 243
182 245
182 246
182 248
182 249
182 250
182 251
182 253
182 254
182 256
182 257
182 258
182 260
182 261
182 263
182 266
183 184
183 185
183 187
183 188
183 189
183 190
183 192
183 193
183 194
183 195
183 197
183 198
183 199
183 201
183 203
183 204
183 206
183 207
183 208
183 210
183 211
183 213
183 214
183 215
183 217
183 218
183 219
183 221
183 222
183 223
183 224
183 225
183 227
183 228
183 229
183 230
183 232
183 233
183 234
183 236
183 239
183 240
183 242
183 243
183 244
183 245
183 247
183 249
183 252
183 254
183 255
183 257
183 259
183 260
183 262
183 267
184 185
184 186
184 191
184 195
184 196
184 199
184 200
184 201
184 202
184 204
184 205
184 208
184 209
184 210
184 212
184 216
184 219
184 220
184 221
184 223
184 225
184 226
184 229
184 230
184 231
184 232
184 234
184 236
184 239
184 240
184 241
184 242
184 244
184 246
184 247
184 248
184 250
184 251
184 252
184 253
184 255
184 256
184 258
184 259
184 262
184 267
185 186
185 187
185 188
185 189
185 191
185 192
185 193
185 194
185 196
185 197
185 198
185 200
185 202
185 203
185 205
185 206
185 207
185 209
185 210
185 211
185 212
185 213
185 214
185 216
185 217
185 218
185 220
185 221
185 222
185 223
185 224
185 226
185 227
185 228
185 229
185 231
185 232
185 233
185 234
185 235
185 237
185 238
185 239
185 241
185 242
185 243
185 245
185 246
185 248
185 249
185 250
185 251
185 253
185 254
185 256
185 257
185 258
185 260
185 261
185 263
185 265
185 266
186 187
186 188
186 189
186 190
186 192
186 193
186 194
186 195
186 197
186 198
186 199
186 201
186 203
186 204
186 206
186 207
186 208
186 210
186 211
186 213
186 214
186 215
186 217
186 218
186 219
186 221
186 222
186 223
186 224
186 225
186 227
186 228
186 229
186 230
186 232
186 233
186 234
186 236
186 237
186 238
186 239
186 240
186 242
186 243
186 244
186 247
186 248
186 250
186 252
186 253
186 255
186 256
186 259
186 262
186 263
186 265
186 267
187 188
187 189
187 190
187 191
187 193
187 194
187 195
187 196
187 198
187 199
187 200
187 201
187 202
187 204
187 205
187 207
187 208
187 209
187 211
187 212
187 214
187 215
187 216
187 218
187 219
187 220
187 222
187 223
187 224
187 225
187 226
187 228
187 229
187 230
187 231
187 233
187 234
187 235
187 236
187 238
187 239
187 240
187 241
187 243
187 244
187 246
187 247
187 249
187 250
187 251
187 252
187 254
187 255
187 257
187 259
187 261
187 262
187 264
187 267
188 189
188 190
188 191
188 192
188 194
188 195
188 196
188 197
188 199
188 200
188 201
188 202
188 203
188 204
188 205
188 206
188 207
188 208
188 209
188 210
188 212
188 213
188 214
188 216
188 217
188 218
188 219
188 220
188 221
188 223
188 225
188 226
188 227
188 228
188 230
188 231
188 232
188 234
188 236
188 237
188 238
188 240
188 241
188 242
188 244
188 247
188 248
188 250
188 252
188 253
188 255
188 256
188 259
188 262
188 263
188 265
188 267
189 190
189 191
189 192
189 193
189 195
189 196
189 197
189 198
189 199
189 200
189 201
189 202
189 203
189 204
189 205
189 206
189 208
189 209
189 210
189 212
189 213
189 215
189 216
189 217
189 219
189 220
189 221
189 222
189 224
189 225
189 226
189 227
189 229
189 230
189 231
189 232
189 233
189 235
189 236
189 237
189 240
189 241
189 242
189 244
189 246
189 247
189 248
189 249
189 252
189 253
189 255
189 256
189 259
189 262
189 263
189 265
189 267
190 191
190 192
190 193
190 194
190 196
190 197
190 198
190 200
190 202
190 203
190 205
190 206
190 207
190 209
190 210
190 212
190 213
190 214
190 216
190 217
190 218
190 220
190 221
190 223
190 225
190 226
190 227
190 228
190 230
190 231
190 232
190 233
190 234
190 236
190 237
190 238
190 240
190 241
190 242
190 243
190 247
190 248
190 249
190 250
190 252
190 253
190 254
190 256
190 259
190 260
190 262
190 263
190 265
190 267
191 192
191 193
191 194
191 195
191 197
191 198
191 199
191 201
191 203
191 204
191 206
191 207
191 208
191 210
191 211
191 213
191 214
191 215
191 217
191 218
191 219
191 221
191 222
191 223
191 224
191 225
191 227
191 228
191 229
191 230
191 232
191 233
191 234
191 235
191 237
191 238
191 239
191 240
191 242
191 243
191 246
191 248
191 250
191 251
191 253
191 256
191 258
191 261
191 263
191 264
191 265
191 266
191 268
192 193
192 194
192 195
192 196
192 198
192 200
192 201
192 202
192 204
192 205
192 207
192 208
192 209
192 211
192 212
192 214
192 215
192 216
192 218
192 219
192 220
192 222
192 223
192 224
192 225
192 226
192 228
192 229
192 230
192 231
192 233
192 234
192 235
192 236
192 238
192 239
192 240
192 241
192 243
192 246
192 247
192 249
192 250
192 251
192 252
192 254
192 255
192 257
192 258
192 261
192 262
192 264
192 266
192 268
193 194
193 195
193 196
193 197
193 200
193 202
193 203
193 205
193 206
193 207
193 209
193 210
193 212
193 213
193 214
193 215
193 216
193 217
193 218
193 220
193 221
193 223
193 224
193 226
193 227
193 228
193 229
193 231
193 232
193 234
193 235
193 237
193 238
193 239
193 241
193 242
193 246
193 248
193 250
193 251
193 253
193 256
193 258
193 261
193 263
193 264
193 265
193 266
193 268
194 196
194 197
194 198
194 200
194 202
194 203
194 204
194 205
194 206
194 209
194 210
194 212
194 213
194 215
194 216
194 217
194 219
194 220
194 221
194 222
194 224
194 225
194 226
194 227
194 229
194 230
194 231
194 232
194 233
194 235
194 236
194 237
194 239
194 241
194 242
194 246
194 247
194 248
194 249
194 251
194 253
194 256
194 258
194 261
194 263
194 264
194 265
194 266
194 268
195 196
195 197
195 198
195 200
195 202
195 203
195 205
195 206
195 207
195 209
195 210
195 211
195 212
195 213
195 216
195 217
195 220
195 221
195 222
195 223
195 224
195 226
195 227
195 228
195 229
195 231
195 232
195 233
195 234
195 235
195 237
195 238
195 239
195 241
195 242
195 243
195 245
195 246
195 248
195 249
195 250
195 251
195 253
195 254
195 256
195 257
195 258
195 260
195 261
195 263
195 265
195 266
196 197
196 198
196 199
196 201
196 203
196 204
196 206
196 207
196 208
196 210
196 211
196 213
196 214
196 215
196 217
196 218
196 219
196 221
196 222
196 223
196 224
196 225
196 227
196 228
196 229
196 230
196 232
196 233
196 234
196 236
196 237
196 239
196 240
196 242
196 243
196 244
196 247
196 248
196 252
196 253
196 255
196 256
196 259
196 262
196 263
196 265
196 267
197 198
197 199
197 200
197 201
197 202
197 204
197 205
197 207
197 208
197 209
197 211
197 212
197 214
197 215
197 216
197 218
197 219
197 220
197 222
197 223
197 224
197 225
197 226
197 228
197 229
197 230
197 231
197 233
197 234
197 235
197 236
197 238
197 239
197 240
197 241
197 243
197 244
197 246
197 247
197 249
197 250
197 251
197 252
197 254
197 255
197 257
197 259
197 261
197 262
197 264
197 267
198 199
198 200
198 201
198 202
198 203
198 204
198 205
198 206
198 208
198 209
198 210
198 212
198 213
198 216
198 217
198 219
198 220
198 221
198 225
198 226
198 227
198 230
198 231
198 232
198 236
198 237
198 240
198 241
198 242
198 244
198 247
198 248
198 252
198 253
198 255
198 256
198 259
198 262
198 263
198 265
198 267
199 200
199 202
199 203
199 205
199 206
199 207
199 209
199 210
199 211
199 212
199 216
199 220
199 221
199 222
199 223
199 224
199 226
199 227
199 228
199 229
199 231
199 232
199 233
199 234
199 235
199 237
199 238
199 239
199 241
199 242
199 243
199 245
199 246
199 248
199 249
199 250
199 251
199 253
199 254
199 256
199 257
199 258
199 260
199 261
199 263
199 266
200 201
200 203
200 204
200 206
200 207
200 208
200 210
200 211
200 213
200 214
200 215
200 217
200 218
200 219
200 221
200 222
200 223
200 224
200 225
200 227
200 228
200 229
200 230
200 232
200 233
200 234
200 236
200 239
200 240
200 242
200 243
200 244
200 247
200 252
200 255
200 259
200 262
200 267
201 202
201 203
201 205
201 206
201 207
201 209
201 210
201 211
201 212
201 213
201 216
201 217
201 220
201 221
201 222
201 223
201 224
201 226
201 227
201 228
201 229
201 231
201 232
201 233
201 234
201 235
201 237
201 238
201 239
201 241
201 242
201 243
201 245
201 246
201 248
201 249
201 250
201 251
201 253
201 254
201 256
201 257
201 258
201 260
201 261
201 263
201 265
201 266
202 203
202 204
202 206
202 207
202 208
202 210
202 211
202 213
202 214
202 215
202 217
202 218
202 219
202 221
202 222
202 223
202 224
202 225
202 227
202 228
202 229
202 230
202 232
202 233
202 234
202 236
202 237
202 239
202 240
202 242
202 243
202 244
202 247
202 248
202 252
202 253
202 255
202 256
202 259
202 262
202 263
202 265
202 267
203 204
203 205
203 207
203 208
203 209
203 211
203 212
203 214
203 215
203 216
203 218
203 219
203 220
203 222
203 223
203 224
203 225
203 226
203 228
203 229
203 230
203 231
203 233
203 234
203 235
203 236
203 238
203 239
203 240
203 241
203 243
203 244
203 246
203 247
203 249
203 250
203 251
203 252
203 254
203 255
203 257
203 259
203 261
203 262
203 264
203 267
204 205
204 206
204 207
204 209
204 210
204 211
204 212
204 213
204 214
204 216
204 217
204 218
204 220
204 221
204 222
204 223
204 224
204 226
204 227
204 228
204 229
204 231
204 232
204 233
204 234
204 235
204 237
204 238
204 239
204 241
204 242
204 243
204 245
204 246
204 248
204 249
204 250
204 251
204 253
204 254
204 256
204 257
204 258
204 260
204 261
204 263
204 265
204 266
205 206
205 207
205 208
205 210
205 211
205 213
205 214
205 215
205 217
205 218
205 219
205 221
205 222
205 223
205 224
205 225
205 227
205 228
205 229
205 230
205 232
205 233
205 234
205 236
205 237
205 238
205 239
205 240
205 242
205 243
205 244
205 247
205 248
205 250
205 252
205 253
205 255
205 256
205 259
205 262
205 263
205 265
205 267
206 207
206 208
206 209
206 211
206 212
206 214
206 215
206 216
206 218
206 219
206 220
206 222
206 223
206 224
206 225
206 226
206 228
206 229
206 230
206 231
206 233
206 234
206 235
206 236
206 238
206 239
206 240
206 241
206 243
206 244
206 246
206 247
206 249
206 250
206 251
206 252
206 254
206 255
206 257
206 259
206 261
206 262
206 264
206 267
207 208
207 209
207 210
207 212
207 213
207 215
207 216
207 217
207 219
207 220
207 221
207 222
207 224
207 225
207 226
207 227
207 229
207 230
207 231
207 232
207 233
207 235
207 236
207 237
207 240
207 241
207 242
207 244
207 246
207 247
207 248
207 249
207 252
207 253
207 255
207 256
207 259
207 262
207 263
207 265
207 267
208 209
208 210
208 211
208 212
208 213
208 216
208 217
208 220
208 221
208 222
208 223
208 224
208 226
208 227
208 228
208 229
208 231
208 232
208 233
208 234
208 235
208 237
208 238
208 239
208 241
208 242
208 243
208 245
208 246
208 248
208 249
208 250
208 251
208 253
208 254
208 256
208 257
208 258
208 260
208 261
208 263
208 265
208 266
209 210
209 211
209 213
209 214
209 215
209 217
209 218
209 219
209 221
209 222
209 223
209 224
209 225
209 227
209 228
209 229
209 230
209 232
209 233
209 234
209 236
209 237
209 239
209 240
209 242
209 243
209 244
209 245
209 247
209 248
209 249
209 252
209 253
209 254
209 255
209 256
209 257
209 259
209 260
209 262
209 263
209 265
209 267
210 211
210 212
210 214
210 215
210 216
210 218
210 219
210 220
210 222
210 223
210 224
210 225
210 226
210 228
210 229
210 230
210 231
210 233
210 234
210 235
210 236
210 238
210 239
210 240
210 241
210 243
210 244
210 245
210 246
210 247
210 249
210 250
210 251
210 252
210 254
210 255
210 257
210 259
210 260
210 261
210 262
210 264
210 267
211 212
211 213
211 216
211 217
211 219
211 220
211 221
211 223
211 225
211 226
211 227
211 229
211 230
211 231
211 232
211 234
211 236
211 237
211 239
211 240
211 241
211 242
211 244
211 246
211 247
211 248
211 250
211 251
211 252
211 253
211 255
211 256
211 258
211 259
211 262
211 263
211 265
211 267
212 213
212 214
212 215
212 217
212 218
212 219
212 221
212 222
212 223
212 224
212 225
212 227
212 228
212 229
212 230
212 232
212 233
212 234
212 237
212 238
212 239
212 240
212 242
212 243
212 248
212 250
212 253
212 256
212 263
212 265
213 214
213 215
213 216
213 218
213 219
213 220
213 222
213 223
213 224
213 225
213 226
213 228
213 229
213 230
213 231
213 233
213 234
213 235
213 236
213 238
213 239
213 240
213 241
213 243
213 246
213 247
213 249
213 250
213 251
213 252
213 254
213 255
213 257
213 261
213 262
213 264
214 215
214 216
214 217
214 219
214 220
214 221
214 222
214 224
214 225
214 226
214 227
214 229
214 230
214 231
214 232
214 233
214 235
214 236
214 237
214 241
214 242
214 246
214 247
214 248
214 249
214 253
214 256
214 263
214 265
215 216
215 217
215 218
215 220
215 221
215 223
215 225
215 226
215 227
215 228
215 230
215 231
215 232
215 233
215 234
215 236
215 237
215 238
215 240
215 241
215 242
215 243
215 247
215 248
215 249
215 250
215 252
215 253
215 254
215 256
215 259
215 260
215 262
215 263
215 265
215 267
216 217
216 218
216 219
216 221
216 222
216 223
216 224
216 225
216 227
216 228
216 229
216 230
216 232
216 233
216 234
216 235
216 237
216 238
216 239
216 240
216 242
216 243
216 246
216 248
216 250
216 251
216 253
216 256
216 258
216 261
216 263
216 264
216 265
216 266
216 268
217 218
217 219
217 220
217 222
217 223
217 224
217 225
217 226
217 228
217 229
217 230
217 231
217 233
217 234
217 235
217 236
217 238
217 239
217 240
217 241
217 243
217 246
217 247
217 249
217 250
217 251
217 252
217 254
217 255
217 257
217 258
217 261
217 262
217 264
217 266
217 268
218 219
218 220
218 221
218 222
218 224
218 225
218 226
218 227
218 229
218 230
218 231
218 232
218 233
218 235
218 236
218 237
218 239
218 241
218 242
218 246
218 247
218 248
218 249
218 251
218 253
218 256
218 258
218 261
218 263
218 264
218 265
218 266
218 268
219 220
219 221
219 222
219 223
219 224
219 226
219 227
219 228
219 229
219 231
219 232
219 233
219 234
219 235
219 237
219 238
219 239
219 241
219 242
219 243
219 245
219 246
219 248
219 249
219 250
219 251
219 253
219 254
219 256
219 257
219 258
219 260
219 261
219 263
219 265
219 266
220 221
220 222
220 223
220 224
220 225
220 227
220 228
220 229
220 230
220 232
220 233
220 234
220 236
220 237
220 238
220 239
220 240
220 242
220 243
220 244
220 245
220 247
220 248
220 249
220 250
220 252
220 253
220 254
220 255
220 256
220 257
220 259
220 260
220 262
220 263
220 265
220 267
221 222
221 223
221 224
221 225
221 226
221 228
221 229
221 230
221 231
221 233
221 234
221 235
221 236
221 238
221 239
221 240
221 241
221 243
221 244
221 245
221 246
221 247
221 249
221 250
221 251
221 252
221 254
221 255
221 257
221 259
221 260
221 261
221 262
221 264
221 267
222 223
222 225
222 226
222 227
222 228
222 229
222 230
222 231
222 232
222 234
222 236
222 237
222 238
222 239
222 240
222 241
222 242
222 244
222 246
222 247
222 248
222 250
222 251
222 252
222 253
222 255
222 256
222 258
222 259
222 262
222 263
222 265
222 267
223 224
223 225
223 226
223 227
223 229
223 230
223 231
223 232
223 233
223 235
223 236
223 237
223 240
223 241
223 242
223 243
223 244
223 245
223 246
223 247
223 248
223 249
223 252
223 253
223 254
223 255
223 256
223 257
223 259
223 260
223 262
223 263
223 265
223 267
224 225
224 226
224 227
224 228
224 230
224 231
224 232
224 233
224 234
224 236
224 237
224 238
224 240
224 241
224 242
224 243
224 244
224 247
224 248
224 249
224 250
224 252
224 253
224 254
224 255
224 256
224 259
224 260
224 262
224 263
224 265
224 267
225 226
225 227
225 228
225 229
225 231
225 232
225 233
225 234
225 235
225 237
225 238
225 239
225 241
225 242
225 243
225 245
225 246
225 248
225 249
225 250
225 251
225 253
225 254
225 256
225 257
225 258
225 260
225 261
225 263
225 264
225 265
225 266
225 268
226 227
226 228
226 229
226 230
226 232
226 233
226 234
226 235
226 236
226 237
226 238
226 239
226 240
226 242
226 243
226 244
226 246
226 247
226 248
226 250
226 251
226 252
226 253
226 255
226 256
226 258
226 259
226 261
226 262
226 263
226 264
226 265
226 266
226 267
226 268
227 228
227 229
227 230
227 231
227 233
227 234
227 235
227 236
227 238
227 239
227 240
227 241
227 243
227 244
227 246
227 247
227 249
227 250
227 251
227 252
227 254
227 255
227 257
227 258
227 259
227 261
227 262
227 264
227 266
227 267
227 268
228 229
228 230
228 231
228 232
228 233
228 235
228 236
228 237
228 239
228 240
228 241
228 242
228 244
228 246
228 247
228 248
228 249
228 251
228 252
228 253
228 255
228 256
228 258
228 259
228 261
228 262
228 263
228 264
228 265
228 266
228 267
228 268
229 230
229 231
229 232
229 233
229 234
229 236
229 237
229 238
229 240
229 241
229 242
229 243
229 244
229 245
229 247
229 248
229 249
229 250
229 252
229 253
229 254
229 255
229 256
229 257
229 259
229 260
229 262
229 263
229 265
229 267
230 231
230 232
230 233
230 234
230 235
230 237
230 238
230 239
230 241
230 242
230 243
230 245
230 246
230 248
230 249
230 250
230 251
230 253
230 254
230 256
230 257
230 258
230 260
230 261
230 263
230 264
230 265
230 266
230 268
231 232
231 233
231 234
231 235
231 236
231 237
231 238
231 239
231 240
231 242
231 243
231 244
231 245
231 246
231 247
231 248
231 249
231 250
231 251
231 252
231 253
231 254
231 255
231 256
231 257
231 258
231 259
231 260
231 261
231 262
231 263
231 264
231 265
231 266
231 267
231 268
232 233
232 234
232 235
232 236
232 238
232 239
232 240
232 241
232 243
232 244
232 245
232 246
232 247
232 249
232 250
232 251
232 252
232 254
232 255
232 257
232 258
232 259
232 260
232 261
232 262
232 264
232 266
232 267
232 268
233 234
233 235
233 236
233 237
233 238
233 239
233 240
233 241
233 242
233 244
233 246
233 247
233 248
233 250
233 251
233 252
233 253
233 255
233 256
233 258
233 259
233 261
233 262
233 263
233 264
233 265
233 266
233 267
233 268
234 235
234 236
234 237
234 239
234 240
234 241
234 242
234 243
234 244
234 245
234 246
234 247
234 248
234 249
234 251
234 252
234 253
234 254
234 255
234 256
234 257
234 258
234 259
234 260
234 261
234 262
234 263
234 264
234 265
234 266
234 267
234 268
235 236
235 237
235 238
235 240
235 241
235 242
235 243
235 244
235 247
235 248
235 249
235 250
235 252
235 253
235 254
235 255
235 256
235 259
235 260
235 262
235 263
235 265
235 267
236 237
236 238
236 239
236 241
236 242
236 243
236 245
236 246
236 248
236 249
236 250
236 251
236 253
236 254
236 256
236 257
236 258
236 260
236 261
236 263
236 264
236 265
236 266
236 268
237 238
237 239
237 240
237 241
237 243
237 244
237 246
237 247
237 249
237 250
237 251
237 252
237 254
237 255
237 257
237 258
237 259
237 261
237 262
237 264
237 266
237 267
237 268
238 239
238 240
238 242
238 244
238 246
238 247
238 248
238 249
238 251
238 252
238 253
238 255
238 256
238 258
238 259
238 261
238 262
238 263
238 264
238 265
238 266
238 267
238 268
239 240
239 241
239 242
239 243
239 244
239 245
239 247
239 248
239 249
239 250
239 252
239 253
239 254
239 255
239 256
239 257
239 259
239 260
239 262
239 263
239 265
239 267
240 241
240 242
240 243
240 245
240 246
240 248
240 249
240 250
240 251
240 253
240 254
240 256
240 257
240 258
240 260
240 261
240 263
240 264
240 265
240 266
240 268
241 242
241 243
241 244
241 245
241 246
241 247
241 248
241 249
241 251
241 252
241 253
241 254
241 255
241 256
241 257
241 258
241 259
241 260
241 261
241 262
241 263
241 264
241 265
241 266
241 267
241 268
242 243
242 244
242 245
242 246
242 247
242 249
242 250
242 251
242 252
242 254
242 255
242 257
242 258
242 259
242 260
242 261
242 262
242 264
242 266
242 267
242 268
243 244
243 246
243 247
243 248
243 250
243 251
243 252
243 253
243 255
243 256
243 258
243 259
243 261
243 262
243 263
243 264
243 265
243 266
243 267
243 268
244 245
244 246
244 248
244 249
244 250
244 251
244 253
244 254
244 256
244 257
244 258
244 260
244 261
244 263
244 266
245 246
245 247
245 248
245 250
245 251
245 252
245 253
245 255
245 256
245 258
245 259
245 262
245 267
246 247
246 248
246 249
246 250
246 252
246 253
246 254
246 255
246 256
246 257
246 259
246 260
246 262
246 263
246 265
246 267
247 248
247 249
247 250
247 251
247 253
247 254
247 256
247 257
247 258
247 260
247 261
247 263
247 264
247 265
247 266
247 268
248 249
248 250
248 251
248 252
248 254
248 255
248 257
248 258
248 259
248 260
248 261
248 262
248 264
248 266
248 267
248 268
249 250
249 251
249 252
249 253
249 255
249 256
249 258
249 259
249 261
249 262
249 263
249 264
249 265
249 266
249 267
249 268
250 251
250 252
250 253
250 254
250 255
250 256
250 257
250 258
250 259
250 260
250 261
250 262
250 263
250 264
250 265
250 266
250 267
250 268
251 252
251 253
251 254
251 255
251 256
251 257
251 259
251 260
251 262
251 263
251 265
251 267
252 253
252 254
252 256
252 257
252 258
252 260
252 261
252 263
252 264
252 265
252 266
252 268
253 254
253 255
253 257
253 258
253 259
253 260
253 261
253 262
253 264
253 266
253 267
253 268
254 255
254 256
254 258
254 259
254 261
254 262
254 263
254 264
254 265
254 266
254 267
254 268
255 256
255 257
255 258
255 260
255 261
255 263
255 265
255 266
256 257
256 259
256 260
256 261
256 262
256 264
256 267
257 258
257 259
257 262
257 263
257 265
257 267
258 259
258 260
258 262
258 263
258 265
258 267
259 260
259 261
259 263
259 264
259 266
259 268
260 261
260 262
260 264
260 266
260 267
260 268
261 262
261 263
261 265
261 267
262 263
262 264
262 265
262 266
262 268
263 264
263 266
263 267
263 268
264 265
264 267
265 266
265 268
266 267
267 268
